********************************************************************************
Field Output Report, written Sun Apr 16 03:18:00 2023

Source 1
---------

   ODB: C:/Temp/XX_displacement.odb
   Step: Loading_step
   Frame: Increment      1: Step Time =    1.000

Loc 1 : Centroidal values from source 1

Output sorted by column "Element Label".

Field Output reported at element centroid for region: PART-1-1.Region_2

         Element         S.Mises     S.Max. Prin  S.Max. Prin(a)     S.Mid. Prin     S.Min. Prin        S.Tresca      S.Pressure     S.Third Inv           S.S11           S.S22           S.S33           S.S12           S.S13           S.S23
           Label          @Loc 1          @Loc 1          @Loc 1          @Loc 1          @Loc 1          @Loc 1          @Loc 1          @Loc 1          @Loc 1          @Loc 1          @Loc 1          @Loc 1          @Loc 1          @Loc 1
-------------------------------------------------------------------------------------------------------------------------------------------------------------------------------------------------------------------------------------------------
            4721    3.35085E+006    3.42577E+006    3.42577E+006    3.60299E+005   -1.51564E+005    3.57734E+006   -1.21150E+006    3.26116E+006    3.42577E+006    7.87687E+004    1.29967E+005    1.63297E+003   -6.10848E+002    2.54648E+005
            4722    3.34836E+006    3.44122E+006    3.44122E+006    3.96249E+005   -1.44667E+005    3.58589E+006   -1.23094E+006    3.24788E+006    3.44122E+006    3.28973E+004    2.18686E+005    2.03720E+003   -6.49864E+002    2.54004E+005
            4723    3.34458E+006    3.45544E+006    3.45544E+006    4.31021E+005   -1.36643E+005    3.59208E+006   -1.24994E+006    3.23352E+006    3.45544E+006   -8.53981E+003    3.02919E+005    1.88791E+003   -7.39014E+002    2.37294E+005
            4724    3.33609E+006    3.47205E+006    3.47205E+006    4.59217E+005   -1.13231E+005    3.58528E+006   -1.27268E+006    3.22281E+006    3.47204E+006   -3.57727E+004    3.81760E+005    1.42214E+003   -6.17168E+002    1.95808E+005
            4725    3.31922E+006    3.47634E+006    3.47634E+006    4.08241E+005   -4.69936E+004    3.52334E+006   -1.27920E+006    3.24787E+006    3.47634E+006   -1.50411E+004    3.76289E+005   -4.49697E+002   -9.00186E+002    1.16297E+005
            4726    3.31110E+006    3.48161E+006    3.48161E+006    3.83988E+005   -8.06075E+003    3.48967E+006   -1.28585E+006    3.25827E+006    3.48161E+006   -3.82614E+003    3.79753E+005    4.35837E+001    5.30863E+001    4.05246E+004
            4727    3.32541E+006    3.45178E+006    3.45178E+006    3.52493E+005   -6.10744E+004    3.51285E+006   -1.24773E+006    3.26680E+006    3.45178E+006   -4.73768E+003    2.96157E+005   -1.00986E+003   -7.87151E+002    1.41863E+005
            4728    3.31890E+006    3.44760E+006    3.44760E+006    2.92059E+005   -1.35269E+004    3.46113E+006   -1.24204E+006    3.28703E+006    3.44760E+006   -5.16481E+003    2.83696E+005    1.94814E+002    5.73279E+001    4.98537E+004
            4729    3.33148E+006    3.42892E+006    3.42892E+006    2.99676E+005   -7.33980E+004    3.50232E+006   -1.21840E+006    3.28399E+006    3.42892E+006    9.78818E+003    2.16491E+005   -1.13113E+003   -3.33348E+002    1.55289E+005
            4730    3.32755E+006    3.41505E+006    3.41505E+006    1.99565E+005   -1.42586E+004    3.42931E+006   -1.20012E+006    3.31204E+006    3.41505E+006    1.76007E+002    1.85131E+005    1.42582E+002    8.60277E+001    5.36480E+004
            4731    3.33362E+006    3.41041E+006    3.41041E+006    2.40493E+005   -6.57806E+004    3.47619E+006   -1.19504E+006    3.30175E+006    3.41041E+006    4.26646E+004    1.32048E+005   -1.33083E+003    4.11565E+001    1.46470E+005
            4732    3.33591E+006    3.38833E+006    3.38833E+006    1.17355E+005   -8.92867E+003    3.39726E+006   -1.16559E+006    3.33053E+006    3.38833E+006    8.77547E+003    9.96507E+004    4.32798E+002   -6.48473E+000    4.38440E+004
            4733    3.34287E+006    3.36804E+006    3.36804E+006    5.64910E+004   -5.28739E+003    3.37333E+006   -1.13975E+006    3.34158E+006    3.36804E+006    1.02578E+004    4.09458E+004    5.69860E+001   -1.08653E+002    2.68087E+004
            4734    3.34730E+006    3.35611E+006    3.35611E+006    1.76254E+004    6.27029E+001    3.35604E+006   -1.12460E+006    3.34719E+006    3.35611E+006    9.10400E+003    8.58410E+003   -4.15012E+001    4.05785E+001    8.77750E+003
            4735    3.33507E+006    3.39396E+006    3.39396E+006    1.60358E+005   -3.40753E+004    3.42803E+006   -1.17341E+006    3.32228E+006    3.39396E+006    6.51333E+004    6.11491E+004   -2.71185E+002    2.57677E+002    9.71960E+004
            4736    3.34254E+006    3.36880E+006    3.36880E+006    5.86221E+004   -5.17633E+003    3.37398E+006   -1.14075E+006    3.34117E+006    3.36880E+006    4.38011E+004    9.64463E+003    1.07877E+002   -5.51239E+001    2.69424E+004
            4737    3.33509E+006    3.39056E+006    3.39056E+006    1.23614E+005   -8.73165E+003    3.39929E+006   -1.16848E+006    3.32917E+006    3.39056E+006    1.06856E+005    8.02652E+003    3.59165E+001   -4.26691E+002    4.40117E+004
            4738    3.32631E+006    3.41902E+006    3.41902E+006    2.11015E+005   -1.41479E+004    3.43317E+006   -1.20530E+006    3.30910E+006    3.41902E+006    1.97923E+005   -1.05538E+003   -8.52556E+001   -1.02558E+002    5.26928E+004
            4739    3.31702E+006    3.45432E+006    3.45432E+006    3.10053E+005   -1.19694E+004    3.46629E+006   -1.25080E+006    3.28158E+006    3.45432E+006    3.03010E+005   -4.92678E+003   -5.24955E+001   -8.66332E+001    4.70987E+004
            4740    3.30948E+006    3.48934E+006    3.48934E+006    4.05152E+005   -6.83767E+003    3.49618E+006   -1.29589E+006    3.25103E+006    3.48934E+006    4.01747E+005   -3.43290E+003   -3.35656E+001    6.68333E+001    3.72979E+004
            4741    3.33340E+006    3.41123E+006    3.41123E+006    2.43455E+005   -6.61746E+004    3.47741E+006   -1.19617E+006    3.30081E+006    3.41123E+006    1.40561E+005    3.67197E+004   -1.08379E+002    1.28441E+003    1.45849E+005
            4742    3.33058E+006    3.43184E+006    3.43184E+006    3.06161E+005   -7.14401E+004    3.50328E+006   -1.22219E+006    3.28190E+006    3.43184E+006    2.29821E+005    4.90014E+003    3.66483E+002    8.98739E+002    1.51652E+005
            4743    3.32393E+006    3.45701E+006    3.45701E+006    3.62784E+005   -5.67912E+004    3.51380E+006   -1.25433E+006    3.26356E+006    3.45701E+006    3.13403E+005   -7.40999E+003    8.08305E+002    4.16988E+002    1.35206E+005
            4744    3.31747E+006    3.48273E+006    3.48273E+006    4.21218E+005   -4.20019E+004    3.52474E+006   -1.28732E+006    3.24351E+006    3.48273E+006    3.95140E+005   -1.59232E+004    7.17173E+002   -2.20824E+002    1.06771E+005
            4745    3.33068E+006    3.47760E+006    3.47760E+006    4.68495E+005   -1.01172E+005    3.57877E+006   -1.28164E+006    3.21832E+006    3.47760E+006    4.07942E+005   -4.06191E+004    1.40561E+002    1.02786E+001    1.75581E+005
            4746    3.34031E+006    3.45896E+006    3.45896E+006    4.37449E+005   -1.27971E+005    3.58693E+006   -1.25615E+006    3.23000E+006    3.45896E+006    3.27609E+005   -1.81313E+004    2.39995E+002   -7.92860E+002    2.23698E+005
            4747    3.34617E+006    3.44304E+006    3.44304E+006    4.00470E+005   -1.40763E+005    3.58380E+006   -1.23425E+006    3.24550E+006    3.44304E+006    2.39944E+005    1.97638E+004    4.35133E+002   -1.40789E+003    2.47211E+005
            4748    3.35048E+006    3.42623E+006    3.42623E+006    3.61866E+005   -1.51179E+005    3.57741E+006   -1.21231E+006    3.26035E+006    3.42623E+006    1.46920E+005    6.37676E+004    5.57428E+002   -1.34245E+003    2.53131E+005
            4749    3.30664E+006    3.51017E+006    3.51017E+006    4.65184E+005   -7.30013E+003    3.51747E+006   -1.32268E+006    3.22938E+006    3.51017E+006   -5.42364E+003    4.63308E+005    9.06566E+000    2.19617E+001    2.97168E+004
            4750    3.31323E+006    3.49976E+006    3.49976E+006    4.61144E+005   -3.26569E+004    3.53242E+006   -1.30942E+006    3.22888E+006    3.49976E+006   -1.84598E+004    4.46947E+005   -7.48056E+000   -8.76550E+002    8.25164E+004
            4751    3.32632E+006    3.49048E+006    3.49048E+006    4.89181E+005   -8.58816E+004    3.57636E+006   -1.29793E+006    3.21162E+006    3.49048E+006   -4.81282E+004    4.51428E+005    3.70487E+002   -4.51951E+002    1.42426E+005
            4752    3.30370E+006    3.53187E+006    3.53187E+006    5.24963E+005   -4.64556E+003    3.53652E+006   -1.35073E+006    3.20611E+006    3.53187E+006   -4.07180E+003    5.24389E+005   -6.58675E+001    3.36750E+000    1.74224E+004
            4753    3.30942E+006    3.51788E+006    3.51788E+006    5.04807E+005   -2.41712E+004    3.54205E+006   -1.33284E+006    3.21224E+006    3.51788E+006   -1.95048E+004    5.00141E+005    4.43283E+002   -6.03947E+002    4.94635E+004
            4754    3.31732E+006    3.50619E+006    3.50619E+006    5.14832E+005   -6.15594E+004    3.56775E+006   -1.31982E+006    3.20174E+006    3.50619E+006   -4.94359E+004    5.02709E+005   -8.16354E+002   -9.08303E+001    8.27094E+004
            4755    3.30267E+006    3.54304E+006    3.54304E+006    5.56768E+005   -4.17313E+003    3.54722E+006   -1.36521E+006    3.19285E+006    3.54304E+006   -4.11133E+003    5.56706E+005   -1.41468E+002   -3.66866E+000    5.88693E+003
            4756    3.30761E+006    3.52799E+006    3.52799E+006    5.29661E+005   -2.00273E+004    3.54802E+006   -1.34588E+006    3.20242E+006    3.52799E+006   -1.95729E+004    5.29207E+005    7.99509E+002   -2.63210E+002    1.57956E+004
            4757    3.31226E+006    3.51447E+006    3.51447E+006    5.29769E+005   -4.90486E+004    3.56352E+006   -1.33173E+006    3.19549E+006    3.51447E+006   -4.77524E+004    5.28474E+005   -2.05818E+003   -4.94914E+000    2.73483E+004
            4758    3.30869E+006    3.49626E+006    3.49626E+006    4.25410E+005   -7.62902E+003    3.50389E+006   -1.30468E+006    3.24402E+006    3.49626E+006    4.22445E+005   -4.66431E+003    1.20997E+001   -6.31303E+001   -3.57078E+004
            4759    3.31632E+006    3.48769E+006    3.48769E+006    4.33641E+005   -3.99773E+004    3.52767E+006   -1.29378E+006    3.23892E+006    3.48769E+006    4.10860E+005   -1.71957E+004   -7.02762E+002    2.64242E+002   -1.01345E+005
            4760    3.33117E+006    3.48218E+006    3.48218E+006    4.74291E+005   -9.80831E+004    3.58027E+006   -1.28613E+006    3.21773E+006    3.48218E+006    4.18061E+005   -4.18524E+004   -6.03110E+002   -8.66857E+002   -1.70361E+005
            4761    3.30505E+006    3.52242E+006    3.52242E+006    4.98908E+005   -6.03971E+003    3.52846E+006   -1.33843E+006    3.21654E+006    3.52242E+006    4.97799E+005   -4.93123E+003    4.68349E+001    9.72999E+000   -2.36325E+004
            4762    3.31105E+006    3.51026E+006    3.51026E+006    4.85934E+005   -2.75173E+004    3.53778E+006   -1.32289E+006    3.21965E+006    3.51026E+006    4.77361E+005   -1.89439E+004   -7.19185E+002   -1.60057E+002   -6.57914E+004
            4763    3.32154E+006    3.49973E+006    3.49973E+006    5.03106E+005   -7.16969E+004    3.57142E+006   -1.31038E+006    3.20676E+006    3.49973E+006    4.80651E+005   -4.92419E+004   -1.27632E+002    8.40707E+001   -1.11369E+005
            4764    3.30303E+006    3.53959E+006    3.53959E+006    5.46515E+005   -4.16634E+003    3.54376E+006   -1.36065E+006    3.19729E+006    3.53959E+006    5.46290E+005   -3.94221E+003   -1.82120E+001    1.21236E+002   -1.11073E+004
            4765    3.30838E+006    3.52474E+006    3.52474E+006    5.21420E+005   -2.15329E+004    3.54627E+006   -1.34154E+006    3.20584E+006    3.52474E+006    5.19649E+005   -1.97615E+004   -3.55852E+002   -5.76615E+002   -3.09608E+004
            4766    3.31465E+006    3.51283E+006    3.51283E+006    5.24986E+005   -5.26853E+004    3.56552E+006   -1.32838E+006    3.19845E+006    3.51283E+006    5.20189E+005   -4.78876E+004   -1.87252E+002    1.22957E+003   -5.24238E+004
            4767    3.30276E+006    3.54437E+006    3.54437E+006    5.60552E+005   -4.44566E+003    3.54882E+006   -1.36683E+006    3.19131E+006    3.54437E+006    5.60549E+005   -4.44245E+003   -4.65038E+000    5.50809E+001    1.34616E+003
            4768    3.30741E+006    3.52934E+006    3.52934E+006    5.32962E+005   -1.95131E+004    3.54886E+006   -1.34760E+006    3.20112E+006    3.52934E+006    5.32943E+005   -1.94946E+004   -1.13603E+002   -5.22130E+002    3.18929E+003
            4769    3.31274E+006    3.51651E+006    3.51651E+006    5.31668E+005   -4.76932E+004    3.56421E+006   -1.33350E+006    3.19577E+006    3.51651E+006    5.31654E+005   -4.76779E+004   -3.64012E+001    1.53053E+003    2.90585E+003
            4770    3.30314E+006    3.53697E+006    3.53697E+006    5.39033E+005   -4.06298E+003    3.54103E+006   -1.35731E+006    3.20037E+006    3.53697E+006    5.38696E+005   -3.72659E+003    1.42677E+001    1.52483E+002    1.35122E+004
            4771    3.30879E+006    3.52251E+006    3.52251E+006    5.16095E+005   -2.25519E+004    3.54507E+006   -1.33869E+006    3.20792E+006    3.52251E+006    5.13406E+005   -1.98622E+004    1.28398E+002   -7.57796E+002    3.79669E+004
            4772    3.31435E+006    3.51088E+006    3.51088E+006    5.22355E+005   -5.37539E+004    3.56464E+006   -1.32649E+006    3.19878E+006    3.51088E+006    5.16537E+005   -4.79349E+004   -1.42991E+002    1.73831E+003    5.76025E+004
            4773    3.30562E+006    3.51712E+006    3.51712E+006    4.84592E+005   -6.62019E+003    3.52374E+006   -1.33170E+006    3.22197E+006    3.51712E+006    4.83193E+005   -5.22133E+003   -2.71991E+001    5.79554E+001    2.61759E+004
            4774    3.31186E+006    3.50615E+006    3.50615E+006    4.75564E+005   -2.90679E+004    3.53521E+006   -1.31755E+006    3.22366E+006    3.50615E+006    4.65047E+005   -1.85504E+004    5.49525E+002   -5.25065E+002    7.20889E+004
            4775    3.32099E+006    3.49649E+006    3.49649E+006    4.99197E+005   -7.36652E+004    3.57016E+006   -1.30734E+006    3.20699E+006    3.49649E+006    4.74083E+005   -4.85504E+004   -8.86522E+001    1.04364E+003    1.17288E+005
            4776    3.32561E+006    3.48973E+006    3.48973E+006    4.89166E+005   -8.59193E+004    3.57564E+006   -1.29766E+006    3.21087E+006    3.48973E+006   -4.82754E+004    4.51522E+005    4.89770E+001    3.00924E+002   -1.42237E+005
            4777    3.31312E+006    3.49992E+006    3.49992E+006    4.61548E+005   -3.24678E+004    3.53239E+006   -1.30967E+006    3.22870E+006    3.49992E+006   -1.84203E+004    4.47500E+005    1.09447E+002    9.60526E+002   -8.21117E+004
            4778    3.30656E+006    3.51050E+006    3.51050E+006    4.66282E+005   -7.32809E+003    3.51783E+006   -1.32315E+006    3.22893E+006    3.51050E+006   -5.47724E+003    4.64432E+005    3.57963E+000   -3.79621E+001   -2.95492E+004
            4779    3.31652E+006    3.50542E+006    3.50542E+006    5.14722E+005   -6.14256E+004    3.56684E+006   -1.31957E+006    3.20101E+006    3.50542E+006   -4.93505E+004    5.02647E+005   -1.41739E+003    5.73231E-001   -8.25281E+004
            4780    3.30948E+006    3.51789E+006    3.51789E+006    5.04789E+005   -2.42323E+004    3.54212E+006   -1.33282E+006    3.21228E+006    3.51789E+006   -1.95731E+004    5.00130E+005    7.06646E+002    5.55899E+002   -4.94269E+004
            4781    3.30360E+006    3.53202E+006    3.53202E+006    5.25442E+005   -4.52318E+003    3.53655E+006   -1.35098E+006    3.20587E+006    3.53202E+006   -3.95713E+003    5.24876E+005   -1.38407E+002    5.30499E-002   -1.73108E+004
            4782    3.31194E+006    3.51420E+006    3.51420E+006    5.29701E+005   -4.89286E+004    3.56313E+006   -1.33166E+006    3.19524E+006    3.51420E+006   -4.76436E+004    5.28417E+005   -2.24032E+003   -4.82288E+001   -2.72228E+004
            4783    3.30760E+006    3.52799E+006    3.52799E+006    5.29549E+005   -1.99532E+004    3.54794E+006   -1.34586E+006    3.20249E+006    3.52799E+006   -1.94793E+004    5.29076E+005    8.58433E+002    1.54400E+002   -1.61263E+004
            4784    3.30265E+006    3.54304E+006    3.54304E+006    5.56834E+005   -4.19263E+003    3.54723E+006   -1.36523E+006    3.19279E+006    3.54304E+006   -4.13038E+003    5.56772E+005   -1.32900E+002    5.73868E+000   -5.90891E+003
            4785    3.34213E+006    3.36974E+006    3.36974E+006    6.19119E+004   -5.67688E+003    3.37541E+006   -1.14199E+006    3.34059E+006    3.36974E+006    5.68530E+003    5.05498E+004   -1.05305E+002   -4.60143E+001   -2.52756E+004
            4786    3.33497E+006    3.38949E+006    3.38949E+006    1.20136E+005   -7.43560E+003    3.39692E+006   -1.16740E+006    3.32947E+006    3.38949E+006    2.28865E+003    1.10412E+005   -5.96339E+001    4.62853E+000   -3.38523E+004
            4787    3.32608E+006    3.41693E+006    3.41693E+006    1.98168E+005   -6.97377E+003    3.42390E+006   -1.20271E+006    3.31180E+006    3.41693E+006   -3.63885E+002    1.91558E+005   -1.12976E+001   -7.17322E+000   -3.62253E+004
            4788    3.31722E+006    3.44959E+006    3.44959E+006    2.90092E+005   -5.56502E+003    3.45516E+006   -1.24471E+006    3.28738E+006    3.44959E+006   -1.71657E+003    2.86244E+005   -1.87702E+001   -1.37454E+001   -3.35114E+004
            4789    3.31020E+006    3.48261E+006    3.48261E+006    3.83309E+005   -4.34565E+003    3.48696E+006   -1.28719E+006    3.25854E+006    3.48261E+006   -2.47696E+003    3.81440E+005   -7.79505E+000   -2.14028E+001   -2.68499E+004
            4790    3.33591E+006    3.39015E+006    3.39015E+006    1.42577E+005   -2.75940E+004    3.41774E+006   -1.16838E+006    3.32613E+006    3.39015E+006    3.04971E+004    8.44861E+004    3.09385E+002    1.41618E+002   -8.06898E+004
            4791    3.33258E+006    3.40501E+006    3.40501E+006    1.95940E+005   -3.86906E+004    3.44370E+006   -1.18742E+006    3.31392E+006    3.40501E+006    1.77264E+004    1.39523E+005    2.85187E+002    1.54109E+001   -1.00271E+005
            4792    3.32746E+006    3.42521E+006    3.42521E+006    2.53681E+005   -3.88649E+004    3.46408E+006   -1.21334E+006    3.29834E+006    3.42521E+006    6.50092E+003    2.08315E+005    1.31692E+002   -5.52184E+001   -1.05894E+005
            4793    3.32098E+006    3.44995E+006    3.44995E+006    3.17479E+005   -3.19131E+004    3.48187E+006   -1.24517E+006    3.27925E+006    3.44995E+006   -2.98238E+003    2.88548E+005    1.13216E+002   -1.16397E+002   -9.62870E+004
            4794    3.31402E+006    3.47793E+006    3.47793E+006    3.86938E+005   -2.12902E+004    3.49922E+006   -1.28119E+006    3.25673E+006    3.47793E+006   -6.20979E+003    3.71857E+005    2.82185E+001   -1.26431E+002   -7.69988E+004
            4795    3.33492E+006    3.40639E+006    3.40639E+006    2.18868E+005   -5.85894E+004    3.46498E+006   -1.18889E+006    3.30880E+006    3.40639E+006    7.34479E+004    8.68311E+004   -3.57300E+002   -2.53852E+002   -1.38567E+005
            4796    3.33494E+006    3.41717E+006    3.41717E+006    2.68418E+005   -7.70456E+004    3.49422E+006   -1.20285E+006    3.29432E+006    3.41717E+006    4.46555E+004    1.46717E+005   -3.40453E+002   -5.00471E+001   -1.65022E+005
            4797    3.33274E+006    3.43112E+006    3.43112E+006    3.11802E+005   -8.03426E+004    3.51146E+006   -1.22086E+006    3.28023E+006    3.43112E+006    1.41640E+004    2.17295E+005   -1.13190E+002    4.43790E+001   -1.67716E+005
            4798    3.32720E+006    3.45107E+006    3.45107E+006    3.56556E+005   -6.80562E+004    3.51912E+006   -1.24652E+006    3.26541E+006    3.45107E+006   -4.13221E+003    2.92632E+005   -1.23289E+002    7.42202E+001   -1.51844E+005
            4799    3.32034E+006    3.47415E+006    3.47415E+006    4.05758E+005   -5.08628E+004    3.52502E+006   -1.27635E+006    3.24857E+006    3.47415E+006   -1.52755E+004    3.70171E+005   -5.35267E+001    6.25901E+001   -1.22407E+005
            4800    3.33853E+006    3.42089E+006    3.42089E+006    3.10750E+005   -1.06754E+005    3.52764E+006   -1.20830E+006    3.27902E+006    3.42089E+006    1.31770E+005    7.22261E+004    7.55868E+002    7.13150E+002   -2.06618E+005
            4801    3.34227E+006    3.42467E+006    3.42467E+006    3.40253E+005   -1.26413E+005    3.55108E+006   -1.21283E+006    3.26777E+006    3.42466E+006    7.08383E+004    1.43002E+005    1.12299E+003    1.39404E+002   -2.30526E+005
            4802    3.34061E+006    3.43621E+006    3.43621E+006    3.68493E+005   -1.22874E+005    3.55908E+006   -1.22728E+006    3.25782E+006    3.43621E+006    2.69341E+004    2.18685E+005    8.00937E+002   -4.45730E+002   -2.26204E+005
            4803    3.33616E+006    3.45155E+006    3.45155E+006    4.00188E+005   -1.10514E+005    3.56206E+006   -1.24707E+006    3.24647E+006    3.45155E+006   -7.51910E+003    2.97194E+005    7.07510E+002   -7.69677E+002   -2.04919E+005
            4804    3.32821E+006    3.47172E+006    3.47172E+006    4.34190E+005   -8.59202E+004    3.55764E+006   -1.27333E+006    3.23488E+006    3.47172E+006   -2.61112E+004    3.74381E+005    3.97044E+002   -1.01598E+003   -1.65922E+005
            4805    3.34078E+006    3.46722E+006    3.46722E+006    4.67544E+005   -1.33153E+005    3.60037E+006   -1.26720E+006    3.21589E+006    3.46722E+006   -3.80140E+004    3.72406E+005   -8.03577E+002   -9.22023E+002   -2.19313E+005
            4806    3.35015E+006    3.45169E+006    3.45169E+006    4.44226E+005   -1.59148E+005    3.61083E+006   -1.24559E+006    3.22449E+006    3.45169E+006   -4.60843E+003    2.89687E+005   -1.53852E+003   -1.19678E+003   -2.63367E+005
            4807    3.35600E+006    3.44054E+006    3.44054E+006    4.25222E+005   -1.75109E+005    3.61565E+006   -1.23022E+006    3.23187E+006    3.44054E+006    4.29984E+004    2.07116E+005   -1.59044E+003   -1.19668E+003   -2.88731E+005
            4808    3.35653E+006    3.43498E+006    3.43498E+006    4.05582E+005   -1.73370E+005    3.60835E+006   -1.22240E+006    3.24133E+006    3.43498E+006    1.00468E+005    1.31744E+005   -1.88697E+003   -1.19413E+003   -2.89053E+005
            4809    3.35434E+006    3.43192E+006    3.43192E+006    3.91206E+005   -1.66203E+005    3.59812E+006   -1.21897E+006    3.24768E+006    3.43192E+006    1.66546E+005    5.84572E+004   -9.94115E+002   -1.37186E+003   -2.73414E+005
            4810    3.34800E+006    3.44297E+006    3.44297E+006    4.05987E+005   -1.47152E+005    3.59013E+006   -1.23394E+006    3.24280E+006    3.44297E+006    2.46293E+005    1.25432E+004   -6.66010E+002   -1.52728E+003   -2.50660E+005
            4811    3.33994E+006    3.46265E+006    3.46265E+006    4.40996E+005   -1.23592E+005    3.58625E+006   -1.26002E+006    3.22995E+006    3.46265E+006    3.37937E+005   -2.05318E+004   -4.18026E+002   -1.35255E+003   -2.18094E+005
            4812    3.32310E+006    3.46259E+006    3.46259E+006    3.77787E+005   -5.61816E+004    3.51877E+006   -1.26140E+006    3.25844E+006    3.46259E+006    3.32556E+005   -1.09511E+004   -6.45892E+002    5.10852E+002   -1.32600E+005
            4813    3.31533E+006    3.46323E+006    3.46323E+006    3.35360E+005   -1.21784E+004    3.47541E+006   -1.26214E+006    3.27397E+006    3.46323E+006    3.28825E+005   -5.64302E+003    7.69959E+001   -7.72632E+001   -4.72080E+004
            4814    3.32960E+006    3.43806E+006    3.43806E+006    3.23753E+005   -7.15336E+004    3.50960E+006   -1.23009E+006    3.27618E+006    3.43806E+006    2.46859E+005    5.36093E+003   -2.97094E+002    8.98349E+002   -1.56469E+005
            4815    3.32301E+006    3.43068E+006    3.43068E+006    2.41908E+005   -1.19874E+004    3.44267E+006   -1.22020E+006    3.30108E+006    3.43068E+006    2.30493E+005   -5.72151E+002    1.89331E+001   -2.22367E+002   -5.26116E+004
            4816    3.33088E+006    3.40264E+006    3.40264E+006    1.60920E+005   -1.07593E+004    3.41340E+006   -1.18427E+006    3.32090E+006    3.40264E+006    1.45720E+005    4.44006E+003   -6.08570E+001   -1.00027E+001   -4.87688E+004
            4817    3.33890E+006    3.37799E+006    3.37799E+006    8.54692E+004   -5.43502E+003    3.38342E+006   -1.15267E+006    3.33611E+006    3.37799E+006    6.93353E+004    1.06989E+004    2.38983E+001    4.61317E+001   -3.47324E+004
            4818    3.34562E+006    3.36046E+006    3.36046E+006    3.06285E+004   -7.22545E+002    3.36119E+006   -1.13012E+006    3.34529E+006    3.36046E+006    2.03491E+004    9.55681E+003    9.07967E+000   -6.98795E+000   -1.47174E+004
            4819    3.34922E+006    3.35167E+006    3.35167E+006    4.87556E+003    2.39960E+001    3.35165E+006   -1.11886E+006    3.34922E+006    3.35167E+006    2.58501E+003    2.31454E+003    5.53621E+000    9.00908E+000   -2.42201E+003
            4820    3.33276E+006    3.41648E+006    3.41648E+006    2.53805E+005   -6.36561E+004    3.48013E+006   -1.20221E+006    3.29849E+006    3.41648E+006    1.63713E+005    2.64352E+004    5.28998E+001    2.88866E+002   -1.43122E+005
            4821    3.33530E+006    3.39456E+006    3.39456E+006    1.61336E+005   -3.42157E+004    3.42878E+006   -1.17389E+006    3.32237E+006    3.39456E+006    8.57682E+004    4.13523E+004    2.21047E+000   -5.18782E+001   -9.52205E+004
            4822    3.33947E+006    3.37701E+006    3.37701E+006    8.68995E+004   -9.71288E+003    3.38672E+006   -1.15140E+006    3.33632E+006    3.37701E+006    3.70232E+004    4.01633E+004    3.80773E+001    5.42018E+001   -4.82806E+004
            4823    3.34650E+006    3.35830E+006    3.35830E+006    2.47112E+004   -9.66438E+002    3.35927E+006   -1.12735E+006    3.34628E+006    3.35830E+006    7.89615E+003    1.58486E+004   -2.00275E-002   -1.61911E+001   -1.22076E+004
            4824    3.33600E+006    3.38818E+006    3.38818E+006    1.16887E+005   -8.96406E+003    3.39714E+006   -1.16537E+006    3.33065E+006    3.38818E+006    8.75139E+003    9.91715E+004    4.45020E+002    6.00497E+000   -4.37683E+004
            4825    3.32752E+006    3.41525E+006    3.41525E+006    2.00079E+005   -1.42586E+004    3.42951E+006   -1.20036E+006    3.31194E+006    3.41525E+006    1.32605E+002    1.85688E+005    1.64492E+002   -8.32159E+001   -5.36421E+004
            4826    3.31870E+006    3.44846E+006    3.44846E+006    2.94434E+005   -1.34645E+004    3.46192E+006   -1.24314E+006    3.28634E+006    3.44846E+006   -5.24629E+003    2.86216E+005    2.08367E+002   -6.41620E+001   -4.96270E+004
            4827    3.31089E+006    3.48254E+006    3.48254E+006    3.86513E+005   -7.87330E+003    3.49041E+006   -1.28706E+006    3.25741E+006    3.48254E+006   -3.72389E+003    3.82363E+005    2.95508E+001   -5.26457E+001   -4.02399E+004
            4828    3.33361E+006    3.41049E+006    3.41049E+006    2.40910E+005   -6.59292E+004    3.47642E+006   -1.19516E+006    3.30162E+006    3.41049E+006    4.26145E+004    1.32367E+005   -1.38111E+003   -2.84223E+001   -1.46710E+005
            4829    3.33142E+006    3.42907E+006    3.42907E+006    3.00234E+005   -7.34199E+004    3.50249E+006   -1.21863E+006    3.28378E+006    3.42907E+006    9.44762E+003    2.17367E+005   -1.22556E+003    3.36539E+002   -1.55231E+005
            4830    3.32523E+006    3.45208E+006    3.45208E+006    3.53078E+005   -6.06485E+004    3.51273E+006   -1.24817E+006    3.26657E+006    3.45208E+006   -4.90660E+003    2.97337E+005   -1.09136E+003    8.75958E+002   -1.41261E+005
            4831    3.31901E+006    3.47663E+006    3.47663E+006    4.08704E+005   -4.64855E+004    3.52311E+006   -1.27962E+006    3.24767E+006    3.47663E+006   -1.49793E+004    3.77198E+005   -4.24590E+002    9.70917E+002   -1.15536E+005
            4832    3.33588E+006    3.47191E+006    3.47191E+006    4.59368E+005   -1.13190E+005    3.58510E+006   -1.27270E+006    3.22254E+006    3.47191E+006   -3.57072E+004    3.81886E+005    1.37762E+003    6.48427E+002   -1.95856E+005
            4833    3.34460E+006    3.45556E+006    3.45556E+006    4.31344E+005   -1.36676E+005    3.59223E+006   -1.25007E+006    3.23340E+006    3.45556E+006   -8.66339E+003    3.03332E+005    2.02473E+003    7.40402E+002   -2.37331E+005
            4834    3.34860E+006    3.44156E+006    3.44156E+006    3.96216E+005   -1.44501E+005    3.58606E+006   -1.23109E+006    3.24820E+006    3.44156E+006    3.27508E+004    2.18965E+005    2.22378E+003    7.53470E+002   -2.53820E+005
            4835    3.35105E+006    3.42587E+006    3.42587E+006    3.60313E+005   -1.51735E+005    3.57760E+006   -1.21148E+006    3.26129E+006    3.42587E+006    7.80081E+004    1.30571E+005    1.75293E+003    6.01988E+002   -2.54671E+005
            4836    3.35044E+006    3.42634E+006    3.42634E+006    3.62033E+005   -1.51038E+005    3.57738E+006   -1.21245E+006    3.26030E+006    3.42634E+006    1.46537E+005    6.44588E+004    5.50554E+002    1.34144E+003   -2.53231E+005
            4837    3.34621E+006    3.44311E+006    3.44311E+006    4.00730E+005   -1.40862E+005    3.58398E+006   -1.23433E+006    3.24540E+006    3.44311E+006    2.40154E+005    1.97146E+004    4.63483E+002    1.31529E+003   -2.47350E+005
            4838    3.34059E+006    3.45932E+006    3.45932E+006    4.37466E+005   -1.27849E+005    3.58717E+006   -1.25631E+006    3.23033E+006    3.45932E+006    3.27909E+005   -1.82920E+004    2.96180E+002    9.34351E+002   -2.23453E+005
            4839    3.33115E+006    3.47795E+006    3.47795E+006    4.68155E+005   -1.01166E+005    3.57912E+006   -1.28165E+006    3.21895E+006    3.47795E+006    4.07636E+005   -4.06464E+004    2.11547E+002    2.38444E+002   -1.75477E+005
            4840    3.31756E+006    3.48270E+006    3.48270E+006    4.21618E+005   -4.24721E+004    3.52517E+006   -1.28728E+006    3.24332E+006    3.48270E+006    3.95441E+005   -1.62948E+004    6.80688E+002    8.65151E+001   -1.07067E+005
            4841    3.30968E+006    3.48885E+006    3.48885E+006    4.04112E+005   -7.29945E+003    3.49615E+006   -1.29522E+006    3.25140E+006    3.48885E+006    4.00618E+005   -3.80551E+003   -3.30699E+001   -3.16195E+001   -3.77523E+004
            4842    3.32396E+006    3.45684E+006    3.45684E+006    3.62612E+005   -5.70000E+004    3.51384E+006   -1.25415E+006    3.26358E+006    3.45684E+006    3.12922E+005   -7.30967E+003    7.33384E+002   -4.98868E+002   -1.35579E+005
            4843    3.31700E+006    3.45459E+006    3.45459E+006    3.10805E+005   -1.20182E+004    3.46661E+006   -1.25113E+006    3.28138E+006    3.45459E+006    3.03651E+005   -4.86434E+003   -3.78355E+001    1.11595E+002   -4.75211E+004
            4844    3.33060E+006    3.43189E+006    3.43189E+006    3.06220E+005   -7.14369E+004    3.50333E+006   -1.22222E+006    3.28191E+006    3.43189E+006    2.29454E+005    5.32863E+003    3.11103E+002   -8.54588E+002   -1.51980E+005
            4845    3.32608E+006    3.41974E+006    3.41974E+006    2.13052E+005   -1.40946E+004    3.43383E+006   -1.20623E+006    3.30857E+006    3.41974E+006    1.99972E+005   -1.01460E+003   -7.10661E+001    8.15003E+001   -5.29150E+004
            4846    3.33336E+006    3.41132E+006    3.41132E+006    2.43650E+005   -6.61081E+004    3.47743E+006   -1.19629E+006    3.30075E+006    3.41132E+006    1.40577E+005    3.69647E+004   -9.92055E+001   -1.28307E+003   -1.45957E+005
            4847    3.33491E+006    3.39103E+006    3.39103E+006    1.24933E+005   -8.67169E+003    3.39970E+006   -1.16910E+006    3.32888E+006    3.39103E+006    1.08185E+005    8.07679E+003    2.32429E+001    4.21088E+002   -4.42399E+004
            4848    3.34246E+006    3.36901E+006    3.36901E+006    5.90631E+004   -5.03046E+003    3.37404E+006   -1.14101E+006    3.34107E+006    3.36901E+006    4.43180E+004    9.71456E+003    1.09743E+002    6.18506E+001   -2.69749E+004
            4849    3.34730E+006    3.35610E+006    3.35610E+006    1.76127E+004    6.65609E+001    3.35603E+006   -1.12459E+006    3.34719E+006    3.35610E+006    9.26967E+003    8.40957E+003   -4.56451E+001   -4.23438E+001   -8.76251E+003
            4850    3.33504E+006    3.39401E+006    3.39401E+006    1.60502E+005   -3.40424E+004    3.42805E+006   -1.17349E+006    3.32224E+006    3.39401E+006    6.52291E+004    6.12307E+004   -2.85141E+002   -2.72134E+002   -9.72517E+004
            4851    3.34297E+006    3.36784E+006    3.36784E+006    5.60077E+004   -5.42750E+003    3.37326E+006   -1.13947E+006    3.34170E+006    3.36784E+006    1.01733E+004    4.04069E+004    6.57320E+001    1.17209E+002   -2.67405E+004
            4852    3.32845E+006    3.48641E+006    3.48641E+006    4.93270E+005   -9.80861E+004    3.58449E+006   -1.29386E+006    3.20705E+006    3.48641E+006   -5.23991E+004    4.47583E+005    4.21523E+002   -3.68610E+002   -1.57892E+005
            4853    3.32033E+006    3.49272E+006    3.49272E+006    4.71540E+005   -6.21259E+004    3.55484E+006   -1.30071E+006    3.22172E+006    3.49272E+006   -3.40238E+004    4.43438E+005    8.02295E+000   -9.30288E+002   -1.19195E+005
            4854    3.31379E+006    3.49763E+006    3.49763E+006    4.57227E+005   -3.45683E+004    3.53220E+006   -1.30676E+006    3.23015E+006    3.49763E+006   -1.83974E+004    4.41056E+005    1.48179E+001    6.02680E+001   -8.76998E+004
            4855    3.30883E+006    3.50392E+006    3.50392E+006    4.54640E+005   -1.43993E+004    3.51832E+006   -1.31472E+006    3.23277E+006    3.50392E+006   -7.95611E+003    4.48197E+005   -4.49978E+001   -1.26073E+002   -5.45947E+004
            4856    3.30536E+006    3.51254E+006    3.51254E+006    4.67185E+005   -2.55262E+003    3.51509E+006   -1.32572E+006    3.22898E+006    3.51254E+006   -1.78183E+003    4.66414E+005   -1.15192E+001   -2.97631E+001   -1.90126E+004
            4857    3.31881E+006    3.50324E+006    3.50324E+006    5.17477E+005   -7.01338E+004    3.57337E+006   -1.31686E+006    3.19862E+006    3.50324E+006   -5.53054E+004    5.02650E+005    1.71252E+003   -5.90325E+001   -9.21574E+004
            4858    3.31432E+006    3.51011E+006    3.51011E+006    5.05090E+005   -4.47295E+004    3.55484E+006   -1.32349E+006    3.20930E+006    3.51011E+006   -3.55983E+004    4.95959E+005   -1.30069E+002   -4.91890E+002   -7.02646E+004
            4859    3.30963E+006    3.51608E+006    3.51608E+006    5.01507E+005   -2.53874E+004    3.54147E+006   -1.33073E+006    3.21323E+006    3.51608E+006   -2.01766E+004    4.96297E+005    7.90748E+001    1.97677E+000   -5.21381E+004
            4860    3.30560E+006    3.52411E+006    3.52411E+006    5.08316E+005   -1.00358E+004    3.53415E+006   -1.34080E+006    3.21225E+006    3.52411E+006   -7.96001E+003    5.06240E+005   -1.16848E+002   -7.29920E+001   -3.27365E+004
            4861    3.30303E+006    3.53403E+006    3.53403E+006    5.28356E+005   -2.15289E+003    3.53618E+006   -1.35341E+006    3.20508E+006    3.53403E+006   -1.90813E+003    5.28112E+005   -7.73418E+000   -2.80911E+001   -1.13923E+004
            4862    3.31365E+006    3.51239E+006    3.51239E+006    5.31231E+005   -5.54111E+004    3.56780E+006   -1.32940E+006    3.19367E+006    3.51238E+006   -5.39768E+004    5.29798E+005    2.47584E+003    8.80284E+001   -2.89548E+004
            4863    3.31138E+006    3.51965E+006    3.51965E+006    5.25012E+005   -3.66301E+004    3.55628E+006   -1.33601E+006    3.20158E+006    3.51965E+006   -3.56812E+004    5.24063E+005   -1.35379E+002   -1.72678E+002   -2.30661E+004
            4864    3.30737E+006    3.52652E+006    3.52652E+006    5.26356E+005   -2.00123E+004    3.54654E+006   -1.34429E+006    3.20347E+006    3.52652E+006   -1.94744E+004    5.25818E+005    7.26905E+001    1.05144E+000   -1.71343E+004
            4865    3.30423E+006    3.53497E+006    3.53497E+006    5.37865E+005   -8.33099E+003    3.54330E+006   -1.35483E+006    3.20030E+006    3.53497E+006   -8.11657E+003    5.37651E+005   -1.43461E+002   -3.00537E+001   -1.08196E+004
            4866    3.30205E+006    3.54566E+006    3.54566E+006    5.61194E+005   -1.62917E+003    3.54729E+006   -1.36841E+006    3.19145E+006    3.54566E+006   -1.60269E+003    5.61168E+005   -1.90537E+001   -1.33999E+001   -3.86043E+003
            4867    3.33062E+006    3.48147E+006    3.48147E+006    4.74378E+005   -9.83875E+004    3.57986E+006   -1.28582E+006    3.21701E+006    3.48147E+006    4.18077E+005   -4.20861E+004   -4.61495E+002    6.00911E+002    1.70522E+005
            4868    3.31621E+006    3.48805E+006    3.48805E+006    4.34302E+005   -3.96260E+004    3.52768E+006   -1.29424E+006    3.23870E+006    3.48805E+006    4.11812E+005   -1.71355E+004   -8.37686E+002   -1.34251E+002    1.00763E+005
            4869    3.30854E+006    3.49690E+006    3.49690E+006    4.27201E+005   -7.50198E+003    3.50440E+006   -1.30553E+006    3.24335E+006    3.49690E+006    4.24293E+005   -4.59395E+003    4.28972E+001    3.20576E+001    3.54355E+004
            4870    3.32104E+006    3.49924E+006    3.49924E+006    5.03017E+005   -7.16086E+004    3.57085E+006   -1.31022E+006    3.20632E+006    3.49924E+006    4.80577E+005   -4.91685E+004   -1.28678E+002   -4.36659E+002    1.11315E+005
            4871    3.31103E+006    3.51039E+006    3.51039E+006    4.86293E+005   -2.75007E+004    3.53789E+006   -1.32306E+006    3.21951E+006    3.51039E+006    4.77785E+005   -1.89927E+004   -6.64378E+002    3.30133E+002    6.55664E+004
            4872    3.30493E+006    3.52286E+006    3.52286E+006    5.00248E+005   -5.96936E+003    3.52883E+006   -1.33905E+006    3.21597E+006    3.52286E+006    4.99164E+005   -4.88486E+003    2.77721E+001   -5.67511E+001    2.34054E+004
            4873    3.31440E+006    3.51242E+006    3.51242E+006    5.25042E+005   -5.29537E+004    3.56538E+006   -1.32817E+006    3.19805E+006    3.51242E+006    5.20281E+005   -4.81924E+004   -7.49349E+001   -1.41511E+003    5.22399E+004
            4874    3.30837E+006    3.52466E+006    3.52466E+006    5.21532E+005   -2.17122E+004    3.54637E+006   -1.34149E+006    3.20571E+006    3.52466E+006    5.19777E+005   -1.99565E+004   -3.40638E+002    5.98689E+002    3.08319E+004
            4875    3.30300E+006    3.53974E+006    3.53974E+006    5.47033E+005   -4.18568E+003    3.54393E+006   -1.36086E+006    3.19705E+006    3.53974E+006    5.46817E+005   -3.96988E+003   -1.03786E+001   -1.07716E+002    1.09045E+004
            4876    3.31246E+006    3.51624E+006    3.51624E+006    5.31432E+005   -4.75359E+004    3.56378E+006   -1.33338E+006    3.19564E+006    3.51624E+006    5.31412E+005   -4.75152E+004   -3.74812E+001   -1.73083E+003   -3.39230E+003
            4877    3.30741E+006    3.52933E+006    3.52933E+006    5.32770E+005   -1.94124E+004    3.54875E+006   -1.34756E+006    3.20123E+006    3.52933E+006    5.32749E+005   -1.93914E+004   -4.08759E+001    6.25033E+002   -3.39609E+003
            4878    3.30272E+006    3.54434E+006    3.54434E+006    5.60427E+005   -4.35157E+003    3.54869E+006   -1.36681E+006    3.19136E+006    3.54434E+006    5.60423E+005   -4.34783E+003   -3.17716E+000   -8.91134E+001   -1.45152E+003
            4879    3.31463E+006    3.51104E+006    3.51104E+006    5.22514E+005   -5.40519E+004    3.56509E+006   -1.32650E+006    3.19888E+006    3.51104E+006    5.16548E+005   -4.80860E+004   -9.41824E+001   -1.55924E+003   -5.83421E+004
            4880    3.30881E+006    3.52235E+006    3.52235E+006    5.15712E+005   -2.26197E+004    3.54497E+006   -1.33848E+006    3.20806E+006    3.52235E+006    5.12994E+005   -1.99020E+004    2.05838E+002    6.78376E+002   -3.81519E+004
            4881    3.30319E+006    3.53670E+006    3.53670E+006    5.38225E+005   -4.08893E+003    3.54079E+006   -1.35695E+006    3.20073E+006    3.53670E+006    5.37885E+005   -3.74899E+003    8.58333E+000   -1.23030E+002   -1.35734E+004
            4882    3.32153E+006    3.49680E+006    3.49680E+006    4.98996E+005   -7.39202E+004    3.57072E+006   -1.30729E+006    3.20753E+006    3.49680E+006    4.73695E+005   -4.86199E+004   -1.20559E+001   -7.49788E+002   -1.17706E+005
            4883    3.31191E+006    3.50612E+006    3.50612E+006    4.75753E+005   -2.93119E+004    3.53543E+006   -1.31752E+006    3.22356E+006    3.50612E+006    4.65165E+005   -1.87241E+004    5.71664E+002    4.11532E+002   -7.23561E+004
            4884    3.30573E+006    3.51662E+006    3.51662E+006    4.83171E+005   -6.70854E+003    3.52333E+006   -1.33103E+006    3.22254E+006    3.51662E+006    4.81749E+005   -5.28663E+003   -2.11832E+001   -4.09763E+001   -2.63541E+004
            4885    3.30545E+006    3.51227E+006    3.51227E+006    4.66626E+005   -2.80224E+003    3.51507E+006   -1.32536E+006    3.22918E+006    3.51227E+006   -2.02758E+003    4.65851E+005   -1.29388E+001    3.26992E+001    1.90537E+004
            4886    3.30885E+006    3.50393E+006    3.50393E+006    4.54610E+005   -1.43980E+004    3.51833E+006   -1.31471E+006    3.23279E+006    3.50393E+006   -7.90532E+003    4.48117E+005   -3.11667E+001    1.22215E+002    5.47995E+004
            4887    3.31391E+006    3.49765E+006    3.49765E+006    4.57550E+005   -3.49452E+004    3.53259E+006   -1.30675E+006    3.23003E+006    3.49765E+006   -1.86981E+004    4.41303E+005   -3.85143E+000   -4.66233E+001    8.79640E+004
            4888    3.32046E+006    3.49282E+006    3.49282E+006    4.72095E+005   -6.24982E+004    3.55532E+006   -1.30081E+006    3.22150E+006    3.49282E+006   -3.42901E+004    4.43887E+005    8.76756E+001    8.80741E+002    1.19516E+005
            4889    3.32896E+006    3.48703E+006    3.48703E+006    4.93623E+005   -9.81261E+004    3.58515E+006   -1.29417E+006    3.20742E+006    3.48703E+006   -5.25675E+004    4.48065E+005    7.02392E+001    4.71175E+002    1.57746E+005
            4890    3.30299E+006    3.53411E+006    3.53411E+006    5.28341E+005   -1.93935E+003    3.53605E+006   -1.35350E+006    3.20511E+006    3.53411E+006   -1.69900E+003    5.28101E+005   -1.22518E+001    2.68041E+001    1.12869E+004
            4891    3.30560E+006    3.52416E+006    3.52416E+006    5.08419E+005   -1.00232E+004    3.53419E+006   -1.34085E+006    3.21222E+006    3.52416E+006   -7.98150E+003    5.06378E+005   -1.09837E+002    8.24360E+001    3.24708E+004
            4892    3.30960E+006    3.51611E+006    3.51611E+006    5.01350E+005   -2.51995E+004    3.54131E+006   -1.33075E+006    3.21333E+006    3.51611E+006   -1.99998E+004    4.96150E+005    5.99383E+001   -1.36716E+001    5.20656E+004
            4893    3.31438E+006    3.51002E+006    3.51002E+006    5.05344E+005   -4.51241E+004    3.55515E+006   -1.32341E+006    3.20911E+006    3.51002E+006   -3.59840E+004    4.96204E+005   -7.19657E+001    5.69506E+002    7.03403E+004
            4894    3.31890E+006    3.50319E+006    3.50319E+006    5.17805E+005   -7.05273E+004    3.57372E+006   -1.31682E+006    3.19840E+006    3.50319E+006   -5.56755E+004    5.02954E+005    1.69059E+003    2.39602E+001    9.22866E+004
            4895    3.30209E+006    3.54563E+006    3.54563E+006    5.61234E+005   -1.76887E+003    3.54740E+006   -1.36837E+006    3.19142E+006    3.54563E+006   -1.74277E+003    5.61208E+005   -1.34194E+001    1.43754E+001    3.83325E+003
            4896    3.30418E+006    3.53505E+006    3.53505E+006    5.37865E+005   -8.10447E+003    3.54316E+006   -1.35494E+006    3.20033E+006    3.53505E+006   -7.88915E+003    5.37649E+005   -1.56888E+002    3.02570E+001    1.08403E+004
            4897    3.30738E+006    3.52654E+006    3.52654E+006    5.26443E+005   -2.00463E+004    3.54659E+006   -1.34431E+006    3.20343E+006    3.52654E+006   -1.95111E+004    5.25907E+005    8.93400E+001    6.16235E-001    1.70947E+004
            4898    3.31131E+006    3.51969E+006    3.51969E+006    5.24888E+005   -3.63841E+004    3.55607E+006   -1.33606E+006    3.20165E+006    3.51969E+006   -3.54525E+004    5.23957E+005   -1.83100E+002    1.76737E+002    2.28471E+004
            4899    3.31337E+006    3.51217E+006    3.51217E+006    5.30952E+005   -5.51466E+004    3.56731E+006   -1.32932E+006    3.19361E+006    3.51216E+006   -5.37081E+004    5.29515E+005    2.64922E+003   -4.51903E+001    2.89813E+004
            4900    3.35434E+006    3.43200E+006    3.43200E+006    3.91123E+005   -1.66033E+005    3.59803E+006   -1.21903E+006    3.24778E+006    3.43200E+006    1.66765E+005    5.83262E+004   -1.00802E+003    1.40535E+003    2.73250E+005
            4901    3.35645E+006    3.43484E+006    3.43484E+006    4.05544E+005   -1.73441E+005    3.60828E+006   -1.22231E+006    3.24123E+006    3.43484E+006    1.00733E+005    1.31371E+005   -1.75422E+003    1.15055E+003    2.89087E+005
            4902    3.35591E+006    3.44060E+006    3.44060E+006    4.25367E+005   -1.74959E+005    3.61556E+006   -1.23034E+006    3.23178E+006    3.44060E+006    4.29246E+004    2.07484E+005   -1.51009E+003    1.15191E+003    2.88665E+005
            4903    3.35030E+006    3.45177E+006    3.45177E+006    4.44184E+005   -1.59239E+005    3.61101E+006   -1.24557E+006    3.22462E+006    3.45177E+006   -5.12295E+003    2.90069E+005   -1.52847E+003    1.15955E+003    2.63144E+005
            4904    3.34106E+006    3.46774E+006    3.46774E+006    4.67480E+005   -1.32761E+005    3.60050E+006   -1.26749E+006    3.21638E+006    3.46774E+006   -3.81019E+004    3.72822E+005   -9.53070E+002    9.74338E+002    2.18764E+005
            4905    3.32840E+006    3.47172E+006    3.47172E+006    4.34113E+005   -8.61959E+004    3.55792E+006   -1.27321E+006    3.23501E+006    3.47172E+006   -2.61607E+004    3.74078E+005    3.70433E+002    9.57005E+002    1.66231E+005
            4906    3.32052E+006    3.47403E+006    3.47403E+006    4.05882E+005   -5.14666E+004    3.52549E+006   -1.27615E+006    3.24853E+006    3.47403E+006   -1.53801E+004    3.69795E+005   -6.11110E+001   -6.18310E+001    1.23296E+005
            4907    3.31417E+006    3.47776E+006    3.47776E+006    3.86993E+005   -2.18644E+004    3.49963E+006   -1.28096E+006    3.25670E+006    3.47776E+006   -6.52643E+003    3.71655E+005    4.14271E+001    1.21470E+002    7.76903E+004
            4908    3.31019E+006    3.48262E+006    3.48262E+006    3.83204E+005   -4.24395E+003    3.48686E+006   -1.28719E+006    3.25859E+006    3.48262E+006   -2.34856E+003    3.81308E+005   -1.12568E+001    2.20753E+001    2.70328E+004
            4909    3.33632E+006    3.45123E+006    3.45123E+006    3.99478E+005   -1.10851E+005    3.56208E+006   -1.24662E+006    3.24677E+006    3.45123E+006   -7.04717E+003    2.95675E+005    6.68875E+002    6.91559E+002    2.05423E+005
            4910    3.32738E+006    3.45084E+006    3.45084E+006    3.56368E+005   -6.86222E+004    3.51946E+006   -1.24619E+006    3.26548E+006    3.45084E+006   -3.93074E+003    2.91677E+005   -1.30157E+002   -6.24679E+001    1.52670E+005
            4911    3.32101E+006    3.44999E+006    3.44999E+006    3.17727E+005   -3.20871E+004    3.48207E+006   -1.24521E+006    3.27918E+006    3.44999E+006   -2.73379E+003    2.88374E+005    1.18982E+002    1.05099E+002    9.69877E+004
            4912    3.31728E+006    3.44956E+006    3.44956E+006    2.90386E+005   -5.94184E+003    3.45550E+006   -1.24467E+006    3.28731E+006    3.44956E+006   -2.01704E+003    2.86461E+005   -1.58724E+001    1.50730E+001    3.38766E+004
            4913    3.34077E+006    3.43580E+006    3.43580E+006    3.67984E+005   -1.23478E+005    3.55928E+006   -1.22677E+006    3.25795E+006    3.43580E+006    2.80216E+004    2.16484E+005    7.60498E+002    3.88825E+002    2.26945E+005
            4914    3.33290E+006    3.43087E+006    3.43087E+006    3.11697E+005   -8.09748E+004    3.51184E+006   -1.22053E+006    3.28025E+006    3.43087E+006    1.49992E+004    2.15723E+005   -1.03791E+002   -3.13746E+001    1.68746E+005
            4915    3.32747E+006    3.42549E+006    3.42549E+006    2.55021E+005   -3.94202E+004    3.46491E+006   -1.21370E+006    3.29797E+006    3.42549E+006    6.35353E+003    2.09248E+005    1.36670E+002    4.71731E+001    1.06689E+005
            4916    3.32590E+006    3.41754E+006    3.41754E+006    2.00016E+005   -7.07051E+003    3.42461E+006   -1.20349E+006    3.31135E+006    3.41754E+006   -2.98120E+002    1.93244E+005   -1.28707E+001    7.83713E+000    3.68321E+004
            4917    3.34226E+006    3.42453E+006    3.42453E+006    3.39928E+005   -1.26408E+005    3.55094E+006   -1.21268E+006    3.26786E+006    3.42453E+006    7.15731E+004    1.41948E+005    1.08994E+003   -1.83697E+002    2.30498E+005
            4918    3.33496E+006    3.41719E+006    3.41719E+006    2.68821E+005   -7.73597E+004    3.49455E+006   -1.20288E+006    3.29417E+006    3.41719E+006    4.50576E+004    1.46403E+005   -3.18938E+002    5.74511E+001    1.65507E+005
            4919    3.33251E+006    3.40543E+006    3.40543E+006    1.97544E+005   -3.90975E+004    3.44452E+006   -1.18796E+006    3.31353E+006    3.40543E+006    1.82928E+004    1.40153E+005    2.78927E+002   -2.46238E+001    1.01426E+005
            4920    3.33463E+006    3.39040E+006    3.39040E+006    1.22461E+005   -7.14373E+003    3.39754E+006   -1.16857E+006    3.32895E+006    3.39040E+006    2.54644E+003    1.12771E+005   -5.26390E+001   -5.86279E+000    3.40880E+004
            4921    3.33854E+006    3.42082E+006    3.42082E+006    3.10794E+005   -1.06907E+005    3.52773E+006   -1.20824E+006    3.27897E+006    3.42082E+006    1.31895E+005    7.19924E+004    7.48859E+002   -7.47304E+002    2.06692E+005
            4922    3.33488E+006    3.40628E+006    3.40628E+006    2.18048E+005   -5.80774E+004    3.46435E+006   -1.18875E+006    3.30901E+006    3.40628E+006    7.27906E+004    8.71798E+004   -3.56156E+002    2.58488E+002    1.37875E+005
            4923    3.33589E+006    3.39017E+006    3.39017E+006    1.42667E+005   -2.75935E+004    3.41776E+006   -1.16841E+006    3.32609E+006    3.39017E+006    3.02586E+004    8.48145E+004    3.28827E+002   -1.49705E+002    8.06414E+004
            4924    3.34202E+006    3.37009E+006    3.37009E+006    6.34668E+004   -6.23693E+003    3.37632E+006   -1.14244E+006    3.34038E+006    3.37009E+006    5.21395E+003    5.20159E+004   -1.11895E+002    4.59714E+001    2.58272E+004
            4925    3.34634E+006    3.35868E+006    3.35868E+006    2.57559E+004   -9.21456E+002    3.35960E+006   -1.12784E+006    3.34610E+006    3.35868E+006    8.39081E+003    1.64436E+004   -4.42411E-001    1.70653E+001    1.27165E+004
            4926    3.34923E+006    3.35166E+006    3.35166E+006    4.84163E+003    2.79768E+001    3.35163E+006   -1.11884E+006    3.34922E+006    3.35166E+006    2.55301E+003    2.31659E+003    5.43492E+000   -1.15864E+001    2.40392E+003
            4927    3.33947E+006    3.37694E+006    3.37694E+006    8.64940E+004   -9.49276E+003    3.38643E+006   -1.15131E+006    3.33637E+006    3.37694E+006    3.67128E+004    4.02885E+004    4.19007E+001   -6.57797E+001    4.79601E+004
            4928    3.34556E+006    3.36061E+006    3.36061E+006    3.10439E+004   -7.04269E+002    3.36132E+006   -1.13032E+006    3.34522E+006    3.36061E+006    2.03960E+004    9.94369E+003    6.76803E+000    1.16147E+001    1.49891E+004
            4929    3.33535E+006    3.39435E+006    3.39435E+006    1.60515E+005   -3.40057E+004    3.42835E+006   -1.17362E+006    3.32255E+006    3.39435E+006    8.52607E+004    4.12486E+004    1.86688E+000    5.97423E+001    9.47381E+004
            4930    3.33894E+006    3.37792E+006    3.37792E+006    8.56385E+004   -5.80740E+003    3.38373E+006   -1.15258E+006    3.33612E+006    3.37792E+006    6.95544E+004    1.02767E+004    2.06836E+001   -5.46265E+001    3.48156E+004
            4931    3.33276E+006    3.41651E+006    3.41651E+006    2.53904E+005   -6.36610E+004    3.48017E+006   -1.20225E+006    3.29846E+006    3.41651E+006    1.63660E+005    2.65830E+004    4.21804E+001   -3.12961E+002    1.43228E+005
            4932    3.33084E+006    3.40274E+006    3.40274E+006    1.60874E+005   -1.04780E+004    3.41321E+006   -1.18438E+006    3.32091E+006    3.40274E+006    1.45789E+005    4.60664E+003   -6.58942E+001    2.52096E+001    4.85513E+004
            4933    3.32291E+006    3.43105E+006    3.43105E+006    2.42826E+005   -1.18749E+004    3.44293E+006   -1.22067E+006    3.30084E+006    3.43105E+006    2.31453E+005   -5.02065E+002    2.52269E+001    2.21147E+002    5.26054E+004
            4934    3.31522E+006    3.46389E+006    3.46389E+006    3.37322E+005   -1.22663E+004    3.47616E+006   -1.26298E+006    3.27336E+006    3.46389E+006    3.30861E+005   -5.80494E+003    7.95573E+001    1.04197E+002    4.70856E+004
            4935    3.32951E+006    3.43830E+006    3.43830E+006    3.24128E+005   -7.12348E+004    3.50954E+006   -1.23040E+006    3.27607E+006    3.43830E+006    2.47501E+005    5.39247E+003   -3.71067E+002   -9.29862E+002    1.56281E+005
            4936    3.32295E+006    3.46285E+006    3.46285E+006    3.78375E+005   -5.58709E+004    3.51872E+006   -1.26178E+006    3.25819E+006    3.46285E+006    3.33686E+005   -1.11820E+004   -7.13986E+002   -5.60618E+002    1.31943E+005
            4937    3.33988E+006    3.46262E+006    3.46262E+006    4.41034E+005   -1.23589E+005    3.58620E+006   -1.26002E+006    3.22988E+006    3.46262E+006    3.37703E+005   -2.02567E+004   -4.75206E+002    1.44311E+003    2.18325E+005
            4938    3.34815E+006    3.44303E+006    3.44303E+006    4.06035E+005   -1.47327E+005    3.59036E+006   -1.23391E+006    3.24287E+006    3.44303E+006    2.46151E+005    1.25588E+004   -6.70145E+002    1.66706E+003    2.50820E+005
            4939    3.34706E+006    3.42079E+006    3.42079E+006    3.56667E+005   -1.51180E+005    3.57197E+006   -1.20876E+006    3.25869E+006    3.42079E+006    7.97529E+004    1.25735E+005    1.01154E+003   -4.26635E+002    2.52880E+005
            4940    3.34345E+006    3.43597E+006    3.43597E+006    3.94097E+005   -1.43828E+005    3.57980E+006   -1.22875E+006    3.24395E+006    3.43597E+006    3.86290E+004    2.11641E+005    1.36486E+003    9.67512E+001    2.54671E+005
            4941    3.34098E+006    3.45089E+006    3.45089E+006    4.29997E+005   -1.37477E+005    3.58837E+006   -1.24780E+006    3.22987E+006    3.45089E+006   -3.82628E+003    2.96347E+005    1.18806E+003    4.19773E+002    2.40791E+005
            4942    3.33515E+006    3.46910E+006    3.46910E+006    4.58056E+005   -1.15705E+005    3.58481E+006   -1.27048E+006    3.22129E+006    3.46910E+006   -3.34107E+004    3.75762E+005    5.49108E+002    8.22870E+002    2.01109E+005
            4943    3.31970E+006    3.47661E+006    3.47661E+006    4.07900E+005   -4.71367E+004    3.52375E+006   -1.27912E+006    3.24843E+006    3.47661E+006   -1.61165E+004    3.76880E+005    7.28364E+001   -3.13828E+002    1.14687E+005
            4944    3.31092E+006    3.48163E+006    3.48163E+006    3.84211E+005   -7.88660E+003    3.48951E+006   -1.28598E+006    3.25808E+006    3.48163E+006   -3.61104E+003    3.79935E+005   -1.13492E+002   -2.26699E+002    4.07205E+004
            4945    3.32696E+006    3.45250E+006    3.45250E+006    3.51959E+005   -6.21118E+004    3.51461E+006   -1.24745E+006    3.26824E+006    3.45250E+006   -6.94710E+003    2.96794E+005    4.98000E+001   -2.31610E+002    1.40709E+005
            4946    3.31846E+006    3.44757E+006    3.44757E+006    2.92442E+005   -1.30911E+004    3.46066E+006   -1.24231E+006    3.28659E+006    3.44757E+006   -4.62305E+003    2.83974E+005   -1.43074E+002   -2.10852E+002    5.01554E+004
            4947    3.33322E+006    3.42955E+006    3.42955E+006    2.99235E+005   -7.49801E+004    3.50453E+006   -1.21794E+006    3.28546E+006    3.42955E+006    7.08246E+003    2.17173E+005   -6.22266E+001   -3.16687E+002    1.54838E+005
            4948    3.32681E+006    3.41496E+006    3.41496E+006    2.00111E+005   -1.35208E+004    3.42848E+006   -1.20052E+006    3.31133E+006    3.41496E+006    1.09326E+003    1.85497E+005   -2.46042E+002   -4.73714E+001    5.39301E+004
            4949    3.33606E+006    3.41184E+006    3.41184E+006    2.40576E+005   -6.76176E+004    3.47946E+006   -1.19493E+006    3.30380E+006    3.41184E+006    4.05835E+004    1.32375E+005   -4.89464E+002    2.92559E+001    1.47103E+005
            4950    3.33454E+006    3.38816E+006    3.38816E+006    1.17934E+005   -7.17319E+003    3.39533E+006   -1.16631E+006    3.32925E+006    3.38816E+006    1.06664E+004    1.00094E+005   -8.35311E+000    2.21601E+000    4.37447E+004
            4951    3.34254E+006    3.36793E+006    3.36793E+006    5.66551E+004   -5.02852E+003    3.37295E+006   -1.13985E+006    3.34126E+006    3.36793E+006    1.04734E+004    4.11532E+004   -1.35200E+001   -2.93720E+001    2.67564E+004
            4952    3.34747E+006    3.35617E+006    3.35617E+006    1.75715E+004   -9.49489E+001    3.35627E+006   -1.12455E+006    3.34736E+006    3.35617E+006    8.99363E+003    8.48289E+003   -2.93625E+001    2.38892E+001    8.82952E+003
            4953    3.33562E+006    3.39436E+006    3.39436E+006    1.60739E+005   -3.46729E+004    3.42903E+006   -1.17347E+006    3.32270E+006    3.39436E+006    6.49959E+004    6.10699E+004   -2.65149E+002    2.42362E+002    9.76860E+004
            4954    3.34222E+006    3.36869E+006    3.36869E+006    5.87853E+004   -4.92885E+003    3.37362E+006   -1.14085E+006    3.34085E+006    3.36869E+006    4.40239E+004    9.83249E+003    3.13770E+001    3.03677E+001    2.68814E+004
            4955    3.33375E+006    3.39034E+006    3.39034E+006    1.24070E+005   -7.01932E+003    3.39736E+006   -1.16913E+006    3.32794E+006    3.39034E+006    1.07284E+005    9.76721E+003    7.26816E+000   -6.40737E+000    4.38035E+004
            4956    3.32571E+006    3.41896E+006    3.41896E+006    2.11436E+005   -1.35166E+004    3.43248E+006   -1.20563E+006    3.30853E+006    3.41896E+006    1.98195E+005   -2.75473E+002    5.93146E+001    2.01178E+002    5.29461E+004
            4957    3.31696E+006    3.45429E+006    3.45429E+006    3.10245E+005   -1.20546E+004    3.46634E+006   -1.25083E+006    3.28145E+006    3.45429E+006    3.03130E+005   -4.93995E+003    2.10472E+002    5.32702E+001    4.73543E+004
            4958    3.30956E+006    3.48941E+006    3.48941E+006    4.05148E+005   -6.86141E+003    3.49627E+006   -1.29590E+006    3.25111E+006    3.48941E+006    4.01721E+005   -3.43426E+003    1.95151E+002    2.54292E+000    3.74202E+004
            4959    3.33577E+006    3.41277E+006    3.41277E+006    2.43828E+005   -6.79310E+004    3.48070E+006   -1.19622E+006    3.30275E+006    3.41277E+006    1.40966E+005    3.49310E+004   -5.29760E+001    5.78712E+002    1.46586E+005
            4960    3.33184E+006    3.43239E+006    3.43239E+006    3.05881E+005   -7.24817E+004    3.50487E+006   -1.22193E+006    3.28299E+006    3.43239E+006    2.30709E+005    2.69048E+003    3.33012E+002    1.75194E+002    1.50969E+005
            4961    3.32440E+006    3.45729E+006    3.45729E+006    3.62278E+005   -5.67548E+004    3.51405E+006   -1.25427E+006    3.26419E+006    3.45729E+006    3.13962E+005   -8.43804E+003    2.46387E+002   -1.65769E+001    1.33835E+005
            4962    3.31689E+006    3.48248E+006    3.48248E+006    4.20836E+005   -4.12157E+004    3.52369E+006   -1.28737E+006    3.24330E+006    3.48248E+006    3.95432E+005   -1.58123E+004    2.03731E+002   -3.49488E+001    1.05320E+005
            4963    3.33268E+006    3.47822E+006    3.47822E+006    4.68369E+005   -1.03326E+005    3.58155E+006   -1.28109E+006    3.21958E+006    3.47822E+006    4.04817E+005   -3.97739E+004   -8.11836E+002    2.09605E+002    1.79704E+005
            4964    3.33955E+006    3.45721E+006    3.45721E+006    4.36927E+005   -1.29225E+005    3.58644E+006   -1.25497E+006    3.22892E+006    3.45721E+006    3.22961E+005   -1.52584E+004   -6.37455E+002   -5.11539E+002    2.27011E+005
            4965    3.34295E+006    3.43906E+006    3.43906E+006    3.98229E+005   -1.40556E+005    3.57961E+006   -1.23224E+006    3.24310E+006    3.43906E+006    2.34170E+005    2.35035E+004   -2.68757E+002   -9.60502E+002    2.47946E+005
            4966    3.34720E+006    3.42125E+006    3.42125E+006    3.58009E+005   -1.51492E+005    3.57274E+006   -1.20925E+006    3.25824E+006    3.42125E+006    1.43419E+005    6.30977E+004    4.38826E+002   -8.17128E+002    2.51565E+005
            4967    3.30669E+006    3.51016E+006    3.51016E+006    4.65179E+005   -7.38124E+003    3.51754E+006   -1.32265E+006    3.22941E+006    3.51016E+006   -5.48741E+003    4.63285E+005    1.35790E+001   -2.50133E+002    2.98557E+004
            4968    3.31320E+006    3.49987E+006    3.49987E+006    4.60796E+005   -3.22105E+004    3.53208E+006   -1.30948E+006    3.22913E+006    3.49987E+006   -1.85784E+004    4.47164E+005   -1.78111E+001   -1.16797E+002    8.08385E+004
            4969    3.32795E+006    3.49014E+006    3.49014E+006    4.88473E+005   -8.86117E+004    3.57875E+006   -1.29667E+006    3.21248E+006    3.49014E+006   -4.80551E+004    4.47916E+005   -9.00974E+001    7.83108E+002    1.47512E+005
            4970    3.30394E+006    3.53188E+006    3.53188E+006    5.24761E+005   -4.88717E+003    3.53677E+006   -1.35059E+006    3.20634E+006    3.53188E+006   -4.31174E+003    5.24185E+005    8.97610E+001   -1.69237E+002    1.74483E+004
            4971    3.30881E+006    3.51767E+006    3.51767E+006    5.04290E+005   -2.32001E+004    3.54087E+006   -1.33292E+006    3.21217E+006    3.51767E+006   -1.87462E+004    4.99836E+005   -1.64515E+002   -1.39911E+002    4.82654E+004
            4972    3.32146E+006    3.50933E+006    3.50933E+006    5.15054E+005   -6.33434E+004    3.57268E+006   -1.32035E+006    3.20521E+006    3.50933E+006   -5.01163E+004    5.01828E+005   -7.69586E+002    7.33828E+002    8.64606E+004
            4973    3.30308E+006    3.54308E+006    3.54308E+006    5.56375E+005   -4.54115E+003    3.54762E+006   -1.36497E+006    3.19328E+006    3.54308E+006   -4.47951E+003    5.56313E+005    1.49614E+002   -8.36524E+001    5.87966E+003
            4974    3.30653E+006    3.52746E+006    3.52746E+006    5.29143E+005   -1.88259E+004    3.54629E+006   -1.34593E+006    3.20198E+006    3.52746E+006   -1.83979E+004    5.28715E+005   -2.41986E+002   -1.18046E+001    1.53077E+004
            4975    3.31834E+006    3.52068E+006    3.52068E+006    5.31384E+005   -4.98907E+004    3.57057E+006   -1.33406E+006    3.20078E+006    3.52068E+006   -4.84593E+004    5.29953E+005   -1.31733E+003    2.95299E+002    2.88047E+004
            4976    3.30854E+006    3.49627E+006    3.49627E+006    4.25520E+005   -7.44520E+003    3.50371E+006   -1.30478E+006    3.24389E+006    3.49627E+006    4.22532E+005   -4.45675E+003   -2.07624E+002    2.86508E+001   -3.58464E+004
            4977    3.31664E+006    3.48789E+006    3.48789E+006    4.33499E+005   -4.00865E+004    3.52797E+006   -1.29377E+006    3.23926E+006    3.48789E+006    4.11330E+005   -1.79168E+004   -8.28619E+001   -4.66323E+001   -1.00039E+005
            4978    3.33088E+006    3.48026E+006    3.48026E+006    4.73347E+005   -1.00125E+005    3.58039E+006   -1.28449E+006    3.21699E+006    3.48026E+006    4.13924E+005   -4.07018E+004    6.43524E+002   -3.03753E+002   -1.74775E+005
            4979    3.30512E+006    3.52238E+006    3.52238E+006    4.98852E+005   -6.19433E+003    3.52858E+006   -1.33835E+006    3.21659E+006    3.52238E+006    4.97734E+005   -5.07585E+003   -1.62197E+002   -5.40490E+001   -2.37409E+004
            4980    3.31073E+006    3.51028E+006    3.51028E+006    4.85620E+005   -2.67714E+004    3.53705E+006   -1.32304E+006    3.21971E+006    3.51028E+006    4.77386E+005   -1.85378E+004   -1.57562E+002    9.70451E+001   -6.44282E+004
            4981    3.32390E+006    3.50065E+006    3.50065E+006    5.02677E+005   -7.37643E+004    3.57442E+006   -1.30985E+006    3.20854E+006    3.50065E+006    4.78495E+005   -4.95822E+004    8.07122E+002    3.22831E+002   -1.15563E+005
            4982    3.30332E+006    3.53963E+006    3.53963E+006    5.46297E+005   -4.44758E+003    3.54407E+006   -1.36049E+006    3.19757E+006    3.53963E+006    5.46073E+005   -4.22304E+003   -1.25221E+002   -7.67631E+001   -1.11181E+004
            4983    3.30763E+006    3.52431E+006    3.52431E+006    5.20995E+005   -2.07397E+004    3.54505E+006   -1.34152E+006    3.20553E+006    3.52431E+006    5.19294E+005   -1.90383E+004   -1.21547E+001    1.27429E+002   -3.03117E+004
            4984    3.31885E+006    3.51669E+006    3.51669E+006    5.25605E+005   -5.36570E+004    3.57034E+006   -1.32955E+006    3.20214E+006    3.51669E+006    5.20334E+005   -4.83858E+004    3.50971E+002    8.45151E+002   -5.50044E+004
            4985    3.30303E+006    3.54435E+006    3.54435E+006    5.60240E+005   -4.70901E+003    3.54906E+006   -1.36663E+006    3.19160E+006    3.54435E+006    5.60236E+005   -4.70571E+003   -3.31165E+001   -1.59606E+002    1.36362E+003
            4986    3.30670E+006    3.52908E+006    3.52908E+006    5.32698E+005   -1.86334E+004    3.54771E+006   -1.34771E+006    3.20083E+006    3.52908E+006    5.32677E+005   -1.86126E+004   -5.11996E+001    2.68184E+002    3.38386E+003
            4987    3.31719E+006    3.52121E+006    3.52121E+006    5.33249E+005   -4.82919E+004    3.56950E+006   -1.33539E+006    3.19947E+006    3.52121E+006    5.33241E+005   -4.82836E+004    1.10122E+002    9.24113E+002    2.17190E+003
            4988    3.30348E+006    3.53701E+006    3.53701E+006    5.38737E+005   -4.36463E+003    3.54138E+006   -1.35713E+006    3.20072E+006    3.53701E+006    5.38402E+005   -4.02988E+003    4.14357E+001   -1.06112E+002    1.34791E+004
            4989    3.30774E+006    3.52193E+006    3.52193E+006    5.15649E+005   -2.15144E+004    3.54344E+006   -1.33869E+006    3.20740E+006    3.52193E+006    5.12981E+005   -1.88465E+004    2.29976E+001    1.61051E+002    3.77621E+004
            4990    3.31940E+006    3.51608E+006    3.51608E+006    5.23680E+005   -5.43792E+004    3.57046E+006   -1.32846E+006    3.20321E+006    3.51608E+006    5.17678E+005   -4.83767E+004   -1.66196E+002    1.09142E+003    5.85966E+004
            4991    3.30592E+006    3.51708E+006    3.51708E+006    4.84395E+005   -7.05646E+003    3.52414E+006   -1.33147E+006    3.22220E+006    3.51708E+006    4.82986E+005   -5.64676E+003    1.41521E+002   -1.47746E+002    2.62832E+004
            4992    3.31097E+006    3.50577E+006    3.50577E+006    4.75044E+005   -2.79085E+004    3.53367E+006   -1.31763E+006    3.22335E+006    3.50577E+006    4.64808E+005   -1.76734E+004    4.24568E+001    1.08342E+002    7.10141E+004
            4993    3.32517E+006    3.49992E+006    3.49992E+006    4.99767E+005   -7.52674E+004    3.57518E+006   -1.30814E+006    3.21043E+006    3.49992E+006    4.73407E+005   -4.89072E+004   -6.26748E+002    7.39429E+002    1.20262E+005
            4994    3.32838E+006    3.49054E+006    3.49054E+006    4.88672E+005   -8.87831E+004    3.57932E+006   -1.29681E+006    3.21276E+006    3.49054E+006   -4.82947E+004    4.48184E+005   -2.95690E+002   -9.31232E+002   -1.47448E+005
            4995    3.31289E+006    3.49995E+006    3.49995E+006    4.61030E+005   -3.17034E+004    3.53166E+006   -1.30976E+006    3.22890E+006    3.49995E+006   -1.82710E+004    4.47598E+005   -7.83189E+001    1.49415E+002   -8.02383E+004
            4996    3.30669E+006    3.51049E+006    3.51049E+006    4.66217E+005   -7.51883E+003    3.51801E+006   -1.32306E+006    3.22902E+006    3.51049E+006   -5.64916E+003    4.64347E+005    6.17306E+001    2.53025E+002   -2.97024E+004
            4997    3.32199E+006    3.51010E+006    3.51010E+006    5.15406E+005   -6.31751E+004    3.57327E+006   -1.32078E+006    3.20568E+006    3.51010E+006   -5.01117E+004    5.02343E+005   -1.08583E+003   -6.72185E+002   -8.59498E+004
            4998    3.30847E+006    3.51741E+006    3.51741E+006    5.04114E+005   -2.29632E+004    3.54037E+006   -1.33285E+006    3.21197E+006    3.51741E+006   -1.84952E+004    4.99646E+005   -1.74955E+002    1.43590E+002   -4.83220E+004
            4999    3.30397E+006    3.53207E+006    3.53207E+006    5.25156E+005   -4.88239E+003    3.53695E+006   -1.35078E+006    3.20622E+006    3.53207E+006   -4.31506E+003    5.24588E+005    1.05351E+002    1.55956E+002   -1.73316E+004
            5000    3.31846E+006    3.52098E+006    3.52098E+006    5.31494E+005   -4.96749E+004    3.57065E+006   -1.33427E+006    3.20094E+006    3.52098E+006   -4.83170E+004    5.30136E+005   -1.40617E+003   -1.37621E+002   -2.80532E+004
            5001    3.30639E+006    3.52738E+006    3.52738E+006    5.28964E+005   -1.86187E+004    3.54599E+006   -1.34591E+006    3.20198E+006    3.52738E+006   -1.81573E+004    5.28503E+005   -2.79045E+002   -3.75841E+000   -1.58876E+004
            5002    3.30311E+006    3.54308E+006    3.54308E+006    5.56406E+005   -4.60605E+003    3.54768E+006   -1.36496E+006    3.19327E+006    3.54308E+006   -4.54386E+003    5.56344E+005    1.88323E+002    5.35819E+001   -5.90561E+003
            5003    3.34186E+006    3.36970E+006    3.36970E+006    6.19950E+004   -5.30190E+003    3.37500E+006   -1.14213E+006    3.34033E+006    3.36970E+006    6.01319E+003    5.06799E+004    7.28409E+001    2.83403E+001   -2.51682E+004
            5004    3.33475E+006    3.38951E+006    3.38951E+006    1.20278E+005   -7.11727E+003    3.39662E+006   -1.16756E+006    3.32927E+006    3.38951E+006    2.61246E+003    1.10549E+005    9.08738E+001   -1.37880E+001   -3.38358E+004
            5005    3.32606E+006    3.41693E+006    3.41693E+006    1.98264E+005   -6.99755E+003    3.42393E+006   -1.20273E+006    3.31176E+006    3.41693E+006   -3.85014E+002    1.91651E+005    5.04540E+001   -5.76872E+001   -3.62433E+004
            5006    3.31716E+006    3.44963E+006    3.44963E+006    2.90190E+005   -5.46454E+003    3.45509E+006   -1.24479E+006    3.28732E+006    3.44963E+006   -1.61455E+003    2.86340E+005    4.34033E+001   -8.45317E+001   -3.35178E+004
            5007    3.31017E+006    3.48259E+006    3.48259E+006    3.83366E+005   -4.38179E+003    3.48697E+006   -1.28719E+006    3.25849E+006    3.48259E+006   -2.51505E+003    3.81499E+005    1.18318E+001   -1.07908E+002   -2.68391E+004
            5008    3.33636E+006    3.39047E+006    3.39047E+006    1.42761E+005   -2.79896E+004    3.41846E+006   -1.16841E+006    3.32651E+006    3.39047E+006    3.02877E+004    8.44841E+004   -4.59207E+001   -4.74450E+001   -8.09609E+004
            5009    3.33288E+006    3.40514E+006    3.40514E+006    1.95922E+005   -3.89806E+004    3.44412E+006   -1.18736E+006    3.31418E+006    3.40514E+006    1.73609E+004    1.39580E+005   -7.77536E+001   -3.98189E+001   -1.00301E+005
            5010    3.32755E+006    3.42525E+006    3.42525E+006    2.53696E+005   -3.89539E+004    3.46421E+006   -1.21333E+006    3.29841E+006    3.42525E+006    6.35785E+003    2.08384E+005   -6.30205E+000   -5.89772E+000   -1.05865E+005
            5011    3.32106E+006    3.44998E+006    3.44998E+006    3.17500E+005   -3.20120E+004    3.48199E+006   -1.24516E+006    3.27930E+006    3.44998E+006   -3.17687E+003    2.88665E+005   -1.78382E+001   -2.33066E+001   -9.61602E+004
            5012    3.31400E+006    3.47796E+006    3.47796E+006    3.86965E+005   -2.12208E+004    3.49919E+006   -1.28124E+006    3.25672E+006    3.47796E+006   -6.22059E+003    3.71965E+005   -1.93247E+001   -9.28326E+000   -7.67976E+004
            5013    3.33417E+006    3.40563E+006    3.40563E+006    2.18508E+005   -5.83239E+004    3.46396E+006   -1.18861E+006    3.30817E+006    3.40563E+006    7.34113E+004    8.67726E+004    2.33690E+002    1.55992E+002   -1.38255E+005
            5014    3.33453E+006    3.41682E+006    3.41682E+006    2.68454E+005   -7.69891E+004    3.49381E+006   -1.20276E+006    3.29392E+006    3.41682E+006    4.48538E+004    1.46612E+005    3.90189E+002    5.73254E+001   -1.65058E+005
            5015    3.33272E+006    3.43104E+006    3.43104E+006    3.11922E+005   -8.05254E+004    3.51156E+006   -1.22081E+006    3.28013E+006    3.43104E+006    1.39821E+004    2.17415E+005    3.10945E+002   -1.68171E+002   -1.67802E+005
            5016    3.32711E+006    3.45100E+006    3.45100E+006    3.56649E+005   -6.80631E+004    3.51907E+006   -1.24653E+006    3.26528E+006    3.45100E+006   -4.22744E+003    2.92813E+005    2.15958E+002   -2.47329E+002   -1.51779E+005
            5017    3.32029E+006    3.47418E+006    3.47418E+006    4.05837E+005   -5.07767E+004    3.52496E+006   -1.27641E+006    3.24852E+006    3.47418E+006   -1.53140E+004    3.70374E+005    1.32129E+002   -2.95837E+002   -1.22209E+005
            5018    3.34077E+006    3.42248E+006    3.42248E+006    3.11644E+005   -1.08491E+005    3.53097E+006   -1.20854E+006    3.28055E+006    3.42248E+006    1.31325E+005    7.18284E+004    1.94472E+002    1.07213E+002   -2.07950E+005
            5019    3.34421E+006    3.42554E+006    3.42554E+006    3.40328E+005   -1.28242E+005    3.55378E+006   -1.21254E+006    3.26913E+006    3.42554E+006    6.87970E+004    1.43289E+005   -1.07392E+002   -2.27214E+002   -2.31305E+005
            5020    3.34141E+006    3.43637E+006    3.43637E+006    3.68218E+005   -1.23754E+005    3.56012E+006   -1.22694E+006    3.25843E+006    3.43637E+006    2.51568E+004    2.19307E+005   -3.84758E+002   -1.35321E+002   -2.26021E+005
            5021    3.33662E+006    3.45163E+006    3.45163E+006    4.00217E+005   -1.11163E+005    3.56279E+006   -1.24689E+006    3.24670E+006    3.45163E+006   -9.23732E+003    2.98291E+005   -2.98518E+002    4.87801E+001   -2.04288E+005
            5022    3.32839E+006    3.47204E+006    3.47204E+006    4.34142E+005   -8.56791E+004    3.55772E+006   -1.27350E+006    3.23517E+006    3.47204E+006   -2.70873E+004    3.75550E+005    6.57378E+000    2.04335E+002   -1.64391E+005
            5023    3.34119E+006    3.46514E+006    3.46514E+006    4.66142E+005   -1.36281E+005    3.60142E+006   -1.26500E+006    3.21558E+006    3.46514E+006   -3.61802E+004    3.66041E+005   -1.90739E+002    1.07732E+003   -2.24238E+005
            5024    3.34728E+006    3.44735E+006    3.44735E+006    4.42869E+005   -1.60628E+005    3.60798E+006   -1.24320E+006    3.22145E+006    3.44735E+006   -2.99808E+002    2.82541E+005   -8.69051E+002    5.70316E+002   -2.66557E+005
            5025    3.35105E+006    3.43528E+006    3.43528E+006    4.23539E+005   -1.74553E+005    3.60983E+006   -1.22809E+006    3.22768E+006    3.43528E+006    4.78758E+004    2.01110E+005   -1.25379E+003    7.92249E+001   -2.89064E+005
            5026    3.35014E+006    3.42811E+006    3.42811E+006    4.01905E+005   -1.71855E+005    3.59997E+006   -1.21939E+006    3.23682E+006    3.42811E+006    1.02221E+005    1.27829E+005   -1.24512E+003   -6.07380E+002   -2.86594E+005
            5027    3.34975E+006    3.42521E+006    3.42521E+006    3.86673E+005   -1.66823E+005    3.59203E+006   -1.21502E+006    3.24447E+006    3.42521E+006    1.62613E+005    5.72379E+004   -5.56483E+002   -9.93954E+002   -2.71686E+005
            5028    3.34457E+006    3.43874E+006    3.43874E+006    4.03971E+005   -1.47162E+005    3.58590E+006   -1.23185E+006    3.24004E+006    3.43874E+006    2.41212E+005    1.55966E+004    5.45963E+001   -1.03600E+003   -2.51418E+005
            5029    3.33786E+006    3.45914E+006    3.45914E+006    4.39590E+005   -1.25006E+005    3.58415E+006   -1.25791E+006    3.22780E+006    3.45914E+006    3.32167E+005   -1.75833E+004    5.87057E+002   -7.30783E+002   -2.21609E+005
            5030    3.32364E+006    3.46291E+006    3.46291E+006    3.77708E+005   -5.64973E+004    3.51940E+006   -1.26137E+006    3.25892E+006    3.46291E+006    3.33317E+005   -1.21064E+004   -2.40067E+002   -1.25336E+002   -1.31545E+005
            5031    3.31505E+006    3.46313E+006    3.46313E+006    3.35620E+005   -1.20562E+004    3.47518E+006   -1.26223E+006    3.27365E+006    3.46313E+006    3.29015E+005   -5.45162E+003   -1.44247E+002    1.15027E+002   -4.74621E+004
            5032    3.33090E+006    3.43876E+006    3.43876E+006    3.23816E+005   -7.26179E+004    3.51138E+006   -1.22999E+006    3.27720E+006    3.43876E+006    2.47598E+005    3.59921E+003   -1.12355E+002    1.30461E+002   -1.56224E+005
            5033    3.32231E+006    3.43065E+006    3.43065E+006    2.42236E+005   -1.10543E+004    3.44170E+006   -1.22061E+006    3.30048E+006    3.43065E+006    2.30737E+005    4.44202E+002   -8.44553E+001    7.94948E+001   -5.27280E+004
            5034    3.33071E+006    3.40260E+006    3.40260E+006    1.61038E+005   -1.06121E+004    3.41321E+006   -1.18434E+006    3.32073E+006    3.40260E+006    1.45852E+005    4.57416E+003   -3.08250E+001    4.12970E+001   -4.87454E+004
            5035    3.33902E+006    3.37803E+006    3.37803E+006    8.54891E+004   -5.59365E+003    3.38363E+006   -1.15264E+006    3.33622E+006    3.37803E+006    6.93538E+004    1.05416E+004    1.05881E+001    4.61116E+001   -3.47750E+004
            5036    3.34560E+006    3.36049E+006    3.36049E+006    3.06797E+004   -6.67708E+002    3.36116E+006   -1.13017E+006    3.34527E+006    3.36049E+006    2.03714E+004    9.64055E+003    3.55565E+001    1.71521E+001   -1.47267E+004
            5037    3.34926E+006    3.35170E+006    3.35170E+006    4.87127E+003   -9.03986E-001    3.35170E+006   -1.11886E+006    3.34925E+006    3.35170E+006    2.58842E+003    2.28195E+003    1.06064E+001    2.92462E+000   -2.43126E+003
            5038    3.33326E+006    3.41675E+006    3.41675E+006    2.54128E+005   -6.43080E+004    3.48105E+006   -1.20219E+006    3.29878E+006    3.41675E+006    1.63943E+005    2.58766E+004    2.29690E+001    2.60465E+002   -1.43474E+005
            5039    3.33520E+006    3.39449E+006    3.39449E+006    1.61370E+005   -3.41845E+004    3.42868E+006   -1.17389E+006    3.32227E+006    3.39449E+006    8.56890E+004    4.14963E+004    8.62770E+001    7.24800E+001   -9.52477E+004
            5040    3.33956E+006    3.37704E+006    3.37704E+006    8.69065E+004   -9.83650E+003    3.38688E+006   -1.15137E+006    3.33640E+006    3.37704E+006    3.69953E+004    4.00746E+004    1.79980E+001    2.42895E+001   -4.83470E+004
            5041    3.34648E+006    3.35831E+006    3.35831E+006    2.47516E+004   -9.40989E+002    3.35925E+006   -1.12737E+006    3.34626E+006    3.35831E+006    7.90557E+003    1.59050E+004    2.67195E+001    1.70028E+001   -1.22078E+004
            5042    3.33456E+006    3.38799E+006    3.38799E+006    1.17489E+005   -7.13793E+003    3.39513E+006   -1.16611E+006    3.32932E+006    3.38799E+006    1.07148E+004    9.96363E+004   -1.12679E+001    2.05209E+000   -4.36602E+004
            5043    3.32671E+006    3.41515E+006    3.41515E+006    2.00670E+005   -1.34407E+004    3.42859E+006   -1.20079E+006    3.31115E+006    3.41515E+006    1.14787E+003    1.86081E+005   -2.58861E+002    5.96783E+001   -5.39513E+004
            5044    3.31824E+006    3.44841E+006    3.44841E+006    2.94841E+005   -1.30386E+004    3.46145E+006   -1.24340E+006    3.28587E+006    3.44841E+006   -4.71657E+003    2.86519E+005   -1.43978E+002    2.24346E+002   -4.99293E+004
            5045    3.31071E+006    3.48257E+006    3.48257E+006    3.86712E+005   -7.67194E+003    3.49024E+006   -1.28720E+006    3.25724E+006    3.48257E+006   -3.48078E+003    3.82521E+005   -1.18344E+002    2.52401E+002   -4.04396E+004
            5046    3.33612E+006    3.41198E+006    3.41198E+006    2.41043E+005   -6.78380E+004    3.47982E+006   -1.19506E+006    3.30372E+006    3.41198E+006    4.04762E+004    1.32728E+005   -4.87656E+002   -2.18441E+001   -1.47391E+005
            5047    3.33331E+006    3.42977E+006    3.42977E+006    2.99782E+005   -7.51527E+004    3.50492E+006   -1.21813E+006    3.28537E+006    3.42977E+006    6.51279E+003    2.18116E+005   -4.96146E+001    3.22541E+002   -1.54758E+005
            5048    3.32690E+006    3.45286E+006    3.45286E+006    3.52521E+005   -6.17916E+004    3.51465E+006   -1.24786E+006    3.26810E+006    3.45286E+006   -7.32216E+003    2.98052E+005    4.76068E+001    2.68817E+002   -1.40002E+005
            5049    3.31947E+006    3.47690E+006    3.47690E+006    4.08339E+005   -4.65493E+004    3.52345E+006   -1.27956E+006    3.24823E+006    3.47690E+006   -1.60933E+004    3.77883E+005    6.67527E+001    3.23959E+002   -1.13695E+005
            5050    3.33526E+006    3.46917E+006    3.46917E+006    4.58392E+005   -1.15971E+005    3.58514E+006   -1.27053E+006    3.22117E+006    3.46917E+006   -3.33660E+004    3.75787E+005    4.88186E+002   -9.36039E+002   -2.01548E+005
            5051    3.34085E+006    3.45087E+006    3.45087E+006    4.30361E+005   -1.37534E+005    3.58840E+006   -1.24790E+006    3.22957E+006    3.45087E+006   -3.55940E+003    2.96386E+005    1.24649E+003   -5.02548E+002   -2.41111E+005
            5052    3.34319E+006    3.43584E+006    3.43584E+006    3.93990E+005   -1.43556E+005    3.57940E+006   -1.22876E+006    3.24382E+006    3.43584E+006    3.89758E+004    2.11460E+005    1.47623E+003   -9.65153E+001   -2.54561E+005
            5053    3.34703E+006    3.42060E+006    3.42060E+006    3.56529E+005   -1.51328E+005    3.57193E+006   -1.20860E+006    3.25865E+006    3.42060E+006    7.91430E+004    1.26058E+005    1.06479E+003    4.43231E+002   -2.52843E+005
            5054    3.34718E+006    3.42140E+006    3.42140E+006    3.58190E+005   -1.51317E+005    3.57272E+006   -1.20943E+006    3.25822E+006    3.42140E+006    1.43196E+005    6.36771E+004    4.38948E+002    8.26233E+002   -2.51632E+005
            5055    3.34310E+006    3.43923E+006    3.43923E+006    3.98422E+005   -1.40647E+005    3.57987E+006   -1.23233E+006    3.24315E+006    3.43923E+006    2.34635E+005    2.31406E+004   -1.85121E+002    9.23839E+002   -2.47924E+005
            5056    3.33935E+006    3.45707E+006    3.45707E+006    4.36767E+005   -1.29023E+005    3.58610E+006   -1.25494E+006    3.22886E+006    3.45707E+006    3.23346E+005   -1.56028E+004   -4.98011E+002    5.99642E+002   -2.26513E+005
            5057    3.33241E+006    3.47780E+006    3.47780E+006    4.67747E+005   -1.03203E+005    3.58100E+006   -1.28078E+006    3.21960E+006    3.47779E+006    4.04253E+005   -3.97091E+004   -7.77362E+002   -4.23673E+001   -1.79501E+005
            5058    3.31720E+006    3.48257E+006    3.48257E+006    4.21335E+005   -4.18991E+004    3.52447E+006   -1.28734E+006    3.24323E+006    3.48257E+006    3.95811E+005   -1.63745E+004    2.07690E+002    4.06773E+001   -1.05699E+005
            5059    3.30968E+006    3.48890E+006    3.48890E+006    4.04151E+005   -7.24680E+003    3.49614E+006   -1.29527E+006    3.25141E+006    3.48890E+006    4.00634E+005   -3.72967E+003    1.91635E+002   -2.14654E+001   -3.78757E+004
            5060    3.32460E+006    3.45727E+006    3.45727E+006    3.62203E+005   -5.70945E+004    3.51436E+006   -1.25413E+006    3.26432E+006    3.45727E+006    3.13461E+005   -8.35213E+003    2.13010E+002   -3.99660E+000   -1.34394E+005
            5061    3.31685E+006    3.45456E+006    3.45456E+006    3.11016E+005   -1.19634E+004    3.46652E+006   -1.25120E+006    3.28119E+006    3.45456E+006    3.03800E+005   -4.74686E+003    2.06701E+002   -5.96900E+001   -4.77357E+004
            5062    3.33182E+006    3.43240E+006    3.43240E+006    3.05927E+005   -7.24586E+004    3.50486E+006   -1.22196E+006    3.28296E+006    3.43240E+006    2.30232E+005    3.23631E+003    3.10491E+002   -1.78739E+002   -1.51368E+005
            5063    3.32554E+006    3.41969E+006    3.41969E+006    2.13459E+005   -1.35308E+004    3.43322E+006   -1.20654E+006    3.30804E+006    3.41969E+006    2.00250E+005   -3.21651E+002    5.60677E+001   -2.09315E+002   -5.31400E+004
            5064    3.33576E+006    3.41286E+006    3.41286E+006    2.43967E+005   -6.78613E+004    3.48072E+006   -1.19632E+006    3.30273E+006    3.41286E+006    1.40943E+005    3.51626E+004   -4.59053E+001   -5.90216E+002   -1.46669E+005
            5065    3.33359E+006    3.39083E+006    3.39083E+006    1.25389E+005   -6.98321E+003    3.39781E+006   -1.16974E+006    3.32767E+006    3.39083E+006    1.08606E+005    9.80007E+003   -6.15119E+000    4.31532E-001   -4.40450E+004
            5066    3.34213E+006    3.36890E+006    3.36890E+006    5.92318E+004   -4.76458E+003    3.37366E+006   -1.14112E+006    3.34075E+006    3.36890E+006    4.45425E+004    9.92473E+003    2.63040E+001   -3.06726E+001   -2.69126E+004
            5067    3.34747E+006    3.35617E+006    3.35617E+006    1.75577E+004   -1.01561E+002    3.35627E+006   -1.12454E+006    3.34737E+006    3.35617E+006    9.15444E+003    8.30165E+003   -3.42585E+001   -2.17133E+001   -8.81930E+003
            5068    3.33562E+006    3.39443E+006    3.39443E+006    1.60884E+005   -3.46549E+004    3.42909E+006   -1.17355E+006    3.32268E+006    3.39443E+006    6.50943E+004    6.11352E+004   -2.73762E+002   -2.50443E+002   -9.77496E+004
            5069    3.34261E+006    3.36771E+006    3.36771E+006    5.61862E+004   -5.14945E+003    3.37286E+006   -1.13958E+006    3.34135E+006    3.36771E+006    1.04077E+004    4.06290E+004   -8.60779E+000    3.66529E+001   -2.66868E+004
            5070    3.33247E+006    3.48815E+006    3.48815E+006    4.92619E+005   -1.01373E+005    3.58953E+006   -1.29313E+006    3.21012E+006    3.48815E+006   -5.25502E+004    4.43796E+005    6.20350E+002    1.09282E+003   -1.63147E+005
            5071    3.32033E+006    3.49326E+006    3.49326E+006    4.71378E+005   -6.11462E+004    3.55441E+006   -1.30116E+006    3.22215E+006    3.49326E+006   -3.37263E+004    4.43958E+005    3.91301E+002    2.53271E+002   -1.17685E+005
            5072    3.31383E+006    3.49784E+006    3.49784E+006    4.57250E+005   -3.43112E+004    3.53216E+006   -1.30693E+006    3.23028E+006    3.49784E+006   -1.82380E+004    4.41177E+005    3.72177E+001   -2.29327E+002   -8.74221E+004
            5073    3.30881E+006    3.50396E+006    3.50396E+006    4.54642E+005   -1.43043E+004    3.51827E+006   -1.31477E+006    3.23278E+006    3.50396E+006   -7.91010E+003    4.48247E+005    1.17900E+001   -1.03479E+001   -5.43842E+004
            5074    3.30531E+006    3.51251E+006    3.51251E+006    4.67161E+005   -2.51445E+003    3.51502E+006   -1.32572E+006    3.22895E+006    3.51251E+006   -1.74620E+003    4.66393E+005   -2.02915E+001   -1.00618E+002   -1.89799E+004
            5075    3.32491E+006    3.50844E+006    3.50844E+006    5.18300E+005   -7.21204E+004    3.58056E+006   -1.31821E+006    3.20376E+006    3.50844E+006   -5.62284E+004    5.02409E+005    1.14685E+003    6.79146E+002   -9.55520E+004
            5076    3.31457E+006    3.51088E+006    3.51088E+006    5.04965E+005   -4.38437E+004    3.55472E+006   -1.32400E+006    3.20996E+006    3.51088E+006   -3.49160E+004    4.96037E+005    6.80138E+002    2.20715E+002   -6.94250E+004
            5077    3.30984E+006    3.51652E+006    3.51652E+006    5.01567E+005   -2.50563E+004    3.54158E+006   -1.33101E+006    3.21355E+006    3.51652E+006   -1.98863E+004    4.96397E+005    4.39821E+001   -1.26974E+002   -5.19222E+004
            5078    3.30555E+006    3.52418E+006    3.52418E+006    5.08264E+005   -9.83058E+003    3.53401E+006   -1.34087E+006    3.21230E+006    3.52418E+006   -7.77644E+003    5.06209E+005    2.16679E+001   -1.41367E+001   -3.25579E+004
            5079    3.30300E+006    3.53393E+006    3.53393E+006    5.28233E+005   -2.17335E+003    3.53610E+006   -1.35333E+006    3.20508E+006    3.53393E+006   -1.93011E+003    5.27990E+005   -4.20697E+001   -7.11231E+001   -1.13559E+004
            5080    3.32080E+006    3.51974E+006    3.51974E+006    5.33405E+005   -5.64777E+004    3.57622E+006   -1.33222E+006    3.19973E+006    3.51974E+006   -5.49419E+004    5.31869E+005    1.41905E+003    2.72019E+002   -3.00541E+004
            5081    3.31180E+006    3.52076E+006    3.52076E+006    5.25221E+005   -3.56669E+004    3.55643E+006   -1.33677E+006    3.20232E+006    3.52076E+006   -3.47396E+004    5.24294E+005    8.78480E+002    8.19447E+001   -2.27846E+004
            5082    3.30763E+006    3.52706E+006    3.52706E+006    5.26381E+005   -1.95859E+004    3.54665E+006   -1.34462E+006    3.20390E+006    3.52706E+006   -1.90556E+004    5.25851E+005    2.73810E+001   -4.08859E+001   -1.70066E+004
            5083    3.30421E+006    3.53506E+006    3.53506E+006    5.37789E+005   -8.09592E+003    3.54315E+006   -1.35492E+006    3.20039E+006    3.53506E+006   -7.88380E+003    5.37577E+005    2.76086E+001   -6.62149E+000   -1.07584E+004
            5084    3.30200E+006    3.54554E+006    3.54554E+006    5.60989E+005   -1.61508E+003    3.54715E+006   -1.36830E+006    3.19148E+006    3.54554E+006   -1.58887E+003    5.60962E+005   -5.80165E+001   -2.61031E+001   -3.83942E+003
            5085    3.33134E+006    3.48051E+006    3.48051E+006    4.73579E+005   -1.00603E+005    3.58111E+006   -1.28450E+006    3.21718E+006    3.48051E+006    4.13870E+005   -4.08937E+004    8.17501E+002    1.14610E+002    1.75268E+005
            5086    3.31629E+006    3.48811E+006    3.48811E+006    4.33990E+005   -3.94710E+004    3.52758E+006   -1.29421E+006    3.23894E+006    3.48811E+006    4.12196E+005   -1.76767E+004   -1.29251E+002    3.66053E+001    9.92156E+004
            5087    3.30848E+006    3.49691E+006    3.49691E+006    4.27277E+005   -7.43392E+003    3.50435E+006   -1.30559E+006    3.24329E+006    3.49691E+006    4.24340E+005   -4.49600E+003   -2.05276E+002   -8.45243E+000    3.56162E+004
            5088    3.32425E+006    3.50111E+006    3.50111E+006    5.02895E+005   -7.37317E+004    3.57484E+006   -1.31009E+006    3.20883E+006    3.50111E+006    4.78765E+005   -4.96024E+004    7.20538E+002   -5.16285E+002    1.15461E+005
            5089    3.31048E+006    3.51024E+006    3.51024E+006    4.85855E+005   -2.65863E+004    3.53682E+006   -1.32317E+006    3.21944E+006    3.51024E+006    4.77663E+005   -1.83947E+004   -1.35785E+002   -1.10038E+002    6.42698E+004
            5090    3.30512E+006    3.52284E+006    3.52284E+006    5.00141E+005   -6.25678E+003    3.52910E+006   -1.33891E+006    3.21610E+006    3.52284E+006    4.99049E+005   -5.16446E+003   -1.62292E+002    6.61143E+001    2.34938E+004
            5091    3.31903E+006    3.51682E+006    3.51682E+006    5.25951E+005   -5.39313E+004    3.57076E+006   -1.32961E+006    3.20207E+006    3.51682E+006    5.20792E+005   -4.87718E+004    3.36181E+002   -9.38151E+002    5.44529E+004
            5092    3.30758E+006    3.52424E+006    3.52424E+006    5.21096E+005   -2.08352E+004    3.54507E+006   -1.34150E+006    3.20540E+006    3.52424E+006    5.19402E+005   -1.91411E+004   -1.68922E+001   -1.82206E+002    3.02519E+004
            5093    3.30328E+006    3.53978E+006    3.53978E+006    5.46774E+005   -4.42887E+003    3.54421E+006   -1.36071E+006    3.19736E+006    3.53978E+006    5.46558E+005   -4.21275E+003   -1.09504E+002    1.03537E+002    1.09123E+004
            5094    3.31737E+006    3.52143E+006    3.52143E+006    5.33023E+005   -4.81159E+004    3.56954E+006   -1.33545E+006    3.19983E+006    3.52143E+006    5.33008E+005   -4.81000E+004    4.03971E+001   -1.03665E+003   -3.01415E+003
            5095    3.30655E+006    3.52898E+006    3.52898E+006    5.32472E+005   -1.84138E+004    3.54740E+006   -1.34768E+006    3.20086E+006    3.52898E+006    5.32450E+005   -1.83919E+004   -4.63309E+001   -2.59223E+002   -3.47530E+003
            5096    3.30304E+006    3.54432E+006    3.54432E+006    5.60098E+005   -4.69491E+003    3.54902E+006   -1.36658E+006    3.19168E+006    3.54432E+006    5.60094E+005   -4.69115E+003   -1.33624E+001    1.57496E+002   -1.45481E+003
            5097    3.31937E+006    3.51578E+006    3.51578E+006    5.23689E+005   -5.48146E+004    3.57060E+006   -1.32822E+006    3.20299E+006    3.51578E+006    5.17441E+005   -4.85663E+004   -3.00382E+002   -9.94038E+002   -5.97950E+004
            5098    3.30786E+006    3.52184E+006    3.52184E+006    5.15291E+005   -2.16363E+004    3.54348E+006   -1.33850E+006    3.20761E+006    3.52184E+006    5.12624E+005   -1.89691E+004    4.18443E+001   -1.66418E+002   -3.77490E+004
            5099    3.30348E+006    3.53674E+006    3.53674E+006    5.37959E+005   -4.33749E+003    3.54108E+006   -1.35679E+006    3.20104E+006    3.53674E+006    5.37620E+005   -3.99853E+003    6.30818E+001    1.09011E+002   -1.35536E+004
            5100    3.32497E+006    3.49935E+006    3.49935E+006    4.99294E+005   -7.55796E+004    3.57492E+006   -1.30769E+006    3.21030E+006    3.49935E+006    4.72649E+005   -4.89352E+004   -6.16510E+002   -5.79797E+002   -1.20860E+005
            5101    3.31122E+006    3.50588E+006    3.50588E+006    4.75345E+005   -2.83234E+004    3.53420E+006   -1.31763E+006    3.22335E+006    3.50588E+006    4.65052E+005   -1.80304E+004    3.77164E+001   -8.51024E+001   -7.12623E+004
            5102    3.30596E+006    3.51657E+006    3.51657E+006    4.83018E+005   -7.07120E+003    3.52364E+006   -1.33084E+006    3.22271E+006    3.51657E+006    4.81585E+005   -5.63888E+003    1.57804E+002    1.18969E+002   -2.64558E+004
            5103    3.30540E+006    3.51224E+006    3.51224E+006    4.66616E+005   -2.75011E+003    3.51499E+006   -1.32537E+006    3.22914E+006    3.51224E+006   -1.97838E+003    4.65844E+005   -9.96981E+000    1.02350E+002    1.90165E+004
            5104    3.30884E+006    3.50396E+006    3.50396E+006    4.54616E+005   -1.43341E+004    3.51830E+006   -1.31475E+006    3.23281E+006    3.50396E+006   -7.89164E+003    4.48174E+005   -4.76403E+000    1.28438E+001    5.45864E+004
            5105    3.31392E+006    3.49784E+006    3.49784E+006    4.57600E+005   -3.46863E+004    3.53252E+006   -1.30692E+006    3.23012E+006    3.49784E+006   -1.85506E+004    4.41464E+005    6.46497E+001    2.24691E+002    8.76528E+004
            5106    3.32059E+006    3.49338E+006    3.49338E+006    4.72052E+005   -6.17943E+004    3.55517E+006   -1.30121E+006    3.22192E+006    3.49338E+006   -3.42557E+004    4.44514E+005    3.04228E+002   -2.85894E+002    1.18080E+005
            5107    3.33200E+006    3.48780E+006    3.48780E+006    4.92780E+005   -1.01268E+005    3.58907E+006   -1.29310E+006    3.20960E+006    3.48780E+006   -5.25985E+004    4.44111E+005    4.41463E+002   -1.08200E+003    1.62921E+005
            5108    3.30295E+006    3.53400E+006    3.53400E+006    5.28216E+005   -1.96220E+003    3.53597E+006   -1.35342E+006    3.20511E+006    3.53400E+006   -1.72338E+003    5.27977E+005   -4.63589E+001    7.60271E+001    1.12499E+004
            5109    3.30555E+006    3.52424E+006    3.52424E+006    5.08377E+005   -9.80346E+003    3.53404E+006   -1.34094E+006    3.21227E+006    3.52424E+006   -7.78546E+003    5.06359E+005    2.04327E+001    1.06766E+001    3.22740E+004
            5110    3.30979E+006    3.51652E+006    3.51652E+006    5.01378E+005   -2.48590E+004    3.54138E+006   -1.33101E+006    3.21364E+006    3.51652E+006   -1.97037E+004    4.96222E+005    4.10848E+001    1.38454E+002    5.18295E+004
            5111    3.31473E+006    3.51095E+006    3.51095E+006    5.05265E+005   -4.41635E+004    3.55511E+006   -1.32402E+006    3.20988E+006    3.51095E+006   -3.52807E+004    4.96383E+005    7.15607E+002   -2.45791E+002    6.92926E+004
            5112    3.32510E+006    3.50836E+006    3.50836E+006    5.18591E+005   -7.27214E+004    3.58108E+006   -1.31808E+006    3.20359E+006    3.50836E+006   -5.67337E+004    5.02604E+005    1.14474E+003   -8.56817E+002    9.59055E+004
            5113    3.30204E+006    3.54551E+006    3.54551E+006    5.61029E+005   -1.75261E+003    3.54726E+006   -1.36826E+006    3.19145E+006    3.54551E+006   -1.72677E+003    5.61003E+005   -5.68595E+001    2.68262E+001    3.81300E+003
            5114    3.30414E+006    3.53513E+006    3.53513E+006    5.37771E+005   -7.87010E+003    3.54300E+006   -1.35501E+006    3.20042E+006    3.53513E+006   -7.65694E+003    5.37558E+005    2.58875E+001    6.99599E+000    1.07826E+004
            5115    3.30764E+006    3.52711E+006    3.52711E+006    5.26487E+005   -1.95793E+004    3.54669E+006   -1.34467E+006    3.20387E+006    3.52711E+006   -1.90511E+004    5.25959E+005    2.63494E+001    4.49606E+001    1.69750E+004
            5116    3.31168E+006    3.52077E+006    3.52077E+006    5.24947E+005   -3.53020E+004    3.55607E+006   -1.33681E+006    3.20245E+006    3.52077E+006   -3.43877E+004    5.24033E+005    8.85881E+002   -7.31579E+001    2.26115E+004
            5117    3.32097E+006    3.52002E+006    3.52002E+006    5.32994E+005   -5.60669E+004    3.57608E+006   -1.33231E+006    3.20025E+006    3.52002E+006   -5.45104E+004    5.31438E+005    1.52188E+003   -2.22291E+002    3.02338E+004
            5118    3.34972E+006    3.42507E+006    3.42507E+006    3.86383E+005   -1.66822E+005    3.59189E+006   -1.21488E+006    3.24456E+006    3.42507E+006    1.62153E+005    5.74088E+004   -5.53344E+002    1.02847E+003    2.71599E+005
            5119    3.35033E+006    3.42813E+006    3.42813E+006    4.01690E+005   -1.71993E+005    3.60013E+006   -1.21928E+006    3.23705E+006    3.42813E+006    1.01792E+005    1.27906E+005   -1.15335E+003    6.28109E+002    2.86544E+005
            5120    3.35114E+006    3.43537E+006    3.43537E+006    4.23567E+005   -1.74560E+005    3.60993E+006   -1.22813E+006    3.22776E+006    3.43537E+006    4.71151E+004    2.01892E+005   -1.21137E+003    1.63392E+001    2.88877E+005
            5121    3.34721E+006    3.44733E+006    3.44733E+006    4.42681E+005   -1.60444E+005    3.60777E+006   -1.24319E+006    3.22154E+006    3.44733E+006   -1.08394E+003    2.83321E+005   -8.93611E+002   -4.57868E+002    2.65929E+005
            5122    3.34077E+006    3.46505E+006    3.46505E+006    4.66006E+005   -1.35673E+005    3.60073E+006   -1.26513E+006    3.21547E+006    3.46505E+006   -3.63336E+004    3.66667E+005   -3.03552E+002   -9.44838E+002    2.23387E+005
            5123    3.32852E+006    3.47194E+006    3.47194E+006    4.34116E+005   -8.60192E+004    3.55796E+006   -1.27335E+006    3.23519E+006    3.47194E+006   -2.70824E+004    3.75179E+005   -7.18580E+001   -1.71476E+002    1.64868E+005
            5124    3.32047E+006    3.47401E+006    3.47401E+006    4.05972E+005   -5.14627E+004    3.52547E+006   -1.27617E+006    3.24845E+006    3.47401E+006   -1.54882E+004    3.69998E+005    1.24337E+002    2.73706E+002    1.23133E+005
            5125    3.31415E+006    3.47781E+006    3.47781E+006    3.87034E+005   -2.17992E+004    3.49960E+006   -1.28101E+006    3.25670E+006    3.47781E+006   -6.53860E+003    3.71773E+005   -1.60648E+001    1.33761E+001    7.74995E+004
            5126    3.31016E+006    3.48260E+006    3.48260E+006    3.83269E+005   -4.28315E+003    3.48688E+006   -1.28719E+006    3.25853E+006    3.48260E+006   -2.38989E+003    3.81376E+005    1.20817E+001    1.06814E+002    2.70213E+004
            5127    3.33677E+006    3.45128E+006    3.45128E+006    3.99494E+005   -1.11519E+005    3.56280E+006   -1.24642E+006    3.24698E+006    3.45128E+006   -8.66435E+003    2.96640E+005   -3.19055E+002   -1.79000E+001    2.04893E+005
            5128    3.32725E+006    3.45075E+006    3.45075E+006    3.56449E+005   -6.86110E+004    3.51936E+006   -1.24619E+006    3.26533E+006    3.45075E+006   -3.98342E+003    2.91821E+005    2.11365E+002    2.34128E+002    1.52623E+005
            5129    3.32110E+006    3.45001E+006    3.45001E+006    3.17747E+005   -3.22184E+004    3.48223E+006   -1.24518E+006    3.27923E+006    3.45001E+006   -2.95456E+003    2.88484E+005   -1.96462E+001    2.51361E+001    9.68761E+004
            5130    3.31722E+006    3.44961E+006    3.44961E+006    2.90491E+005   -5.83009E+003    3.45544E+006   -1.24476E+006    3.28725E+006    3.44961E+006   -1.90386E+003    2.86565E+005    5.12952E+001    8.06562E+001    3.38823E+004
            5131    3.34159E+006    3.43603E+006    3.43603E+006    3.67720E+005   -1.24284E+005    3.56031E+006   -1.22649E+006    3.25860E+006    3.43603E+006    2.64148E+004    2.17021E+005   -3.39062E+002    1.46760E+002    2.26791E+005
            5132    3.33289E+006    3.43076E+006    3.43076E+006    3.11763E+005   -8.11874E+004    3.51194E+006   -1.22044E+006    3.28016E+006    3.43076E+006    1.47609E+004    2.15814E+005    3.03846E+002    1.53851E+002    1.68810E+005
            5133    3.32756E+006    3.42554E+006    3.42554E+006    2.55049E+005   -3.95063E+004    3.46505E+006   -1.21369E+006    3.29804E+006    3.42554E+006    6.23104E+003    2.09312E+005    6.18788E+000    8.39834E+000    1.06678E+005
            5134    3.32588E+006    3.41755E+006    3.41755E+006    2.00109E+005   -7.09643E+003    3.42464E+006   -1.20352E+006    3.31132E+006    3.41755E+006   -3.23423E+002    1.93336E+005    4.92555E+001    5.26475E+001    3.68447E+004
            5135    3.34423E+006    3.42537E+006    3.42537E+006    3.39946E+005   -1.28316E+005    3.55368E+006   -1.21233E+006    3.26926E+006    3.42537E+006    6.94752E+004    1.42155E+005   -6.17304E+001    2.15207E+002    2.31293E+005
            5136    3.33458E+006    3.41685E+006    3.41685E+006    2.68866E+005   -7.73150E+004    3.49417E+006   -1.20280E+006    3.29379E+006    3.41685E+006    4.52598E+004    1.46291E+005    4.01521E+002   -7.35175E+001    1.65555E+005
            5137    3.33281E+006    3.40555E+006    3.40555E+006    1.97514E+005   -3.93948E+004    3.44494E+006   -1.18789E+006    3.31379E+006    3.40555E+006    1.79165E+004    1.40203E+005   -7.01153E+001    3.90442E+001    1.01454E+005
            5138    3.33442E+006    3.39042E+006    3.39042E+006    1.22607E+005   -6.83172E+003    3.39725E+006   -1.16873E+006    3.32876E+006    3.39042E+006    2.86380E+003    1.12912E+005    9.45906E+001    9.25802E+000    3.40731E+004
            5139    3.34083E+006    3.42248E+006    3.42248E+006    3.11791E+005   -1.08683E+005    3.53116E+006   -1.20853E+006    3.28050E+006    3.42248E+006    1.31532E+005    7.15762E+004    2.29397E+002   -1.09439E+002    2.08089E+005
            5140    3.33413E+006    3.40548E+006    3.40548E+006    2.17625E+005   -5.78297E+004    3.46331E+006   -1.18843E+006    3.30839E+006    3.40548E+006    7.27084E+004    8.70868E+004    2.23674E+002   -1.78368E+002    1.37540E+005
            5141    3.33637E+006    3.39052E+006    3.39052E+006    1.42883E+005   -2.79982E+004    3.41852E+006   -1.16847E+006    3.32650E+006    3.39052E+006    3.00526E+004    8.48324E+004   -3.74315E+001    5.20583E+001    8.09315E+004
            5142    3.34173E+006    3.37004E+006    3.37004E+006    6.35492E+004   -5.83923E+003    3.37588E+006   -1.14258E+006    3.34011E+006    3.37004E+006    5.56340E+003    5.21465E+004    7.27758E+001   -3.64293E+001    2.57136E+004
            5143    3.34632E+006    3.35869E+006    3.35869E+006    2.57949E+004   -8.93350E+002    3.35958E+006   -1.12786E+006    3.34608E+006    3.35869E+006    8.39863E+003    1.65029E+004    2.95192E+001   -2.04647E+001    1.27140E+004
            5144    3.34927E+006    3.35168E+006    3.35168E+006    4.83979E+003   -5.02428E-001    3.35168E+006   -1.11884E+006    3.34926E+006    3.35168E+006    2.55680E+003    2.28250E+003    8.78875E+000   -6.34806E+000    2.41626E+003
            5145    3.33958E+006    3.37698E+006    3.37698E+006    8.65039E+004   -9.63324E+003    3.38661E+006   -1.15128E+006    3.33647E+006    3.37698E+006    3.66820E+004    4.01887E+004    1.52378E+001   -3.13963E+001    4.80366E+004
            5146    3.34553E+006    3.36064E+006    3.36064E+006    3.10961E+004   -6.43248E+002    3.36129E+006   -1.13037E+006    3.34519E+006    3.36064E+006    2.04218E+004    1.00310E+004    3.30883E+001   -1.60574E+001    1.49951E+004
            5147    3.33524E+006    3.39427E+006    3.39427E+006    1.60555E+005   -3.39765E+004    3.42825E+006   -1.17362E+006    3.32244E+006    3.39427E+006    8.51831E+004    4.13952E+004    8.82213E+001   -7.13777E+001    9.47695E+004
            5148    3.33906E+006    3.37797E+006    3.37797E+006    8.56638E+004   -5.96765E+003    3.38393E+006   -1.15255E+006    3.33623E+006    3.37797E+006    6.95806E+004    1.01155E+004    2.00383E+000   -5.46866E+001    3.48576E+004
            5149    3.33326E+006    3.41679E+006    3.41679E+006    2.54243E+005   -6.43090E+004    3.48110E+006   -1.20224E+006    3.29875E+006    3.41679E+006    1.63929E+005    2.60052E+004    5.72027E+000   -2.75355E+002    1.43573E+005
            5150    3.33065E+006    3.40269E+006    3.40269E+006    1.61008E+005   -1.03066E+004    3.41300E+006   -1.18446E+006    3.32071E+006    3.40269E+006    1.45933E+005    4.76859E+003   -4.05573E+001   -2.73636E+001    4.85319E+004
            5151    3.32218E+006    3.43101E+006    3.43101E+006    2.43170E+005   -1.09282E+004    3.44193E+006   -1.22108E+006    3.30021E+006    3.43101E+006    2.31709E+005    5.33597E+002   -9.86884E+001   -9.40369E+001    5.27357E+004
            5152    3.31489E+006    3.46378E+006    3.46378E+006    3.37579E+005   -1.20855E+004    3.47587E+006   -1.26309E+006    3.27302E+006    3.46378E+006    3.31040E+005   -5.54673E+003   -1.68563E+002   -9.62849E+001    4.73669E+004
            5153    3.33083E+006    3.43900E+006    3.43900E+006    3.24225E+005   -7.23785E+004    3.51137E+006   -1.23028E+006    3.27707E+006    3.43900E+006    2.48367E+005    3.47914E+003   -1.37782E+002   -8.91357E+001    1.55984E+005
            5154    3.32353E+006    3.46323E+006    3.46323E+006    3.78288E+005   -5.61437E+004    3.51938E+006   -1.26179E+006    3.25873E+006    3.46323E+006    3.34585E+005   -1.24403E+004   -2.51427E+002    1.19168E+002    1.30676E+005
            5155    3.33784E+006    3.45906E+006    3.45906E+006    4.39849E+005   -1.25265E+005    3.58432E+006   -1.25788E+006    3.22757E+006    3.45906E+006    3.31659E+005   -1.70741E+004    7.27000E+002    7.61060E+002    2.22340E+005
            5156    3.34446E+006    3.43855E+006    3.43855E+006    4.04021E+005   -1.47320E+005    3.58587E+006   -1.23175E+006    3.23984E+006    3.43855E+006    2.40515E+005    1.61864E+004    1.13138E+002    1.08476E+003    2.51820E+005
            5157    3.34758E+006    3.42124E+006    3.42124E+006    3.56618E+005   -1.51271E+005    3.57251E+006   -1.20886E+006    3.25921E+006    3.42124E+006    7.94213E+004    1.25925E+005   -2.85268E+002   -6.39158E+001    2.52877E+005
            5158    3.34423E+006    3.43683E+006    3.43683E+006    3.94242E+005   -1.43804E+005    3.58063E+006   -1.22909E+006    3.24470E+006    3.43683E+006    3.82213E+004    2.12217E+005   -3.35962E+002   -6.61923E+001    2.54568E+005
            5159    3.34204E+006    3.45196E+006    3.45196E+006    4.30284E+005   -1.37664E+005    3.58962E+006   -1.24819E+006    3.23078E+006    3.45196E+006   -4.28253E+003    2.96902E+005   -2.86682E+002   -2.53910E+000    2.40755E+005
            5160    3.33564E+006    3.46972E+006    3.46972E+006    4.58417E+005   -1.15723E+005    3.58544E+006   -1.27080E+006    3.22164E+006    3.46972E+006   -3.37306E+004    3.76425E+005   -1.32148E+002   -7.66650E+001    2.00879E+005
            5161    3.31910E+006    3.47640E+006    3.47640E+006    4.08132E+005   -4.66400E+004    3.52304E+006   -1.27930E+006    3.24790E+006    3.47640E+006   -1.52269E+004    3.76719E+005    1.85262E+002    2.83876E+002    1.15321E+005
            5162    3.31124E+006    3.48170E+006    3.48170E+006    3.84131E+005   -8.24309E+003    3.48994E+006   -1.28586E+006    3.25832E+006    3.48170E+006   -4.09748E+003    3.79986E+005    1.45372E+001   -1.20791E+002    4.01179E+004
            5163    3.32525E+006    3.45140E+006    3.45140E+006    3.52356E+005   -6.13322E+004    3.51273E+006   -1.24748E+006    3.26660E+006    3.45140E+006   -5.60889E+003    2.96633E+005    4.44505E+002    1.29468E+002    1.41234E+005
            5164    3.31925E+006    3.44782E+006    3.44782E+006    2.92260E+005   -1.38986E+004    3.46172E+006   -1.24206E+006    3.28726E+006    3.44782E+006   -5.64344E+003    2.84005E+005   -5.10100E+001   -1.38630E+002    4.95906E+004
            5165    3.33169E+006    3.42898E+006    3.42898E+006    2.99802E+005   -7.37511E+004    3.50273E+006   -1.21834E+006    3.28408E+006    3.42898E+006    8.67372E+003    2.17378E+005    5.19545E+002   -9.39914E+001    1.54907E+005
            5166    3.32798E+006    3.41507E+006    3.41507E+006    1.99648E+005   -1.50778E+004    3.43015E+006   -1.19988E+006    3.31235E+006    3.41507E+006   -6.57364E+002    1.85228E+005   -1.32938E+002   -1.08936E+002    5.37447E+004
            5167    3.33456E+006    3.41084E+006    3.41084E+006    2.40996E+005   -6.70506E+004    3.47789E+006   -1.19493E+006    3.30232E+006    3.41084E+006    4.13628E+004    1.32582E+005    4.82478E+002   -1.44049E+002    1.47115E+005
            5168    3.33596E+006    3.38845E+006    3.38845E+006    1.17387E+005   -8.82648E+003    3.39727E+006   -1.16567E+006    3.33058E+006    3.38845E+006    8.87202E+003    9.96887E+004   -2.76471E+002   -3.38850E+000    4.38241E+004
            5169    3.34284E+006    3.36795E+006    3.36795E+006    5.64660E+004   -5.37913E+003    3.37333E+006   -1.13968E+006    3.34155E+006    3.36795E+006    1.00517E+004    4.10352E+004   -9.62608E+001    6.91653E+001    2.67621E+004
            5170    3.34736E+006    3.35622E+006    3.35622E+006    1.77474E+004    4.47837E+001    3.35617E+006   -1.12467E+006    3.34725E+006    3.35622E+006    9.15407E+003    8.63808E+003    9.48349E-002   -4.53353E+000    8.84753E+003
            5171    3.33571E+006    3.39449E+006    3.39449E+006    1.60996E+005   -3.48177E+004    3.42931E+006   -1.17356E+006    3.32274E+006    3.39449E+006    6.50610E+004    6.11178E+004    3.45142E+001   -2.84660E+001    9.78872E+004
            5172    3.34252E+006    3.36874E+006    3.36874E+006    5.86338E+004   -5.28144E+003    3.37402E+006   -1.14070E+006    3.34114E+006    3.36874E+006    4.39124E+004    9.44004E+003   -7.89869E+001    1.09099E+002    2.69111E+004
            5173    3.33509E+006    3.39065E+006    3.39065E+006    1.23666E+005   -8.59496E+003    3.39925E+006   -1.16858E+006    3.32918E+006    3.39065E+006    1.06937E+005    8.13427E+003   -5.00326E+000    3.02023E+002    4.39631E+004
            5174    3.32660E+006    3.41905E+006    3.41905E+006    2.11136E+005   -1.47179E+004    3.43377E+006   -1.20516E+006    3.30928E+006    3.41905E+006    1.98051E+005   -1.63338E+003    1.12158E+002    1.40506E+002    5.27633E+004
            5175    3.31720E+006    3.45445E+006    3.45445E+006    3.10225E+005   -1.21808E+004    3.46663E+006   -1.25083E+006    3.28167E+006    3.45445E+006    3.03294E+005   -5.24903E+003    1.42380E+002    2.04030E+001    4.67631E+004
            5176    3.30934E+006    3.48935E+006    3.48935E+006    4.05132E+005   -6.57756E+003    3.49593E+006   -1.29597E+006    3.25097E+006    3.48935E+006    4.01798E+005   -3.24449E+003    9.18992E+001   -3.89671E+001    3.68937E+004
            5177    3.33453E+006    3.41180E+006    3.41180E+006    2.44039E+005   -6.76138E+004    3.47941E+006   -1.19607E+006    3.30152E+006    3.41180E+006    1.41148E+005    3.52767E+004    1.17227E+002   -4.31635E+002    1.46559E+005
            5178    3.33097E+006    3.43209E+006    3.43209E+006    3.06207E+005   -7.17370E+004    3.50383E+006   -1.22219E+006    3.28222E+006    3.43209E+006    2.30846E+005    3.62451E+003    5.09680E+001   -3.42566E+002    1.51007E+005
            5179    3.32375E+006    3.45684E+006    3.45684E+006    3.62451E+005   -5.65406E+004    3.51338E+006   -1.25425E+006    3.26354E+006    3.45684E+006    3.13733E+005   -7.82316E+003   -2.14272E+002   -1.31567E+002    1.34309E+005
            5180    3.31745E+006    3.48304E+006    3.48304E+006    4.20950E+005   -4.12898E+004    3.52433E+006   -1.28757E+006    3.24381E+006    3.48304E+006    3.95285E+005   -1.56251E+004   -2.88704E+002    1.47648E+002    1.05852E+005
            5181    3.33250E+006    3.47798E+006    3.47798E+006    4.68310E+005   -1.03389E+005    3.58137E+006   -1.28097E+006    3.21939E+006    3.47798E+006    4.04978E+005   -4.00573E+004    3.62158E+001   -7.31597E+001    1.79432E+005
            5182    3.33996E+006    3.45767E+006    3.45767E+006    4.37034E+005   -1.29224E+005    3.58690E+006   -1.25516E+006    3.22931E+006    3.45767E+006    3.23305E+005   -1.54946E+004   -2.61545E+001    6.17223E+001    2.26860E+005
            5183    3.34342E+006    3.43964E+006    3.43964E+006    3.98255E+005   -1.40414E+005    3.58005E+006   -1.23249E+006    3.24363E+006    3.43964E+006    2.34594E+005    2.32470E+004   -1.54645E+001    1.68465E+002    2.47738E+005
            5184    3.34765E+006    3.42170E+006    3.42170E+006    3.58049E+005   -1.51517E+005    3.57322E+006   -1.20941E+006    3.25868E+006    3.42170E+006    1.43528E+005    6.30038E+004   -1.30167E+001    1.90181E+002    2.51582E+005
            5185    3.30664E+006    3.51022E+006    3.51022E+006    4.65154E+005   -7.19052E+003    3.51741E+006   -1.32273E+006    3.22943E+006    3.51022E+006   -5.36519E+003    4.63329E+005    2.85246E+000   -6.28055E+001    2.93062E+004
            5186    3.31339E+006    3.50002E+006    3.50002E+006    4.60896E+005   -3.23299E+004    3.53235E+006   -1.30953E+006    3.22924E+006    3.50002E+006   -1.84548E+004    4.47021E+005   -9.48431E+001    2.95402E+002    8.15537E+004
            5187    3.32801E+006    3.49011E+006    3.49011E+006    4.88483E+005   -8.87616E+004    3.57887E+006   -1.29661E+006    3.21247E+006    3.49011E+006   -4.83937E+004    4.48116E+005    1.98507E+000   -1.93403E+000    1.47216E+005
            5188    3.30361E+006    3.53183E+006    3.53183E+006    5.24690E+005   -4.39831E+003    3.53623E+006   -1.35071E+006    3.20621E+006    3.53183E+006   -3.84593E+003    5.24137E+005   -2.23281E+001   -2.92905E+001    1.70866E+004
            5189    3.31003E+006    3.51867E+006    3.51867E+006    5.04367E+005   -2.36134E+004    3.54229E+006   -1.33314E+006    3.21324E+006    3.51867E+006   -1.90759E+004    4.99830E+005   -3.69536E+002    2.73998E+002    4.87349E+004
            5190    3.32090E+006    3.50849E+006    3.50849E+006    5.14729E+005   -6.35897E+004    3.57208E+006   -1.31988E+006    3.20466E+006    3.50849E+006   -5.04436E+004    5.01583E+005    1.93523E+002   -3.01702E+001    8.61963E+004
            5191    3.30252E+006    3.54298E+006    3.54298E+006    5.56277E+005   -3.74805E+003    3.54672E+006   -1.36517E+006    3.19306E+006    3.54298E+006   -3.68933E+003    5.56218E+005   -4.18011E+001   -3.37834E+000    5.73446E+003
            5192    3.30849E+006    3.52904E+006    3.52904E+006    5.29238E+005   -1.95220E+004    3.54856E+006   -1.34625E+006    3.20370E+006    3.52904E+006   -1.90824E+004    5.28798E+005   -5.86834E+002    1.10517E+002    1.55241E+004
            5193    3.31722E+006    3.51895E+006    3.51895E+006    5.30564E+005   -5.03623E+004    3.56931E+006   -1.33305E+006    3.19977E+006    3.51895E+006   -4.89408E+004    5.29142E+005    3.56552E+002    4.05338E+001    2.87014E+004
            5194    3.30868E+006    3.49632E+006    3.49632E+006    4.25507E+005   -7.57118E+003    3.50390E+006   -1.30475E+006    3.24400E+006    3.49632E+006    4.22603E+005   -4.66689E+003   -5.98896E+001   -1.44792E+000   -3.53462E+004
            5195    3.31631E+006    3.48768E+006    3.48768E+006    4.33626E+005   -3.99604E+004    3.52764E+006   -1.29378E+006    3.23892E+006    3.48768E+006    4.11162E+005   -1.74961E+004    2.31722E+002   -8.83131E+001   -1.00668E+005
            5196    3.33119E+006    3.48059E+006    3.48059E+006    4.73542E+005   -1.00208E+005    3.58080E+006   -1.28464E+006    3.21720E+006    3.48059E+006    4.14351E+005   -4.10167E+004   -4.83245E-001    8.15828E+001   -1.74520E+005
            5197    3.30497E+006    3.52237E+006    3.52237E+006    4.98834E+005   -5.94048E+003    3.52831E+006   -1.33842E+006    3.21652E+006    3.52237E+006    4.97753E+005   -4.85975E+003   -4.10967E+001    1.07742E+001   -2.33315E+004
            5198    3.31129E+006    3.51073E+006    3.51073E+006    4.85689E+005   -2.70076E+004    3.53773E+006   -1.32314E+006    3.22017E+006    3.51073E+006    4.77313E+005   -1.86313E+004    2.70557E+002    1.61281E+002   -6.49949E+004
            5199    3.32370E+006    3.50041E+006    3.50041E+006    5.02605E+005   -7.37806E+004    3.57419E+006   -1.30974E+006    3.20835E+006    3.50041E+006    4.78562E+005   -4.97376E+004   -9.20363E+001   -7.22804E+001   -1.15239E+005
            5200    3.30289E+006    3.53955E+006    3.53955E+006    5.46270E+005   -3.87338E+003    3.54342E+006   -1.36065E+006    3.19737E+006    3.53955E+006    5.46054E+005   -3.65751E+003   -5.12663E+000    1.88322E+001   -1.08956E+004
            5201    3.30893E+006    3.52539E+006    3.52539E+006    5.21087E+005   -2.11853E+004    3.54657E+006   -1.34176E+006    3.20667E+006    3.52539E+006    5.19348E+005   -1.94461E+004    1.34175E+002    3.88128E+002   -3.06603E+004
            5202    3.31790E+006    3.51540E+006    3.51540E+006    5.25205E+005   -5.39489E+004    3.56935E+006   -1.32889E+006    3.20121E+006    3.51540E+006    5.19976E+005   -4.87199E+004    4.08875E+000   -2.19365E+002   -5.47818E+004
            5203    3.30262E+006    3.54428E+006    3.54428E+006    5.60172E+005   -4.13450E+003    3.54842E+006   -1.36677E+006    3.19144E+006    3.54428E+006    5.60168E+005   -4.13091E+003   -7.48359E+000    6.05837E+001    1.42323E+003
            5204    3.30816E+006    3.53022E+006    3.53022E+006    5.32796E+005   -1.92126E+004    3.54944E+006   -1.34794E+006    3.20207E+006    3.53022E+006    5.32776E+005   -1.91926E+004    5.64786E+001    4.26860E+002    3.31690E+003
            5205    3.31658E+006    3.52011E+006    3.52011E+006    5.32538E+005   -4.86437E+004    3.56876E+006   -1.33467E+006    3.19899E+006    3.52011E+006    5.32529E+005   -4.86353E+004   -2.98725E+000   -1.89536E+002    2.20941E+003
            5206    3.30294E+006    3.53688E+006    3.53688E+006    5.38687E+005   -3.67748E+003    3.54056E+006   -1.35730E+006    3.20045E+006    3.53688E+006    5.38357E+005   -3.34671E+003   -3.35667E+000    1.90571E+001    1.33898E+004
            5207    3.30944E+006    3.52333E+006    3.52333E+006    5.15744E+005   -2.20901E+004    3.54542E+006   -1.33899E+006    3.20890E+006    3.52333E+006    5.13058E+005   -1.94045E+004   -9.33008E+001    4.83493E+002    3.79104E+004
            5208    3.31834E+006    3.51457E+006    3.51457E+006    5.23095E+005   -5.47417E+004    3.56931E+006   -1.32764E+006    3.20221E+006    3.51457E+006    5.17108E+005   -4.87540E+004    3.29333E+001   -2.81121E+002    5.85154E+004
            5209    3.30543E+006    3.51701E+006    3.51701E+006    4.84384E+005   -6.36432E+003    3.52337E+006   -1.33168E+006    3.22194E+006    3.51701E+006    4.83008E+005   -4.98855E+003    3.23460E+001   -3.34857E+000    2.59474E+004
            5210    3.31211E+006    3.50663E+006    3.50663E+006    4.75152E+005   -2.84339E+004    3.53506E+006   -1.31778E+006    3.22428E+006    3.50663E+006    4.64788E+005   -1.80704E+004   -2.16247E+002    3.66674E+002    7.14947E+004
            5211    3.32452E+006    3.49899E+006    3.49899E+006    4.99379E+005   -7.54682E+004    3.57445E+006   -1.30763E+006    3.20983E+006    3.49899E+006    4.73120E+005   -4.92093E+004    4.63848E+001   -1.82596E+002    1.20022E+005
            5212    3.32825E+006    3.49025E+006    3.49025E+006    4.88582E+005   -8.89882E+004    3.57923E+006   -1.29661E+006    3.21259E+006    3.49025E+006   -4.86805E+004    4.48274E+005    5.40230E+001   -8.18417E+000   -1.47159E+005
            5213    3.31337E+006    3.50035E+006    3.50035E+006    4.61160E+005   -3.19285E+004    3.53228E+006   -1.30986E+006    3.22927E+006    3.50035E+006   -1.82492E+004    4.47480E+005   -1.97527E+002   -3.44255E+002   -8.09813E+004
            5214    3.30651E+006    3.51052E+006    3.51052E+006    4.66184E+005   -7.15780E+003    3.51768E+006   -1.32318E+006    3.22897E+006    3.51052E+006   -5.36005E+003    4.64386E+005    3.13887E-001    6.97341E+001   -2.91155E+004
            5215    3.32104E+006    3.50873E+006    3.50873E+006    5.14860E+005   -6.35007E+004    3.57223E+006   -1.32003E+006    3.20478E+006    3.50873E+006   -5.05087E+004    5.01868E+005    2.95821E+002    3.23228E+001   -8.57044E+004
            5216    3.31015E+006    3.51879E+006    3.51879E+006    5.04192E+005   -2.35266E+004    3.54231E+006   -1.33315E+006    3.21347E+006    3.51879E+006   -1.89829E+004    4.99649E+005   -5.06117E+002   -2.52933E+002   -4.87555E+004
            5217    3.30345E+006    3.53196E+006    3.53196E+006    5.25086E+005   -4.16039E+003    3.53612E+006   -1.35096E+006    3.20598E+006    3.53196E+006   -3.61422E+003    5.24540E+005   -1.28368E+001    2.89297E+001   -1.69930E+004
            5218    3.31727E+006    3.51914E+006    3.51914E+006    5.30586E+005   -5.01498E+004    3.56929E+006   -1.33319E+006    3.19989E+006    3.51914E+006   -4.87958E+004    5.29232E+005    3.81229E+002   -1.02226E+000   -2.80074E+004
            5219    3.30849E+006    3.52908E+006    3.52908E+006    5.29081E+005   -1.93655E+004    3.54845E+006   -1.34627E+006    3.20382E+006    3.52908E+006   -1.88962E+004    5.28612E+005   -6.33643E+002   -4.84073E+001   -1.60354E+004
            5220    3.30248E+006    3.54296E+006    3.54296E+006    5.56301E+005   -3.73362E+003    3.54669E+006   -1.36517E+006    3.19301E+006    3.54296E+006   -3.67297E+003    5.56241E+005   -4.70032E+001    5.24844E+000   -5.82779E+003
            5221    3.34231E+006    3.36981E+006    3.36981E+006    6.19434E+004   -5.90435E+003    3.37571E+006   -1.14195E+006    3.34076E+006    3.36981E+006    5.47183E+003    5.05672E+004    3.70535E+001   -1.16889E+000   -2.53462E+004
            5222    3.33513E+006    3.38958E+006    3.38958E+006    1.20215E+005   -7.63564E+003    3.39721E+006   -1.16739E+006    3.32961E+006    3.38958E+006    2.09873E+003    1.10481E+005    4.38376E+000   -2.46150E+001   -3.39085E+004
            5223    3.32614E+006    3.41699E+006    3.41699E+006    1.98306E+005   -7.09234E+003    3.42408E+006   -1.20273E+006    3.31183E+006    3.41699E+006   -5.02840E+002    1.91716E+005    1.57374E+000   -2.86909E+001   -3.61946E+004
            5224    3.31723E+006    3.44967E+006    3.44967E+006    2.90247E+005   -5.57085E+003    3.45524E+006   -1.24478E+006    3.28736E+006    3.44967E+006   -1.74140E+003    2.86418E+005   -5.33095E+000   -3.57783E+001   -3.34389E+004
            5225    3.31019E+006    3.48262E+006    3.48262E+006    3.83411E+005   -4.38839E+003    3.48701E+006   -1.28722E+006    3.25850E+006    3.48262E+006   -2.53545E+003    3.81558E+005    2.48435E+000   -2.56608E+001   -2.67420E+004
            5226    3.33584E+006    3.39008E+006    3.39008E+006    1.42667E+005   -2.76471E+004    3.41773E+006   -1.16837E+006    3.32603E+006    3.39008E+006    3.04740E+004    8.45463E+004    3.34634E+000   -6.61191E-001   -8.07515E+004
            5227    3.33249E+006    3.40495E+006    3.40495E+006    1.96023E+005   -3.87057E+004    3.44365E+006   -1.18742E+006    3.31382E+006    3.40495E+006    1.76715E+004    1.39646E+005    8.54438E+001   -1.17850E+001   -1.00274E+005
            5228    3.32742E+006    3.42520E+006    3.42520E+006    2.53824E+005   -3.89060E+004    3.46411E+006   -1.21337E+006    3.29826E+006    3.42520E+006    6.44223E+003    2.08476E+005    9.91530E+001   -6.08834E+001   -1.05917E+005
            5229    3.32094E+006    3.44994E+006    3.44994E+006    3.17601E+005   -3.19491E+004    3.48189E+006   -1.24520E+006    3.27917E+006    3.44994E+006   -3.11004E+003    2.88762E+005    6.45792E+001   -7.04249E+001   -9.61718E+004
            5230    3.31401E+006    3.47800E+006    3.47800E+006    3.87009E+005   -2.11964E+004    3.49920E+006   -1.28127E+006    3.25672E+006    3.47800E+006   -6.19740E+003    3.72010E+005    5.00727E+001   -5.93319E+001   -7.67966E+004
            5231    3.33522E+006    3.40651E+006    3.40651E+006    2.18946E+005   -5.89587E+004    3.46547E+006   -1.18883E+006    3.30902E+006    3.40651E+006    7.32004E+004    8.67870E+004    1.79769E+002    7.62994E+001   -1.38786E+005
            5232    3.33534E+006    3.41728E+006    3.41728E+006    2.68548E+005   -7.76537E+004    3.49494E+006   -1.20273E+006    3.29455E+006    3.41728E+006    4.41399E+004    1.46754E+005    9.66123E+000   -4.84888E+001   -1.65322E+005
            5233    3.33301E+006    3.43112E+006    3.43112E+006    3.11828E+005   -8.08196E+004    3.51194E+006   -1.22071E+006    3.28037E+006    3.43112E+006    1.33978E+004    2.17610E+005   -1.52485E+002   -2.99339E+001   -1.67682E+005
            5234    3.32729E+006    3.45110E+006    3.45110E+006    3.56606E+005   -6.81793E+004    3.51928E+006   -1.24651E+006    3.26545E+006    3.45110E+006   -4.61998E+003    2.93046E+005   -1.41755E+002    7.52151E+001   -1.51523E+005
            5235    3.32044E+006    3.47432E+006    3.47432E+006    4.05810E+005   -5.07854E+004    3.52511E+006   -1.27645E+006    3.24868E+006    3.47432E+006   -1.55475E+004    3.70572E+005   -1.90829E+001    1.80799E+002   -1.21851E+005
            5236    3.33915E+006    3.42065E+006    3.42065E+006    3.11068E+005   -1.08419E+005    3.52907E+006   -1.20777E+006    3.27908E+006    3.42065E+006    1.30942E+005    7.17072E+004   -3.79975E+002   -3.35831E+002   -2.07642E+005
            5237    3.34218E+006    3.42384E+006    3.42384E+006    3.39993E+005   -1.27462E+005    3.55130E+006   -1.21212E+006    3.26742E+006    3.42384E+006    6.93414E+004    1.43190E+005   -4.30613E+002   -2.69477E+002   -2.30792E+005
            5238    3.33980E+006    3.43522E+006    3.43522E+006    3.68287E+005   -1.23031E+005    3.55825E+006   -1.22682E+006    3.25701E+006    3.43522E+006    2.64050E+004    2.18851E+005   -3.64291E+002   -6.58498E+001   -2.26030E+005
            5239    3.33564E+006    3.45089E+006    3.45089E+006    4.00338E+005   -1.10831E+005    3.56172E+006   -1.24680E+006    3.24577E+006    3.45089E+006   -8.17001E+003    2.97677E+005   -2.54204E+002    1.07293E+002   -2.04788E+005
            5240    3.32838E+006    3.47194E+006    3.47194E+006    4.34207E+005   -8.58681E+004    3.55780E+006   -1.27342E+006    3.23507E+006    3.47194E+006   -2.65828E+004    3.74921E+005   -6.62277E+001    2.38389E+002   -1.65282E+005
            5241    3.34140E+006    3.46570E+006    3.46570E+006    4.66546E+005   -1.35959E+005    3.60166E+006   -1.26543E+006    3.21576E+006    3.46570E+006   -3.64328E+004    3.67021E+005    4.47295E+001   -2.13050E+002   -2.23740E+005
            5242    3.34842E+006    3.44890E+006    3.44890E+006    4.43428E+005   -1.60325E+005    3.60922E+006   -1.24400E+006    3.22253E+006    3.44890E+006   -5.65144E+002    2.83667E+005    2.42694E+002   -6.52763E+001   -2.66331E+005
            5243    3.35239E+006    3.43682E+006    3.43682E+006    4.24033E+005   -1.74537E+005    3.61135E+006   -1.22877E+006    3.22886E+006    3.43682E+006    4.74992E+004    2.01997E+005    2.86470E+002   -9.59233E+000   -2.89143E+005
            5244    3.35201E+006    3.43030E+006    3.43030E+006    4.02325E+005   -1.71626E+005    3.60192E+006   -1.22033E+006    3.23868E+006    3.43030E+006    1.02322E+005    1.28377E+005    2.91196E+002    8.60066E+001   -2.86680E+005
            5245    3.35081E+006    3.42675E+006    3.42675E+006    3.87368E+005   -1.66476E+005    3.59323E+006   -1.21588E+006    3.24543E+006    3.42675E+006    1.63275E+005    5.76165E+004    8.95727E+001    1.30837E+002   -2.71836E+005
            5246    3.34509E+006    3.43938E+006    3.43938E+006    4.04057E+005   -1.47040E+005    3.58642E+006   -1.23213E+006    3.24059E+006    3.43938E+006    2.41690E+005    1.53262E+004   -3.14212E+001    1.62599E+002   -2.51231E+005
            5247    3.33838E+006    3.45993E+006    3.45993E+006    4.39974E+005   -1.24822E+005    3.58475E+006   -1.25836E+006    3.22826E+006    3.45993E+006    3.32885E+005   -1.77335E+004   -9.14095E+001    1.42293E+002   -2.21394E+005
            5248    3.32283E+006    3.46246E+006    3.46246E+006    3.77931E+005   -5.60221E+004    3.51849E+006   -1.26146E+006    3.25816E+006    3.46246E+006    3.33160E+005   -1.12513E+004    1.55547E+002   -2.76959E+002   -1.32000E+005
            5249    3.31552E+006    3.46323E+006    3.46323E+006    3.35500E+005   -1.26243E+004    3.47585E+006   -1.26203E+006    3.27403E+006    3.46323E+006    3.29025E+005   -6.15025E+003   -1.11791E+002    1.26231E+001   -4.70304E+004
            5250    3.32977E+006    3.43803E+006    3.43803E+006    3.24078E+005   -7.21156E+004    3.51014E+006   -1.23000E+006    3.27611E+006    3.43803E+006    2.47565E+005    4.39686E+003   -6.70128E+001   -3.88223E+002   -1.56396E+005
            5251    3.32311E+006    3.43078E+006    3.43078E+006    2.42009E+005   -1.20830E+004    3.44286E+006   -1.22024E+006    3.30115E+006    3.43078E+006    2.30639E+005   -7.12838E+002   -6.13966E+001    1.26402E+002   -5.25336E+004
            5252    3.33091E+006    3.40265E+006    3.40265E+006    1.61019E+005   -1.08694E+004    3.41352E+006   -1.18427E+006    3.32091E+006    3.40265E+006    1.45879E+005    4.27021E+003   -4.98961E+000    8.06177E+001   -4.87147E+004
            5253    3.33894E+006    3.37806E+006    3.37806E+006    8.56207E+004   -5.50862E+003    3.38357E+006   -1.15272E+006    3.33614E+006    3.37806E+006    6.94586E+004    1.06535E+004    6.49263E+000    1.29322E+001   -3.48085E+004
            5254    3.34566E+006    3.36052E+006    3.36052E+006    3.06970E+004   -7.49809E+002    3.36127E+006   -1.13016E+006    3.34533E+006    3.36052E+006    2.03710E+004    9.57615E+003    2.68962E+001    2.32356E+001   -1.47680E+004
            5255    3.34927E+006    3.35173E+006    3.35173E+006    4.89143E+003    2.77751E+001    3.35170E+006   -1.11888E+006    3.34926E+006    3.35173E+006    2.59737E+003    2.32183E+003    1.53503E+001   -3.92051E-001   -2.42792E+003
            5256    3.33318E+006    3.41664E+006    3.41664E+006    2.54222E+005   -6.44313E+004    3.48107E+006   -1.20214E+006    3.29865E+006    3.41664E+006    1.63974E+005    2.58175E+004   -3.75679E+001   -1.04739E+002   -1.43573E+005
            5257    3.33540E+006    3.39455E+006    3.39455E+006    1.61433E+005   -3.44944E+004    3.42904E+006   -1.17383E+006    3.32241E+006    3.39455E+006    8.56265E+004    4.13124E+004    4.20329E+001    1.20231E+002   -9.54253E+004
            5258    3.33948E+006    3.37703E+006    3.37703E+006    8.69577E+004   -9.77082E+003    3.38680E+006   -1.15140E+006    3.33633E+006    3.37703E+006    3.70026E+004    4.01843E+004    3.40883E+001    9.13373E-001   -4.83381E+004
            5259    3.34656E+006    3.35835E+006    3.35835E+006    2.47599E+004   -1.02687E+003    3.35938E+006   -1.12736E+006    3.34633E+006    3.35835E+006    7.86528E+003    1.58677E+004    8.73952E+000    1.26901E+001   -1.22568E+004
            5260    3.33604E+006    3.38828E+006    3.38828E+006    1.16910E+005   -8.87189E+003    3.39716E+006   -1.16544E+006    3.33070E+006    3.38828E+006    8.82590E+003    9.92122E+004   -2.80412E+002    1.04040E+001   -4.37361E+004
            5261    3.32797E+006    3.41528E+006    3.41528E+006    2.00175E+005   -1.50973E+004    3.43038E+006   -1.20012E+006    3.31225E+006    3.41528E+006   -7.18659E+002    1.85796E+005   -1.38579E+002    1.16038E+002   -5.37456E+004
            5262    3.31907E+006    3.44866E+006    3.44866E+006    2.94647E+005   -1.39081E+004    3.46257E+006   -1.24313E+006    3.28657E+006    3.44866E+006   -5.81046E+003    2.86549E+005   -4.94833E+001    1.49961E+002   -4.93255E+004
            5263    3.31100E+006    3.48263E+006    3.48263E+006    3.86624E+005   -7.98254E+003    3.49062E+006   -1.28709E+006    3.25746E+006    3.48263E+006   -3.93321E+003    3.82575E+005    1.62008E+001    1.21936E+002   -3.97680E+004
            5264    3.33454E+006    3.41094E+006    3.41094E+006    2.41505E+005   -6.72192E+004    3.47816E+006   -1.19508E+006    3.30215E+006    3.41094E+006    4.13403E+004    1.32945E+005    5.07935E+002    1.50516E+002   -1.47410E+005
            5265    3.33162E+006    3.42912E+006    3.42912E+006    3.00422E+005   -7.38115E+004    3.50294E+006   -1.21858E+006    3.28383E+006    3.42912E+006    8.24905E+003    2.18362E+005    5.64696E+002    1.00247E+002   -1.54841E+005
            5266    3.32508E+006    3.45172E+006    3.45172E+006    3.52972E+005   -6.09323E+004    3.51265E+006   -1.24792E+006    3.26636E+006    3.45172E+006   -5.88010E+003    2.97920E+005    4.67204E+002   -1.74400E+002   -1.40555E+005
            5267    3.31897E+006    3.47680E+006    3.47680E+006    4.08583E+005   -4.60601E+004    3.52286E+006   -1.27977E+006    3.24781E+006    3.47680E+006   -1.51922E+004    3.77715E+005    1.49548E+002   -3.30488E+002   -1.14372E+005
            5268    3.33578E+006    3.46978E+006    3.46978E+006    4.58716E+005   -1.16030E+005    3.58581E+006   -1.27082E+006    3.22155E+006    3.46978E+006   -3.37438E+004    3.76430E+005   -1.29656E+002    2.76638E+001   -2.01303E+005
            5269    3.34206E+006    3.45205E+006    3.45205E+006    4.30701E+005   -1.37785E+005    3.58984E+006   -1.24832E+006    3.23058E+006    3.45205E+006   -4.07370E+003    2.96990E+005   -3.09233E+002   -1.96129E+001   -2.41111E+005
            5270    3.34411E+006    3.43684E+006    3.43684E+006    3.94172E+005   -1.43546E+005    3.58038E+006   -1.22915E+006    3.24470E+006    3.43684E+006    3.85224E+004    2.12103E+005   -3.78960E+002    5.41639E+001   -2.54465E+005
            5271    3.34761E+006    3.42110E+006    3.42110E+006    3.56472E+005   -1.51442E+005    3.57254E+006   -1.20871E+006    3.25923E+006    3.42110E+006    7.87560E+004    1.26274E+005   -3.13362E+002    8.83313E+001   -2.52843E+005
            5272    3.34759E+006    3.42184E+006    3.42184E+006    3.58232E+005   -1.51309E+005    3.57315E+006   -1.20959E+006    3.25863E+006    3.42184E+006    1.43305E+005    6.36174E+004   -8.97203E+000   -1.76552E+002   -2.51636E+005
            5273    3.34340E+006    3.43963E+006    3.43963E+006    3.98441E+005   -1.40506E+005    3.58014E+006   -1.23252E+006    3.24351E+006    3.43963E+006    2.35015E+005    2.29203E+004   -5.42919E+000   -1.36622E+002   -2.47730E+005
            5274    3.33985E+006    3.45766E+006    3.45766E+006    4.36873E+005   -1.28965E+005    3.58662E+006   -1.25519E+006    3.22936E+006    3.45766E+006    3.23689E+005   -1.57810E+004   -9.02244E+000   -8.23208E+001   -2.26348E+005
            5275    3.33233E+006    3.47771E+006    3.47771E+006    4.67786E+005   -1.03229E+005    3.58094E+006   -1.28076E+006    3.21949E+006    3.47771E+006    4.04512E+005   -3.99551E+004    4.99829E+001    4.08915E+001   -1.79240E+005
            5276    3.31754E+006    3.48296E+006    3.48296E+006    4.21438E+005   -4.18828E+004    3.52484E+006   -1.28751E+006    3.24355E+006    3.48296E+006    3.95659E+005   -1.61037E+004   -2.58530E+002   -6.69649E+001   -1.06205E+005
            5277    3.30959E+006    3.48887E+006    3.48887E+006    4.04122E+005   -7.13195E+003    3.49600E+006   -1.29529E+006    3.25136E+006    3.48887E+006    4.00696E+005   -3.70538E+003    9.50545E+001    2.37535E+001   -3.73825E+004
            5278    3.32383E+006    3.45667E+006    3.45667E+006    3.62338E+005   -5.68758E+004    3.51355E+006   -1.25405E+006    3.26356E+006    3.45667E+006    3.13220E+005   -7.75785E+003   -1.69836E+002    1.81707E+002   -1.34827E+005
            5279    3.31719E+006    3.45475E+006    3.45475E+006    3.10978E+005   -1.21984E+004    3.46695E+006   -1.25118E+006    3.28149E+006    3.45475E+006    3.03933E+005   -5.15301E+003    1.34973E+002   -3.85546E+001   -4.71940E+004
            5280    3.33102E+006    3.43213E+006    3.43213E+006    3.06198E+005   -7.17466E+004    3.50388E+006   -1.22219E+006    3.28226E+006    3.43213E+006    2.30341E+005    4.11044E+003    7.33859E+001    3.34915E+002   -1.51379E+005
            5281    3.32640E+006    3.41977E+006    3.41977E+006    2.13185E+005   -1.47119E+004    3.43449E+006   -1.20608E+006    3.30876E+006    3.41977E+006    2.00114E+005   -1.64160E+003    1.02239E+002   -1.42705E+002   -5.29890E+004
            5282    3.33452E+006    3.41186E+006    3.41186E+006    2.44137E+005   -6.75669E+004    3.47943E+006   -1.19614E+006    3.30151E+006    3.41186E+006    1.41112E+005    3.54578E+004    1.14262E+002    4.27065E+002   -1.46626E+005
            5283    3.33492E+006    3.39115E+006    3.39115E+006    1.25008E+005   -8.53932E+003    3.39969E+006   -1.16920E+006    3.32889E+006    3.39115E+006    1.08266E+005    8.20240E+003   -8.41060E+000   -3.04136E+002   -4.42212E+004
            5284    3.34244E+006    3.36895E+006    3.36895E+006    5.90687E+004   -5.13676E+003    3.37408E+006   -1.14096E+006    3.34106E+006    3.36895E+006    4.44199E+004    9.51201E+003   -8.82708E+001   -1.14518E+002   -2.69433E+004
            5285    3.34736E+006    3.35621E+006    3.35621E+006    1.77358E+004    4.79115E+001    3.35617E+006   -1.12467E+006    3.34725E+006    3.35621E+006    9.31961E+003    8.46412E+003   -2.91690E+000    8.95621E+000   -8.83360E+003
            5286    3.33570E+006    3.39456E+006    3.39456E+006    1.61154E+005   -3.47964E+004    3.42935E+006   -1.17364E+006    3.32271E+006    3.39456E+006    6.51676E+004    6.11905E+004    3.88470E+001    3.36683E+001   -9.79552E+004
            5287    3.34293E+006    3.36774E+006    3.36774E+006    5.59881E+004   -5.51787E+003    3.37326E+006   -1.13940E+006    3.34166E+006    3.36774E+006    9.96467E+003    4.05056E+004   -9.98313E+001   -6.52962E+001   -2.66938E+004
            5288    3.33133E+006    3.48731E+006    3.48731E+006    4.92605E+005   -1.00873E+005    3.58818E+006   -1.29301E+006    3.20914E+006    3.48731E+006   -5.24999E+004    4.44232E+005   -2.42537E+002   -2.52569E+002   -1.62383E+005
            5289    3.32139E+006    3.49395E+006    3.49395E+006    4.71465E+005   -6.18183E+004    3.55577E+006   -1.30120E+006    3.22296E+006    3.49395E+006   -3.39754E+004    4.43622E+005    1.40805E+002    2.44885E+002   -1.18629E+005
            5290    3.31403E+006    3.49806E+006    3.49806E+006    4.57167E+005   -3.42405E+004    3.53230E+006   -1.30699E+006    3.23054E+006    3.49806E+006   -1.82798E+004    4.41206E+005    1.62757E+002    2.05465E+002   -8.71116E+004
            5291    3.30895E+006    3.50409E+006    3.50409E+006    4.54648E+005   -1.43194E+004    3.51841E+006   -1.31481E+006    3.23291E+006    3.50409E+006   -7.92962E+003    4.48258E+005    5.52410E+001   -2.68887E+001   -5.43669E+004
            5292    3.30531E+006    3.51253E+006    3.51253E+006    4.67152E+005   -2.48457E+003    3.51501E+006   -1.32573E+006    3.22897E+006    3.51253E+006   -1.72323E+003    4.66391E+005    2.34153E+001   -8.01126E+000   -1.88937E+004
            5293    3.32302E+006    3.50632E+006    3.50632E+006    5.17670E+005   -7.21057E+004    3.57842E+006   -1.31729E+006    3.20208E+006    3.50632E+006   -5.63774E+004    5.01942E+005   -4.19559E+002   -1.64730E+002   -9.50198E+004
            5294    3.31627E+006    3.51216E+006    3.51216E+006    5.05147E+005   -4.46498E+004    3.55681E+006   -1.32422E+006    3.21133E+006    3.51216E+006   -3.55755E+004    4.96073E+005    2.96214E+002    1.68303E+002   -7.00477E+004
            5295    3.31016E+006    3.51680E+006    3.51680E+006    5.01465E+005   -2.50658E+004    3.54186E+006   -1.33107E+006    3.21391E+006    3.51680E+006   -1.99244E+004    4.96324E+005    3.05832E+002    1.59054E+002   -5.17751E+004
            5296    3.30585E+006    3.52443E+006    3.52443E+006    5.08215E+005   -9.87929E+003    3.53431E+006   -1.34092E+006    3.21260E+006    3.52443E+006   -7.82948E+003    5.06165E+005    8.90148E+001    1.73746E+000   -3.25237E+004
            5297    3.30301E+006    3.53396E+006    3.53396E+006    5.28151E+005   -2.10210E+003    3.53606E+006   -1.35334E+006    3.20515E+006    3.53396E+006   -1.86097E+003    5.27910E+005    4.66220E+001   -1.05766E+000   -1.13050E+004
            5298    3.31860E+006    3.51696E+006    3.51696E+006    5.32286E+005   -5.67000E+004    3.57366E+006   -1.33085E+006    3.19783E+006    3.51696E+006   -5.51836E+004    5.30769E+005   -5.28221E+002   -5.58738E+001   -2.98461E+004
            5299    3.31383E+006    3.52229E+006    3.52229E+006    5.25371E+005   -3.65901E+004    3.55888E+006   -1.33702E+006    3.20399E+006    3.52229E+006   -3.56484E+004    5.24429E+005    3.57691E+002    6.65964E+001   -2.29850E+004
            5300    3.30804E+006    3.52742E+006    3.52742E+006    5.26304E+005   -1.96179E+004    3.54704E+006   -1.34470E+006    3.20434E+006    3.52742E+006   -1.90911E+004    5.25777E+005    3.95949E+002    6.10319E+001   -1.69504E+004
            5301    3.30458E+006    3.53536E+006    3.53536E+006    5.37696E+005   -8.15843E+003    3.54352E+006   -1.35497E+006    3.20079E+006    3.53536E+006   -7.94690E+003    5.37485E+005    1.13983E+002    4.36132E+000   -1.07434E+004
            5302    3.30204E+006    3.54557E+006    3.54557E+006    5.60852E+005   -1.54233E+003    3.54712E+006   -1.36829E+006    3.19161E+006    3.54557E+006   -1.51639E+003    5.60826E+005    6.10478E+001    2.37636E+000   -3.81912E+003
            5303    3.33144E+006    3.48059E+006    3.48059E+006    4.73729E+005   -1.00720E+005    3.58131E+006   -1.28453E+006    3.21717E+006    3.48059E+006    4.14266E+005   -4.12565E+004   -2.19540E+001   -3.00713E+001    1.74994E+005
            5304    3.31620E+006    3.48812E+006    3.48812E+006    4.34156E+005   -3.94152E+004    3.52753E+006   -1.29429E+006    3.23882E+006    3.48812E+006    4.12044E+005   -1.73026E+004    2.85714E+002    1.61591E+000    9.99145E+004
            5305    3.30848E+006    3.49694E+006    3.49694E+006    4.27275E+005   -7.39322E+003    3.50433E+006   -1.30561E+006    3.24331E+006    3.49694E+006    4.24428E+005   -4.54597E+003   -6.56139E+001    1.36113E+001    3.50643E+004
            5306    3.32382E+006    3.50054E+006    3.50054E+006    5.02692E+005   -7.38245E+004    3.57436E+006   -1.30980E+006    3.20842E+006    3.50054E+006    4.78696E+005   -4.98279E+004   -6.34688E+001    1.19387E+002    1.15146E+005
            5307    3.31134E+006    3.51092E+006    3.51092E+006    4.85933E+005   -2.69195E+004    3.53784E+006   -1.32331E+006    3.22017E+006    3.51092E+006    4.77605E+005   -1.85909E+004    2.66071E+002   -2.60676E+002    6.48227E+004
            5308    3.30483E+006    3.52280E+006    3.52280E+006    5.00131E+005   -5.83171E+003    3.52863E+006   -1.33903E+006    3.21596E+006    3.52280E+006    4.99075E+005   -4.77584E+003   -3.08651E+001   -4.29916E+000    2.30893E+004
            5309    3.31811E+006    3.51550E+006    3.51550E+006    5.25431E+005   -5.42559E+004    3.56976E+006   -1.32889E+006    3.20120E+006    3.51550E+006    5.20304E+005   -4.91289E+004   -2.23098E+001    2.27721E+002    5.42745E+004
            5310    3.30903E+006    3.52542E+006    3.52542E+006    5.21194E+005   -2.13521E+004    3.54677E+006   -1.34175E+006    3.20666E+006    3.52542E+006    5.19466E+005   -1.96239E+004    1.21186E+002   -4.30025E+002    3.05714E+004
            5311    3.30284E+006    3.53970E+006    3.53970E+006    5.46733E+005   -3.81815E+003    3.54352E+006   -1.36087E+006    3.19715E+006    3.53970E+006    5.46524E+005   -3.60945E+003   -6.98768E+000   -3.32754E+001    1.07173E+004
            5312    3.31653E+006    3.52009E+006    3.52009E+006    5.32301E+005   -4.84688E+004    3.56855E+006   -1.33464E+006    3.19911E+006    3.52009E+006    5.32285E+005   -4.84530E+004   -1.15539E+001    2.44842E+002   -3.02600E+003
            5313    3.30817E+006    3.53025E+006    3.53025E+006    5.32569E+005   -1.90476E+004    3.54930E+006   -1.34792E+006    3.20224E+006    3.53025E+006    5.32548E+005   -1.90260E+004    1.98343E+001   -4.66966E+002   -3.45322E+003
            5314    3.30257E+006    3.54424E+006    3.54424E+006    5.60035E+005   -4.04339E+003    3.54828E+006   -1.36674E+006    3.19148E+006    3.54424E+006    5.60031E+005   -4.03950E+003   -8.64110E+000   -5.53299E+001   -1.47971E+003
            5315    3.31843E+006    3.51442E+006    3.51442E+006    5.23138E+005   -5.51501E+004    3.56957E+006   -1.32747E+006    3.20211E+006    3.51442E+006    5.16914E+005   -4.89260E+004    2.32926E+001    2.52986E+002   -5.96702E+004
            5316    3.30944E+006    3.52314E+006    3.52314E+006    5.15387E+005   -2.21802E+004    3.54532E+006   -1.33878E+006    3.20900E+006    3.52314E+006    5.12694E+005   -1.94875E+004   -1.30212E+002   -4.44706E+002   -3.79502E+004
            5317    3.30299E+006    3.53662E+006    3.53662E+006    5.37911E+005   -3.71255E+003    3.54033E+006   -1.35694E+006    3.20079E+006    3.53662E+006    5.37579E+005   -3.37996E+003    3.35085E-001   -2.27991E+001   -1.34175E+004
            5318    3.32448E+006    3.49865E+006    3.49865E+006    4.99022E+005   -7.57221E+004    3.57438E+006   -1.30732E+006    3.20983E+006    3.49865E+006    4.72490E+005   -4.91909E+004    2.43469E+001    1.47007E+002   -1.20602E+005
            5319    3.31213E+006    3.50654E+006    3.50654E+006    4.75433E+005   -2.87894E+004    3.53533E+006   -1.31773E+006    3.22408E+006    3.50654E+006    4.65005E+005   -1.83615E+004   -2.19635E+002   -2.89049E+002   -7.17582E+004
            5320    3.30558E+006    3.51653E+006    3.51653E+006    4.83015E+005   -6.50468E+003    3.52304E+006   -1.33101E+006    3.22251E+006    3.51653E+006    4.81619E+005   -5.10888E+003    3.78289E+001    3.19055E-001   -2.61022E+004
            5321    3.30541E+006    3.51226E+006    3.51226E+006    4.66610E+005   -2.74120E+003    3.51500E+006   -1.32538E+006    3.22917E+006    3.51226E+006   -1.97631E+003    4.65846E+005    1.86153E+001    9.08445E+000    1.89319E+004
            5322    3.30895E+006    3.50407E+006    3.50407E+006    4.54632E+005   -1.43369E+004    3.51841E+006   -1.31479E+006    3.23291E+006    3.50407E+006   -7.90216E+003    4.48197E+005    5.70665E+001    2.39081E+001    5.45553E+004
            5323    3.31415E+006    3.49806E+006    3.49806E+006    4.57537E+005   -3.46629E+004    3.53273E+006   -1.30698E+006    3.23039E+006    3.49806E+006   -1.86370E+004    4.41511E+005    1.30915E+002   -2.16104E+002    8.73563E+004
            5324    3.32139E+006    3.49386E+006    3.49386E+006    4.72125E+005   -6.23561E+004    3.55622E+006   -1.30121E+006    3.22250E+006    3.49386E+006   -3.43967E+004    4.44166E+005    9.38117E+001   -2.51460E+002    1.19005E+005
            5325    3.33129E+006    3.48743E+006    3.48743E+006    4.92901E+005   -1.00784E+005    3.58821E+006   -1.29318E+006    3.20901E+006    3.48743E+006   -5.25566E+004    4.44674E+005   -1.67862E+002    2.13827E+002    1.62192E+005
            5326    3.30296E+006    3.53403E+006    3.53403E+006    5.28135E+005   -1.89434E+003    3.53593E+006   -1.35342E+006    3.20518E+006    3.53403E+006   -1.65792E+003    5.27899E+005    4.45633E+001   -9.12815E-001    1.11918E+004
            5327    3.30584E+006    3.52447E+006    3.52447E+006    5.08320E+005   -9.84795E+003    3.53432E+006   -1.34098E+006    3.21256E+006    3.52447E+006   -7.83388E+003    5.06306E+005    8.69300E+001   -2.69242E-001    3.22424E+004
            5328    3.31012E+006    3.51682E+006    3.51682E+006    5.01300E+005   -2.48622E+004    3.54169E+006   -1.33109E+006    3.21401E+006    3.51682E+006   -1.97430E+004    4.96181E+005    3.01887E+002   -1.74189E+002    5.16460E+004
            5329    3.31637E+006    3.51213E+006    3.51213E+006    5.05391E+005   -4.49989E+004    3.55713E+006   -1.32417E+006    3.21119E+006    3.51213E+006   -3.59548E+004    4.96347E+005    2.68978E+002   -1.95409E+002    6.99714E+004
            5330    3.32317E+006    3.50622E+006    3.50622E+006    5.17953E+005   -7.26553E+004    3.57887E+006   -1.31717E+006    3.20188E+006    3.50622E+006   -5.68480E+004    5.02145E+005   -4.44325E+002    1.89140E+002    9.53204E+004
            5331    3.30207E+006    3.54554E+006    3.54554E+006    5.60888E+005   -1.67187E+003    3.54721E+006   -1.36825E+006    3.19157E+006    3.54554E+006   -1.64629E+003    5.60863E+005    6.20900E+001   -3.36528E+000    3.79314E+003
            5332    3.30452E+006    3.53545E+006    3.53545E+006    5.37691E+005   -7.93069E+003    3.54338E+006   -1.35507E+006    3.20082E+006    3.53545E+006   -7.71811E+003    5.37478E+005    1.09918E+002   -4.84459E+000    1.07676E+004
            5333    3.30803E+006    3.52745E+006    3.52745E+006    5.26368E+005   -1.96019E+004    3.54705E+006   -1.34474E+006    3.20431E+006    3.52745E+006   -1.90769E+004    5.25843E+005    4.01446E+002   -6.13501E+001    1.69220E+004
            5334    3.31379E+006    3.52240E+006    3.52240E+006    5.25157E+005   -3.62231E+004    3.55862E+006   -1.33711E+006    3.20418E+006    3.52240E+006   -3.52940E+004    5.24228E+005    3.72381E+002   -5.91986E+001    2.28190E+004
            5335    3.31845E+006    3.51693E+006    3.51693E+006    5.31882E+005   -5.62713E+004    3.57320E+006   -1.33085E+006    3.19802E+006    3.51693E+006   -5.47380E+004    5.30349E+005   -5.93003E+002    5.92080E+001    2.99904E+004
            5336    3.35081E+006    3.42668E+006    3.42668E+006    3.87134E+005   -1.66450E+005    3.59313E+006   -1.21579E+006    3.24553E+006    3.42668E+006    1.62923E+005    5.77605E+004    7.91205E+001   -1.56424E+002    2.71752E+005
            5337    3.35200E+006    3.43016E+006    3.43016E+006    4.02118E+005   -1.71724E+005    3.60188E+006   -1.22018E+006    3.23872E+006    3.43016E+006    1.02006E+005    1.28388E+005    2.42703E+002   -8.92606E+001    2.86618E+005
            5338    3.35236E+006    3.43685E+006    3.43685E+006    4.24036E+005   -1.74445E+005    3.61129E+006   -1.22881E+006    3.22887E+006    3.43685E+006    4.68457E+004    2.02746E+005    2.58996E+002    2.12980E+000    2.88910E+005
            5339    3.34833E+006    3.44886E+006    3.44886E+006    4.43241E+005   -1.60131E+005    3.60899E+006   -1.24399E+006    3.22260E+006    3.44886E+006   -1.29274E+003    2.84403E+005    2.39577E+002    7.66432E+001    2.65724E+005
            5340    3.34115E+006    3.46583E+006    3.46583E+006    4.66481E+005   -1.35330E+005    3.60116E+006   -1.26566E+006    3.21580E+006    3.46583E+006   -3.65402E+004    3.67691E+005    7.11859E+001    1.97222E+002    2.22920E+005
            5341    3.32835E+006    3.47170E+006    3.47170E+006    4.34140E+005   -8.61522E+004    3.55786E+006   -1.27323E+006    3.23496E+006    3.47170E+006   -2.65697E+004    3.74557E+005   -1.00404E+002   -2.09614E+002    1.65681E+005
            5342    3.32061E+006    3.47414E+006    3.47414E+006    4.05970E+005   -5.14807E+004    3.52562E+006   -1.27621E+006    3.24858E+006    3.47414E+006   -1.57156E+004    3.70205E+005   -4.94219E+001   -1.68207E+002    1.22807E+005
            5343    3.31414E+006    3.47782E+006    3.47782E+006    3.87082E+005   -2.17791E+004    3.49960E+006   -1.28104E+006    3.25667E+006    3.47782E+006   -6.52008E+003    3.71823E+005    4.80233E+001    5.51315E+001    7.74984E+004
            5344    3.31019E+006    3.48264E+006    3.48264E+006    3.83322E+005   -4.29911E+003    3.48694E+006   -1.28722E+006    3.25854E+006    3.48264E+006   -2.41921E+003    3.81442E+005    7.19639E-002    2.81744E+001    2.69287E+004
            5345    3.33573E+006    3.45047E+006    3.45047E+006    3.99580E+005   -1.11186E+005    3.56166E+006   -1.24629E+006    3.24600E+006    3.45047E+006   -7.66071E+003    2.96055E+005   -2.67259E+002   -6.26411E+001    2.05328E+005
            5346    3.32744E+006    3.45084E+006    3.45084E+006    3.56406E+005   -6.87357E+004    3.51958E+006   -1.24617E+006    3.26550E+006    3.45084E+006   -4.36067E+003    2.92031E+005   -1.42626E+002   -5.65576E+001    1.52396E+005
            5347    3.32097E+006    3.44996E+006    3.44996E+006    3.17847E+005   -3.21474E+004    3.48211E+006   -1.24522E+006    3.27909E+006    3.44996E+006   -2.88167E+003    2.88581E+005    6.01962E+001    6.93127E+001    9.68833E+004
            5348    3.31730E+006    3.44965E+006    3.44965E+006    2.90549E+005   -5.95509E+003    3.45560E+006   -1.24475E+006    3.28729E+006    3.44965E+006   -2.04740E+003    2.86642E+005   -3.75277E+000    3.68193E+001    3.38138E+004
            5349    3.34002E+006    3.43484E+006    3.43484E+006    3.67684E+005   -1.23617E+005    3.55845E+006   -1.22630E+006    3.25723E+006    3.43484E+006    2.75048E+004    2.16562E+005   -3.61861E+002    9.55090E+001    2.26734E+005
            5350    3.33318E+006    3.43085E+006    3.43085E+006    3.11685E+005   -8.14801E+004    3.51233E+006   -1.22035E+006    3.28041E+006    3.43085E+006    1.42028E+004    2.16002E+005   -1.35277E+002    3.78818E+001    1.68713E+005
            5351    3.32743E+006    3.42548E+006    3.42548E+006    2.55161E+005   -3.94656E+004    3.46494E+006   -1.21372E+006    3.29789E+006    3.42548E+006    6.30062E+003    2.09394E+005    9.96544E+001    5.83361E+001    1.06721E+005
            5352    3.32598E+006    3.41761E+006    3.41761E+006    2.00157E+005   -7.19113E+003    3.42480E+006   -1.20353E+006    3.31139E+006    3.41761E+006   -4.37985E+002    1.93404E+005    3.99128E+000    2.76424E+001    3.68056E+004
            5353    3.34229E+006    3.42369E+006    3.42369E+006    3.39552E+005   -1.27594E+005    3.55128E+006   -1.21188E+006    3.26763E+006    3.42369E+006    6.98799E+004    1.42079E+005   -4.22067E+002    2.80181E+002    2.30766E+005
            5354    3.33539E+006    3.41732E+006    3.41732E+006    2.68979E+005   -7.79896E+004    3.49531E+006   -1.20277E+006    3.29442E+006    3.41732E+006    4.45597E+004    1.46430E+005    3.08905E+001    4.54867E+001    1.65839E+005
            5355    3.33244E+006    3.40536E+006    3.40536E+006    1.97604E+005   -3.91289E+004    3.44449E+006   -1.18795E+006    3.31344E+006    3.40536E+006    1.82128E+004    1.40263E+005    8.49026E+001    7.62862E+000    1.01423E+005
            5356    3.33479E+006    3.39049E+006    3.39049E+006    1.22545E+005   -7.35354E+003    3.39785E+006   -1.16856E+006    3.32910E+006    3.39049E+006    2.35037E+003    1.12841E+005    9.60359E+000    2.16555E+001    3.41520E+004
            5357    3.33921E+006    3.42061E+006    3.42061E+006    3.11144E+005   -1.08643E+005    3.52925E+006   -1.20770E+006    3.27905E+006    3.42061E+006    1.31045E+005    7.14569E+004   -3.85694E+002    3.33363E+002    2.07768E+005
            5358    3.33519E+006    3.40640E+006    3.40640E+006    2.18118E+005   -5.84694E+004    3.46487E+006   -1.18868E+006    3.30924E+006    3.40640E+006    7.25403E+004    8.71087E+004    1.97884E+002   -8.31257E+001    1.38102E+005
            5359    3.33582E+006    3.39011E+006    3.39011E+006    1.42757E+005   -2.76526E+004    3.41776E+006   -1.16840E+006    3.32601E+006    3.39011E+006    3.02289E+004    8.48757E+004   -1.34357E+000   -6.34867E+000    8.07051E+004
            5360    3.34220E+006    3.37017E+006    3.37017E+006    6.35023E+004   -6.46682E+003    3.37663E+006   -1.14240E+006    3.34055E+006    3.37017E+006    5.00391E+003    5.20315E+004    4.15447E+001   -3.26401E+000    2.59040E+004
            5361    3.34640E+006    3.35873E+006    3.35873E+006    2.58039E+004   -9.88724E+002    3.35972E+006   -1.12785E+006    3.34616E+006    3.35873E+006    8.35302E+003    1.64622E+004    9.90058E+000   -1.94529E+001    1.27680E+004
            5362    3.34927E+006    3.35172E+006    3.35172E+006    4.86050E+003    3.14166E+001    3.35168E+006   -1.11887E+006    3.34926E+006    3.35172E+006    2.56863E+003    2.32329E+003    1.32288E+001   -1.68872E+000    2.41143E+003
            5363    3.33949E+006    3.37696E+006    3.37696E+006    8.65571E+004   -9.55644E+003    3.38651E+006   -1.15132E+006    3.33638E+006    3.37696E+006    3.66907E+004    4.03100E+004    3.28815E+001   -3.16210E+000    4.80227E+004
            5364    3.34560E+006    3.36068E+006    3.36068E+006    3.11180E+004   -7.31479E+002    3.36141E+006   -1.13036E+006    3.34526E+006    3.36068E+006    2.04240E+004    9.96259E+003    2.31628E+001   -2.67029E+001    1.50412E+004
            5365    3.33545E+006    3.39433E+006    3.39433E+006    1.60617E+005   -3.42943E+004    3.42863E+006   -1.17355E+006    3.32260E+006    3.39433E+006    8.51269E+004    4.11956E+004    4.22705E+001   -1.28964E+002    9.49479E+004
            5366    3.33898E+006    3.37799E+006    3.37799E+006    8.58020E+004   -5.88488E+003    3.38388E+006   -1.15264E+006    3.33614E+006    3.37799E+006    6.96920E+004    1.02251E+004   -2.08416E+000   -1.35792E+001    3.48933E+004
            5367    3.33316E+006    3.41667E+006    3.41667E+006    2.54354E+005   -6.44281E+004    3.48110E+006   -1.20220E+006    3.29860E+006    3.41667E+006    1.63969E+005    2.59577E+004   -4.12141E+001    1.13636E+002    1.43680E+005
            5368    3.33085E+006    3.40274E+006    3.40274E+006    1.60987E+005   -1.05790E+004    3.41332E+006   -1.18438E+006    3.32089E+006    3.40274E+006    1.45968E+005    4.43995E+003   -1.38374E+001   -8.21891E+001    4.84889E+004
            5369    3.32302E+006    3.43113E+006    3.43113E+006    2.42916E+005   -1.20126E+004    3.44314E+006   -1.22068E+006    3.30091E+006    3.43113E+006    2.31606E+005   -7.02872E+002   -7.39210E+001   -1.21574E+002    5.24907E+004
            5370    3.31538E+006    3.46388E+006    3.46388E+006    3.37436E+005   -1.26602E+004    3.47654E+006   -1.26288E+006    3.27341E+006    3.46388E+006    3.31046E+005   -6.27082E+003   -1.18283E+002   -1.00155E+001    4.68621E+004
            5371    3.32962E+006    3.43826E+006    3.43826E+006    3.24547E+005   -7.18057E+004    3.51006E+006   -1.23033E+006    3.27592E+006    3.43826E+006    2.48346E+005    4.39545E+003   -4.40834E+001    4.06951E+002    1.56192E+005
            5372    3.32268E+006    3.46280E+006    3.46280E+006    3.78562E+005   -5.56271E+004    3.51843E+006   -1.26191E+006    3.25794E+006    3.46280E+006    3.34433E+005   -1.14978E+004    2.01555E+002    2.77000E+002    1.31199E+005
            5373    3.33853E+006    3.45997E+006    3.45997E+006    4.40226E+005   -1.25156E+005    3.58512E+006   -1.25835E+006    3.22818E+006    3.45997E+006    3.32388E+005   -1.73180E+004   -4.96182E+001   -1.73055E+002    2.22127E+005
            5374    3.34510E+006    3.43933E+006    3.43933E+006    4.04175E+005   -1.47195E+005    3.58653E+006   -1.23210E+006    3.24049E+006    3.43933E+006    2.41102E+005    1.58777E+004   -3.91273E+001   -1.88032E+002    2.51636E+005
            5375    3.34777E+006    3.42177E+006    3.42177E+006    3.57079E+005   -1.50997E+005    3.57277E+006   -1.20929E+006    3.25934E+006    3.42177E+006    7.98119E+004    1.26271E+005    2.34117E+002   -1.83040E+001    2.52974E+005
            5376    3.34479E+006    3.43770E+006    3.43770E+006    3.94678E+005   -1.43566E+005    3.58127E+006   -1.22960E+006    3.24520E+006    3.43770E+006    3.86734E+004    2.12438E+005    2.90794E+002    7.03872E+001    2.54712E+005
            5377    3.34222E+006    3.45225E+006    3.45225E+006    4.30549E+005   -1.37637E+005    3.58989E+006   -1.24839E+006    3.23087E+006    3.45225E+006   -4.10710E+003    2.97019E+005    2.38570E+002    1.91351E+002    2.40915E+005
            5378    3.33584E+006    3.46985E+006    3.46985E+006    4.58386E+005   -1.15811E+005    3.58566E+006   -1.27081E+006    3.22183E+006    3.46985E+006   -3.36591E+004    3.76234E+005    1.21429E+002    2.97123E+002    2.01054E+005
            5379    3.31918E+006    3.47634E+006    3.47634E+006    4.08062E+005   -4.68305E+004    3.52317E+006   -1.27919E+006    3.24794E+006    3.47634E+006   -1.55684E+004    3.76800E+005   -4.91319E+001    1.48862E+001    1.15081E+005
            5380    3.31090E+006    3.48170E+006    3.48170E+006    3.84322E+005   -7.80016E+003    3.48950E+006   -1.28607E+006    3.25805E+006    3.48170E+006   -3.56248E+003    3.80084E+005    7.26217E+001    7.86472E+001    4.05430E+004
            5381    3.32563E+006    3.45169E+006    3.45169E+006    3.52211E+005   -6.13977E+004    3.51309E+006   -1.24750E+006    3.26702E+006    3.45169E+006   -5.90746E+003    2.96721E+005   -1.30051E+002   -3.73358E+001    1.40968E+005
            5382    3.31847E+006    3.44768E+006    3.44768E+006    2.92666E+005   -1.30719E+004    3.46075E+006   -1.24243E+006    3.28655E+006    3.44768E+006   -4.69323E+003    2.84287E+005    1.46116E+002    2.45620E+001    4.99148E+004
            5383    3.33172E+006    3.42856E+006    3.42856E+006    2.99399E+005   -7.42212E+004    3.50279E+006   -1.21791E+006    3.28410E+006    3.42856E+006    8.02682E+003    2.17151E+005   -1.33015E+002    1.98174E+000    1.54806E+005
            5384    3.32710E+006    3.41512E+006    3.41512E+006    2.00290E+005   -1.39114E+004    3.42903E+006   -1.20050E+006    3.31154E+006    3.41512E+006    6.27555E+002    1.85751E+005    1.57177E+002   -3.47381E+001    5.38783E+004
            5385    3.33455E+006    3.41072E+006    3.41072E+006    2.40819E+005   -6.71283E+004    3.47784E+006   -1.19480E+006    3.30233E+006    3.41072E+006    4.10949E+004    1.32596E+005   -1.12247E+002   -9.23707E+001    1.47020E+005
            5386    3.33526E+006    3.38839E+006    3.38839E+006    1.17900E+005   -8.07232E+003    3.39646E+006   -1.16607E+006    3.32990E+006    3.38839E+006    9.75526E+003    1.00072E+005    1.08448E+002   -3.12426E+001    4.39085E+004
            5387    3.34279E+006    3.36806E+006    3.36806E+006    5.66800E+004   -5.29275E+003    3.37335E+006   -1.13981E+006    3.34150E+006    3.36806E+006    1.02172E+004    4.11701E+004    4.19142E+000   -1.29983E+001    2.68446E+004
            5388    3.34743E+006    3.35624E+006    3.35624E+006    1.77016E+004   -2.55107E+001    3.35626E+006   -1.12464E+006    3.34733E+006    3.35624E+006    9.09599E+003    8.58013E+003   -1.85017E+001    1.41323E+001    8.85981E+003
            5389    3.33541E+006    3.39408E+006    3.39408E+006    1.60846E+005   -3.48840E+004    3.42897E+006   -1.17335E+006    3.32245E+006    3.39408E+006    6.49487E+004    6.10137E+004    3.41437E+001   -3.90527E+001    9.78454E+004
            5390    3.34249E+006    3.36885E+006    3.36885E+006    5.88359E+004   -5.19514E+003    3.37405E+006   -1.14083E+006    3.34111E+006    3.36885E+006    4.40465E+004    9.59421E+003    3.49155E+000    1.54035E+000    2.69861E+004
            5391    3.33454E+006    3.39063E+006    3.39063E+006    1.24081E+005   -7.97517E+003    3.39861E+006   -1.16891E+006    3.32865E+006    3.39063E+006    1.07278E+005    8.82775E+003    2.26434E+001   -8.67889E+001    4.40067E+004
            5392    3.32604E+006    3.41916E+006    3.41916E+006    2.11622E+005   -1.39123E+004    3.43307E+006   -1.20562E+006    3.30877E+006    3.41916E+006    1.98467E+005   -7.57235E+002    2.16006E+001   -9.87274E+001    5.28570E+004
            5393    3.31691E+006    3.45440E+006    3.45440E+006    3.10402E+005   -1.18888E+004    3.46629E+006   -1.25097E+006    3.28141E+006    3.45440E+006    3.03379E+005   -4.86494E+003   -4.28627E+001   -3.99836E+001    4.70572E+004
            5394    3.30955E+006    3.48946E+006    3.48946E+006    4.05086E+005   -6.73076E+003    3.49619E+006   -1.29594E+006    3.25116E+006    3.48946E+006    4.01688E+005   -3.33286E+003   -7.43512E+001    4.58614E+001    3.72527E+004
            5395    3.33442E+006    3.41165E+006    3.41165E+006    2.43947E+005   -6.76259E+004    3.47927E+006   -1.19599E+006    3.30143E+006    3.41165E+006    1.41174E+005    3.51469E+004    6.23344E+001    1.02172E+002    1.46489E+005
            5396    3.33087E+006    3.43166E+006    3.43166E+006    3.05866E+005   -7.20504E+004    3.50371E+006   -1.22183E+006    3.28212E+006    3.43166E+006    2.30613E+005    3.20215E+003   -5.18908E+001    8.49571E+001    1.50918E+005
            5397    3.32403E+006    3.45713E+006    3.45713E+006    3.62370E+005   -5.64656E+004    3.51360E+006   -1.25435E+006    3.26387E+006    3.45713E+006    3.13821E+005   -7.91595E+003    2.53786E+001    3.22230E+001    1.34079E+005
            5398    3.31740E+006    3.48292E+006    3.48292E+006    4.20925E+005   -4.13915E+004    3.52431E+006   -1.28748E+006    3.24374E+006    3.48292E+006    3.95358E+005   -1.58244E+004   -1.70809E+001   -5.44927E+001    1.05671E+005
            5399    3.33235E+006    3.47776E+006    3.47776E+006    4.68153E+005   -1.03400E+005    3.58116E+006   -1.28084E+006    3.21929E+006    3.47776E+006    4.04741E+005   -3.99874E+004   -2.44165E+002   -7.05804E+000    1.79506E+005
            5400    3.33988E+006    3.45760E+006    3.45760E+006    4.37124E+005   -1.29249E+005    3.58685E+006   -1.25516E+006    3.22917E+006    3.45760E+006    3.23295E+005   -1.54204E+004   -2.23390E+002   -1.27383E+002    2.26964E+005
            5401    3.34386E+006    3.44036E+006    3.44036E+006    3.98626E+005   -1.40193E+005    3.58055E+006   -1.23293E+006    3.24403E+006    3.44036E+006    2.34784E+005    2.36492E+004   -1.01577E+002   -2.28299E+002    2.47865E+005
            5402    3.34785E+006    3.42220E+006    3.42220E+006    3.58430E+005   -1.51276E+005    3.57347E+006   -1.20978E+006    3.25884E+006    3.42220E+006    1.43825E+005    6.33291E+004   -1.85619E+001   -2.44911E+002    2.51655E+005
            5403    3.30676E+006    3.51026E+006    3.51026E+006    4.65115E+005   -7.30699E+003    3.51756E+006   -1.32269E+006    3.22953E+006    3.51026E+006   -5.42926E+003    4.63237E+005   -3.64371E+001    1.18759E+002    2.97246E+004
            5404    3.31356E+006    3.50016E+006    3.50016E+006    4.60862E+005   -3.23623E+004    3.53252E+006   -1.30955E+006    3.22942E+006    3.50016E+006   -1.85786E+004    4.47079E+005    2.18488E+001   -6.42930E+000    8.12924E+004
            5405    3.32783E+006    3.48989E+006    3.48989E+006    4.88399E+005   -8.87688E+004    3.57866E+006   -1.29651E+006    3.21232E+006    3.48989E+006   -4.83234E+004    4.47953E+005    3.50425E+001    2.57628E+002    1.47336E+005
            5406    3.30420E+006    3.53206E+006    3.53206E+006    5.24520E+005   -4.87199E+003    3.53693E+006   -1.35057E+006    3.20670E+006    3.53206E+006   -4.30007E+003    5.23948E+005   -1.32164E+002    1.06855E+002    1.73907E+004
            5407    3.30996E+006    3.51848E+006    3.51848E+006    5.04262E+005   -2.37587E+004    3.54224E+006   -1.33299E+006    3.21316E+006    3.51848E+006   -1.92451E+004    4.99748E+005    1.07377E+002    1.15933E+001    4.86094E+004
            5408    3.32045E+006    3.50799E+006    3.50799E+006    5.14482E+005   -6.35075E+004    3.57150E+006   -1.31965E+006    3.20433E+006    3.50799E+006   -5.03284E+004    5.01303E+005   -6.65698E+001    2.18318E+002    8.62771E+004
            5409    3.30344E+006    3.54331E+006    3.54331E+006    5.56012E+005   -4.54521E+003    3.54786E+006   -1.36493E+006    3.19380E+006    3.54331E+006   -4.48425E+003    5.55951E+005   -2.10347E+002    5.61941E+001    5.84482E+003
            5410    3.30836E+006    3.52874E+006    3.52874E+006    5.29056E+005   -1.96780E+004    3.54842E+006   -1.34604E+006    3.20357E+006    3.52874E+006   -1.92419E+004    5.28620E+005    1.91775E+002    6.16290E+000    1.54635E+004
            5411    3.31645E+006    3.51829E+006    3.51829E+006    5.30378E+005   -5.00675E+004    3.56836E+006   -1.33287E+006    3.19917E+006    3.51829E+006   -4.86429E+004    5.28953E+005   -1.37247E+002    7.11785E+001    2.87206E+004
            5412    3.30854E+006    3.49631E+006    3.49631E+006    4.25580E+005   -7.41322E+003    3.50372E+006   -1.30483E+006    3.24388E+006    3.49631E+006    4.22614E+005   -4.44677E+003    7.78459E+001   -2.92948E+001   -3.57163E+004
            5413    3.31642E+006    3.48779E+006    3.48779E+006    4.33620E+005   -3.99693E+004    3.52776E+006   -1.29381E+006    3.23904E+006    3.48779E+006    4.11278E+005   -1.76275E+004   -1.77820E+000    2.98529E+001   -1.00408E+005
            5414    3.33128E+006    3.48065E+006    3.48065E+006    4.73522E+005   -1.00257E+005    3.58090E+006   -1.28464E+006    3.21728E+006    3.48065E+006    4.14227E+005   -4.09619E+004    2.20941E+002   -8.05286E+001   -1.74661E+005
            5415    3.30524E+006    3.52248E+006    3.52248E+006    4.98759E+005   -6.17247E+003    3.52865E+006   -1.33836E+006    3.21675E+006    3.52248E+006    4.97647E+005   -5.06016E+003    1.02993E+002    5.97394E+001   -2.36728E+004
            5416    3.31127E+006    3.51066E+006    3.51066E+006    4.85673E+005   -2.70636E+004    3.53773E+006   -1.32309E+006    3.22013E+006    3.51066E+006    4.77348E+005   -1.87390E+004   -4.89501E+000   -4.63849E+001   -6.47999E+004
            5417    3.32343E+006    3.50006E+006    3.50006E+006    5.02466E+005   -7.38332E+004    3.57389E+006   -1.30956E+006    3.20811E+006    3.50006E+006    4.78369E+005   -4.97368E+004    2.40417E+002    1.37618E+001   -1.15352E+005
            5418    3.30352E+006    3.53978E+006    3.53978E+006    5.46098E+005   -4.42202E+003    3.54420E+006   -1.36048E+006    3.19787E+006    3.53978E+006    5.45874E+005   -4.19854E+003    7.14547E+001    1.39641E+002   -1.10897E+004
            5419    3.30881E+006    3.52516E+006    3.52516E+006    5.20973E+005   -2.12804E+004    3.54644E+006   -1.34162E+006    3.20655E+006    3.52516E+006    5.19248E+005   -1.95554E+004    6.90718E+000   -1.19231E+002   -3.05354E+004
            5420    3.31759E+006    3.51512E+006    3.51512E+006    5.25043E+005   -5.38051E+004    3.56892E+006   -1.32878E+006    3.20101E+006    3.51512E+006    5.19798E+005   -4.85595E+004    1.28347E+002    9.69168E+001   -5.48533E+004
            5421    3.30336E+006    3.54455E+006    3.54455E+006    5.59970E+005   -4.77697E+003    3.54933E+006   -1.36658E+006    3.19203E+006    3.54455E+006    5.59966E+005   -4.77367E+003    1.91869E+001    1.61094E+002    1.36504E+003
            5422    3.30809E+006    3.53004E+006    3.53004E+006    5.32647E+005   -1.92958E+004    3.54934E+006   -1.34780E+006    3.20203E+006    3.53004E+006    5.32627E+005   -1.92755E+004    7.58124E+000   -1.13341E+002    3.34280E+003
            5423    3.31597E+006    3.51952E+006    3.51952E+006    5.32372E+005   -4.84997E+004    3.56802E+006   -1.33447E+006    3.19848E+006    3.51952E+006    5.32364E+005   -4.84915E+004    5.87803E+001    8.43752E+001    2.18932E+003
            5424    3.30374E+006    3.53717E+006    3.53717E+006    5.38461E+005   -4.35963E+003    3.54153E+006   -1.35709E+006    3.20109E+006    3.53717E+006    5.38126E+005   -4.02383E+003   -3.29758E+001    1.74471E+002    1.34968E+004
            5425    3.30925E+006    3.52300E+006    3.52300E+006    5.15612E+005   -2.22272E+004    3.54523E+006   -1.33879E+006    3.20870E+006    3.52300E+006    5.12931E+005   -1.95457E+004    5.85206E+000   -1.45557E+002    3.78813E+004
            5426    3.31789E+006    3.51414E+006    3.51414E+006    5.22885E+005   -5.45691E+004    3.56871E+006   -1.32749E+006    3.20189E+006    3.51414E+006    5.16896E+005   -4.85808E+004   -6.48859E+001    1.24712E+002    5.84988E+004
            5427    3.30603E+006    3.51716E+006    3.51716E+006    4.84171E+005   -6.96753E+003    3.52413E+006   -1.33145E+006    3.22242E+006    3.51716E+006    4.82768E+005   -5.56451E+003   -8.35061E+001    1.39910E+002    2.62127E+004
            5428    3.31217E+006    3.50666E+006    3.50666E+006    4.75105E+005   -2.84585E+004    3.53512E+006   -1.31777E+006    3.22436E+006    3.50666E+006    4.64783E+005   -1.81364E+004    2.26026E+001   -1.21224E+002    7.13535E+004
            5429    3.32399E+006    3.49842E+006    3.49842E+006    4.99205E+005   -7.54233E+004    3.57384E+006   -1.30740E+006    3.20938E+006    3.49842E+006    4.72923E+005   -4.91416E+004   -1.55413E+002    6.64532E+001    1.20048E+005
            5430    3.32790E+006    3.48985E+006    3.48985E+006    4.88439E+005   -8.89666E+004    3.57882E+006   -1.29644E+006    3.21229E+006    3.48985E+006   -4.85918E+004    4.48064E+005    1.53854E+001   -2.61953E+002   -1.47250E+005
            5431    3.31354E+006    3.50046E+006    3.50046E+006    4.61108E+005   -3.19915E+004    3.53245E+006   -1.30986E+006    3.22944E+006    3.50046E+006   -1.83970E+004    4.47513E+005    5.74859E+001    1.31866E+001   -8.07381E+004
            5432    3.30679E+006    3.51060E+006    3.51060E+006    4.66090E+005   -7.42935E+003    3.51803E+006   -1.32309E+006    3.22919E+006    3.51060E+006   -5.57826E+003    4.64239E+005   -7.49458E+001   -1.31829E+002   -2.95483E+004
            5433    3.32042E+006    3.50812E+006    3.50812E+006    5.14624E+005   -6.33351E+004    3.57145E+006   -1.31980E+006    3.20431E+006    3.50812E+006   -5.03180E+004    5.01607E+005   -1.09586E+002   -1.92993E+002   -8.57550E+004
            5434    3.31002E+006    3.51850E+006    3.51850E+006    5.04084E+005   -2.36951E+004    3.54220E+006   -1.33296E+006    3.21330E+006    3.51850E+006   -1.91710E+004    4.99560E+005    1.63317E+002   -4.17529E+000   -4.86546E+004
            5435    3.30423E+006    3.53225E+006    3.53225E+006    5.24849E+005   -4.83098E+003    3.53708E+006   -1.35076E+006    3.20663E+006    3.53225E+006   -4.26692E+003    5.24285E+005   -1.79234E+002   -9.55813E+001   -1.72756E+004
            5436    3.31639E+006    3.51837E+006    3.51837E+006    5.30374E+005   -4.98449E+004    3.56821E+006   -1.33296E+006    3.19919E+006    3.51837E+006   -4.84905E+004    5.29020E+005   -1.47504E+002   -2.63787E+001   -2.79994E+004
            5437    3.30836E+006    3.52877E+006    3.52877E+006    5.28883E+005   -1.95297E+004    3.54830E+006   -1.34604E+006    3.20370E+006    3.52877E+006   -1.90629E+004    5.28416E+005    2.13118E+002    1.13940E+001   -1.59928E+004
            5438    3.30349E+006    3.54331E+006    3.54331E+006    5.56011E+005   -4.61421E+003    3.54793E+006   -1.36490E+006    3.19382E+006    3.54331E+006   -4.55225E+003    5.55949E+005   -2.28511E+002   -2.87141E+001   -5.89260E+003
            5439    3.34190E+006    3.36976E+006    3.36976E+006    6.21001E+004   -5.36884E+003    3.37512E+006   -1.14216E+006    3.34037E+006    3.36976E+006    5.96360E+003    5.07676E+004   -3.91360E+001   -2.03786E+001   -2.52223E+004
            5440    3.33473E+006    3.38956E+006    3.38956E+006    1.20424E+005   -7.10470E+003    3.39667E+006   -1.16763E+006    3.32924E+006    3.38956E+006    2.61210E+003    1.10707E+005   -1.31772E+001   -1.29637E+001   -3.38342E+004
            5441    3.32600E+006    3.41700E+006    3.41700E+006    1.98440E+005   -6.92393E+003    3.42392E+006   -1.20284E+006    3.31169E+006    3.41700E+006   -3.15783E+002    1.91832E+005    1.14977E+001   -2.24085E+001   -3.62410E+004
            5442    3.31715E+006    3.44968E+006    3.44968E+006    2.90342E+005   -5.47334E+003    3.45515E+006   -1.24485E+006    3.28728E+006    3.44968E+006   -1.62737E+003    2.86496E+005    5.58402E+000   -1.53153E+001   -3.35098E+004
            5443    3.31020E+006    3.48267E+006    3.48267E+006    3.83451E+005   -4.34848E+003    3.48702E+006   -1.28726E+006    3.25851E+006    3.48267E+006   -2.48494E+003    3.81588E+005    1.22953E+001    9.15164E+000   -2.68180E+004
            5444    3.33622E+006    3.39033E+006    3.39033E+006    1.42782E+005   -2.79938E+004    3.41832E+006   -1.16837E+006    3.32636E+006    3.39033E+006    3.02577E+004    8.45303E+004    1.18253E+002    3.06840E+001   -8.09611E+004
            5445    3.33284E+006    3.40507E+006    3.40507E+006    1.96002E+005   -3.90821E+004    3.44415E+006   -1.18733E+006    3.31411E+006    3.40507E+006    1.72964E+004    1.39623E+005    4.81435E+001   -4.34611E+000   -1.00375E+005
            5446    3.32754E+006    3.42524E+006    3.42524E+006    2.53776E+005   -3.90383E+004    3.46428E+006   -1.21333E+006    3.29837E+006    3.42524E+006    6.20998E+003    2.08528E+005   -5.76352E+001   -2.42194E+000   -1.05839E+005
            5447    3.32104E+006    3.45000E+006    3.45000E+006    3.17570E+005   -3.20021E+004    3.48200E+006   -1.24519E+006    3.27927E+006    3.45000E+006   -3.24287E+003    2.88810E+005   -5.15306E+001    4.04092E+001   -9.60537E+004
            5448    3.31408E+006    3.47805E+006    3.47805E+006    3.86997E+005   -2.12252E+004    3.49928E+006   -1.28128E+006    3.25679E+006    3.47805E+006   -6.27145E+003    3.72043E+005   -9.13279E+000    8.50483E+001   -7.66865E+004
            5449    3.33460E+006    3.40590E+006    3.40590E+006    2.18757E+005   -5.88008E+004    3.46470E+006   -1.18862E+006    3.30846E+006    3.40590E+006    7.31695E+004    8.67865E+004   -2.15563E+002   -1.32298E+002   -1.38612E+005
            5450    3.33457E+006    3.41678E+006    3.41678E+006    2.68567E+005   -7.72016E+004    3.49398E+006   -1.20271E+006    3.29387E+006    3.41678E+006    4.45305E+004    1.46834E+005   -2.00316E+002   -1.03701E+002   -1.65144E+005
            5451    3.33240E+006    3.43077E+006    3.43077E+006    3.11932E+005   -8.04478E+004    3.51122E+006   -1.22075E+006    3.27982E+006    3.43077E+006    1.39412E+004    2.17543E+005   -1.04266E+002   -1.72579E+001   -1.67711E+005
            5452    3.32689E+006    3.45086E+006    3.45086E+006    3.56676E+005   -6.79680E+004    3.51883E+006   -1.24652E+006    3.26509E+006    3.45086E+006   -4.16938E+003    2.92877E+005   -6.70836E+001    3.26974E+001   -1.51728E+005
            5453    3.32038E+006    3.47427E+006    3.47427E+006    4.05849E+005   -5.07964E+004    3.52507E+006   -1.27644E+006    3.24861E+006    3.47427E+006   -1.53396E+004    3.70393E+005   -1.00491E+001    6.18449E+001   -1.22205E+005
            5454    3.33913E+006    3.42097E+006    3.42097E+006    3.11396E+005   -1.08081E+005    3.52905E+006   -1.20810E+006    3.27907E+006    3.42097E+006    1.31340E+005    7.19750E+004    7.49765E+001    1.11085E+001   -2.07628E+005
            5455    3.34254E+006    3.42425E+006    3.42425E+006    3.40126E+005   -1.27473E+005    3.55172E+006   -1.21230E+006    3.26774E+006    3.42425E+006    6.93126E+004    1.43340E+005    8.87194E+001    5.85434E+001   -2.30851E+005
            5456    3.34035E+006    3.43576E+006    3.43576E+006    3.68328E+005   -1.23063E+005    3.55883E+006   -1.22701E+006    3.25754E+006    3.43576E+006    2.60563E+004    2.19208E+005    7.48008E+001    1.98714E+001   -2.25919E+005
            5457    3.33606E+006    3.45136E+006    3.45136E+006    4.00398E+005   -1.10789E+005    3.56215E+006   -1.24699E+006    3.24619E+006    3.45136E+006   -8.48617E+003    2.98095E+005    6.97248E+001    3.85844E+001   -2.04523E+005
            5458    3.32834E+006    3.47201E+006    3.47201E+006    4.34227E+005   -8.56928E+004    3.55771E+006   -1.27352E+006    3.23509E+006    3.47201E+006   -2.67600E+004    3.75294E+005    1.39119E+001   -2.27504E+000   -1.64825E+005
            5459    3.34146E+006    3.46560E+006    3.46560E+006    4.66407E+005   -1.36132E+005    3.60173E+006   -1.26529E+006    3.21581E+006    3.46560E+006   -3.63550E+004    3.66630E+005   -7.94701E+001    3.52691E+002   -2.23974E+005
            5460    3.34846E+006    3.44875E+006    3.44875E+006    4.43392E+005   -1.60594E+005    3.60935E+006   -1.24385E+006    3.22247E+006    3.44875E+006   -5.43600E+002    2.83341E+005   -2.10386E+002    2.53284E+002   -2.66556E+005
            5461    3.35262E+006    3.43709E+006    3.43709E+006    4.24205E+005   -1.74573E+005    3.61167E+006   -1.22891E+006    3.22902E+006    3.43709E+006    4.77646E+004    2.01868E+005   -2.41005E+002    1.19317E+002   -2.89304E+005
            5462    3.35208E+006    3.43042E+006    3.43042E+006    4.02563E+005   -1.71690E+005    3.60211E+006   -1.22043E+006    3.23863E+006    3.43042E+006    1.02483E+005    1.28390E+005   -2.28535E+002   -3.40092E+001   -2.86834E+005
            5463    3.35109E+006    3.42697E+006    3.42697E+006    3.87372E+005   -1.66579E+005    3.59355E+006   -1.21592E+006    3.24568E+006    3.42697E+006    1.63161E+005    5.76317E+004   -6.09280E+001   -1.33135E+002   -2.71904E+005
            5464    3.34541E+006    3.43989E+006    3.43989E+006    4.04411E+005   -1.46948E+005    3.58684E+006   -1.23245E+006    3.24082E+006    3.43989E+006    2.41853E+005    1.56098E+004    7.47773E+001   -1.95043E+002   -2.51402E+005
            5465    3.33861E+006    3.46019E+006    3.46019E+006    4.40090E+005   -1.24854E+005    3.58504E+006   -1.25847E+006    3.22844E+006    3.46019E+006    3.32864E+005   -1.76285E+004    2.19717E+002   -1.68133E+002   -2.21538E+005
            5466    3.32295E+006    3.46246E+006    3.46246E+006    3.77807E+005   -5.61530E+004    3.51861E+006   -1.26137E+006    3.25828E+006    3.46246E+006    3.33195E+005   -1.15407E+004   -1.11766E+001    7.23234E+001   -1.31794E+005
            5467    3.31504E+006    3.46321E+006    3.46321E+006    3.35786E+005   -1.20271E+004    3.47523E+006   -1.26232E+006    3.27361E+006    3.46321E+006    3.29226E+005   -5.46760E+003    3.65777E+001   -9.36004E+001   -4.73122E+004
            5468    3.32980E+006    3.43799E+006    3.43799E+006    3.23925E+005   -7.21304E+004    3.51012E+006   -1.22993E+006    3.27618E+006    3.43799E+006    2.47614E+005    4.18107E+003   -1.60866E+001    7.37311E+001   -1.56205E+005
            5469    3.32257E+006    3.43073E+006    3.43073E+006    2.42364E+005   -1.14743E+004    3.44220E+006   -1.22054E+006    3.30064E+006    3.43073E+006    2.30903E+005   -1.35952E+001   -2.08574E+001   -1.08114E+002   -5.27050E+004
            5470    3.33082E+006    3.40270E+006    3.40270E+006    1.61187E+005   -1.07729E+004    3.41347E+006   -1.18437E+006    3.32081E+006    3.40270E+006    1.46007E+005    4.40667E+003   -2.40051E+001   -1.99964E+001   -4.87838E+004
            5471    3.33898E+006    3.37807E+006    3.37807E+006    8.56354E+004   -5.58969E+003    3.38365E+006   -1.15270E+006    3.33617E+006    3.37807E+006    6.94827E+004    1.05630E+004    6.53607E+000    1.63062E+001   -3.48227E+004
            5472    3.34563E+006    3.36054E+006    3.36054E+006    3.07504E+004   -7.12361E+002    3.36125E+006   -1.13019E+006    3.34530E+006    3.36054E+006    2.04083E+004    9.62973E+003    7.78394E+000   -8.32922E-001   -1.47794E+004
            5473    3.34931E+006    3.35175E+006    3.35175E+006    4.88439E+003   -1.74830E+000    3.35175E+006   -1.11888E+006    3.34930E+006    3.35175E+006    2.58208E+003    2.30056E+003    9.49683E+000    2.07220E+000   -2.43901E+003
            5474    3.33283E+006    3.41631E+006    3.41631E+006    2.54183E+005   -6.43602E+004    3.48067E+006   -1.20204E+006    3.29832E+006    3.41631E+006    1.63982E+005    2.58404E+004   -7.27821E+001   -4.68264E+001   -1.43515E+005
            5475    3.33535E+006    3.39454E+006    3.39454E+006    1.61501E+005   -3.44716E+004    3.42901E+006   -1.17386E+006    3.32236E+006    3.39454E+006    8.56588E+004    4.13710E+004   -3.55777E+001   -4.23133E+001   -9.54516E+004
            5476    3.33951E+006    3.37702E+006    3.37702E+006    8.69970E+004   -9.88295E+003    3.38690E+006   -1.15138E+006    3.33635E+006    3.37702E+006    3.69663E+004    4.01477E+004    2.60514E+001    2.40866E+001   -4.84138E+004
            5477    3.34650E+006    3.35836E+006    3.35836E+006    2.48085E+004   -9.37389E+002    3.35930E+006   -1.12741E+006    3.34628E+006    3.35836E+006    7.93695E+003    1.59341E+004   -2.87591E+000   -1.25321E+001   -1.22362E+004
            5478    3.33530E+006    3.38823E+006    3.38823E+006    1.17460E+005   -8.06296E+003    3.39629E+006   -1.16587E+006    3.32998E+006    3.38823E+006    9.77661E+003    9.96207E+004    1.15610E+002    3.55970E+001   -4.38296E+004
            5479    3.32701E+006    3.41532E+006    3.41532E+006    2.00861E+005   -1.38423E+004    3.42916E+006   -1.20078E+006    3.31137E+006    3.41532E+006    6.64246E+002    1.86355E+005    1.70849E+002    3.54695E+001   -5.38904E+004
            5480    3.31824E+006    3.44853E+006    3.44853E+006    2.95077E+005   -1.30209E+004    3.46155E+006   -1.24353E+006    3.28583E+006    3.44853E+006   -4.79290E+003    2.86849E+005    1.49365E+002   -3.73853E+001   -4.96723E+004
            5481    3.31070E+006    3.48266E+006    3.48266E+006    3.86803E+005   -7.57339E+003    3.49023E+006   -1.28729E+006    3.25723E+006    3.48266E+006   -3.42648E+003    3.82656E+005    5.79308E+001   -9.47555E+001   -4.02274E+004
            5482    3.33455E+006    3.41082E+006    3.41082E+006    2.41309E+005   -6.73125E+004    3.47813E+006   -1.19494E+006    3.30218E+006    3.41082E+006    4.10350E+004    1.32962E+005   -1.21193E+002    9.95522E+001   -1.47307E+005
            5483    3.33170E+006    3.42872E+006    3.42872E+006    2.99990E+005   -7.43297E+004    3.50305E+006   -1.21813E+006    3.28389E+006    3.42872E+006    7.54150E+003    2.18119E+005   -1.51224E+002   -1.21629E+001   -1.54736E+005
            5484    3.32553E+006    3.45204E+006    3.45204E+006    3.52801E+005   -6.10388E+004    3.51308E+006   -1.24794E+006    3.26684E+006    3.45204E+006   -6.22440E+003    2.97987E+005   -1.44645E+002    3.07320E+001   -1.40285E+005
            5485    3.31907E+006    3.47672E+006    3.47672E+006    4.08501E+005   -4.62888E+004    3.52301E+006   -1.27965E+006    3.24786E+006    3.47672E+006   -1.55688E+004    3.77781E+005   -4.88403E+001   -3.15772E+001   -1.14138E+005
            5486    3.33595E+006    3.46988E+006    3.46988E+006    4.58665E+005   -1.16120E+005    3.58600E+006   -1.27081E+006    3.22171E+006    3.46988E+006   -3.36653E+004    3.76210E+005    1.23683E+002   -3.15830E+002   -2.01482E+005
            5487    3.34224E+006    3.45236E+006    3.45236E+006    4.30956E+005   -1.37749E+005    3.59011E+006   -1.24852E+006    3.23068E+006    3.45236E+006   -3.88941E+003    2.97097E+005    2.56811E+002   -2.19968E+002   -2.41263E+005
            5488    3.34472E+006    3.43777E+006    3.43777E+006    3.94618E+005   -1.43306E+005    3.58108E+006   -1.22969E+006    3.24525E+006    3.43777E+006    3.89944E+004    2.12317E+005    3.18819E+002   -7.63242E+001   -2.54618E+005
            5489    3.34781E+006    3.42166E+006    3.42166E+006    3.56950E+005   -1.51155E+005    3.57282E+006   -1.20915E+006    3.25937E+006    3.42166E+006    7.91622E+004    1.26633E+005    2.55162E+002    9.04488E+000   -2.52942E+005
            5490    3.34776E+006    3.42231E+006    3.42231E+006    3.58618E+005   -1.51071E+005    3.57338E+006   -1.20995E+006    3.25875E+006    3.42231E+006    1.43600E+005    6.39478E+004   -1.15002E+001    2.42678E+002   -2.51714E+005
            5491    3.34386E+006    3.44040E+006    3.44040E+006    3.98841E+005   -1.40264E+005    3.58066E+006   -1.23299E+006    3.24393E+006    3.44040E+006    2.35244E+005    2.33330E+004   -8.70546E+001    2.12625E+002   -2.47855E+005
            5492    3.33979E+006    3.45761E+006    3.45761E+006    4.36985E+005   -1.29013E+005    3.58662E+006   -1.25519E+006    3.22923E+006    3.45761E+006    3.23694E+005   -1.57219E+004   -2.12602E+002    1.43952E+002   -2.26468E+005
            5493    3.33230E+006    3.47763E+006    3.47763E+006    4.67660E+005   -1.03240E+005    3.58087E+006   -1.28068E+006    3.21951E+006    3.47763E+006    4.04300E+005   -3.98798E+004   -2.38995E+002    2.87437E+001   -1.79326E+005
            5494    3.31747E+006    3.48282E+006    3.48282E+006    4.21402E+005   -4.19771E+004    3.52480E+006   -1.28742E+006    3.24346E+006    3.48282E+006    3.95724E+005   -1.62996E+004   -2.16842E+001    3.09304E+001   -1.06015E+005
            5495    3.30970E+006    3.48896E+006    3.48896E+006    4.04124E+005   -7.16268E+003    3.49612E+006   -1.29531E+006    3.25146E+006    3.48896E+006    4.00635E+005   -3.67307E+003   -6.46520E+001   -1.57832E+001   -3.77234E+004
            5496    3.32407E+006    3.45696E+006    3.45696E+006    3.62271E+005   -5.67618E+004    3.51372E+006   -1.25416E+006    3.26386E+006    3.45696E+006    3.13324E+005   -7.81449E+003    3.02414E+001   -4.48381E+001   -1.34591E+005
            5497    3.31685E+006    3.45469E+006    3.45469E+006    3.11178E+005   -1.18518E+004    3.46654E+006   -1.25134E+006    3.28118E+006    3.45469E+006    3.04045E+005   -4.71907E+003   -3.13346E+001    5.73488E+001   -4.74678E+004
            5498    3.33085E+006    3.43165E+006    3.43165E+006    3.05867E+005   -7.20326E+004    3.50368E+006   -1.22183E+006    3.28210E+006    3.43165E+006    2.30114E+005    3.72017E+003   -4.64611E+001   -7.15221E+001   -1.51289E+005
            5499    3.32586E+006    3.41988E+006    3.41988E+006    2.13655E+005   -1.39290E+004    3.43381E+006   -1.20654E+006    3.30828E+006    3.41988E+006    2.00523E+005   -7.97011E+002    2.71636E+001    9.76058E+001   -5.30676E+004
            5500    3.33440E+006    3.41171E+006    3.41171E+006    2.44066E+005   -6.75648E+004    3.47928E+006   -1.19607E+006    3.30140E+006    3.41171E+006    1.41144E+005    3.53576E+004    6.74565E+001   -9.48510E+001   -1.46563E+005
            5501    3.33439E+006    3.39112E+006    3.39112E+006    1.25404E+005   -7.93459E+003    3.39906E+006   -1.16953E+006    3.32838E+006    3.39112E+006    1.08600E+005    8.87005E+003    1.92795E+001    8.59052E+001   -4.42529E+004
            5502    3.34241E+006    3.36907E+006    3.36907E+006    5.92765E+004   -5.04185E+003    3.37411E+006   -1.14110E+006    3.34102E+006    3.36907E+006    4.45584E+004    9.67619E+003   -8.75040E-001    5.72574E-001   -2.70189E+004
            5503    3.34744E+006    3.35623E+006    3.35623E+006    1.76881E+004   -2.72326E+001    3.35626E+006   -1.12463E+006    3.34733E+006    3.35623E+006    9.25854E+003    8.40233E+003   -2.19288E+001   -1.21784E+001   -8.84732E+003
            5504    3.33539E+006    3.39414E+006    3.39414E+006    1.60998E+005   -3.48670E+004    3.42901E+006   -1.17342E+006    3.32242E+006    3.39414E+006    6.50469E+004    6.10836E+004    3.31515E+001    4.13034E+001   -9.79122E+004
            5505    3.34288E+006    3.36785E+006    3.36785E+006    5.62102E+004   -5.42586E+003    3.37327E+006   -1.13954E+006    3.34160E+006    3.36785E+006    1.01384E+004    4.06459E+004    5.16877E+000    1.97729E+001   -2.67782E+004
            5506    3.33132E+006    3.48714E+006    3.48714E+006    4.92452E+005   -1.01038E+005    3.58818E+006   -1.29285E+006    3.20913E+006    3.48714E+006   -5.24853E+004    4.43899E+005    8.62305E+001    3.56104E+002   -1.62660E+005
            5507    3.32081E+006    3.49347E+006    3.49347E+006    4.71354E+005   -6.15726E+004    3.55504E+006   -1.30108E+006    3.22249E+006    3.49347E+006   -3.39497E+004    4.43731E+005   -7.64548E+001   -4.26023E+000   -1.18144E+005
            5508    3.31429E+006    3.49818E+006    3.49818E+006    4.57187E+005   -3.44774E+004    3.53266E+006   -1.30696E+006    3.23071E+006    3.49818E+006   -1.83897E+004    4.41100E+005    3.14157E+001    6.28847E+001   -8.74695E+004
            5509    3.30904E+006    3.50416E+006    3.50416E+006    4.54613E+005   -1.43322E+004    3.51850E+006   -1.31481E+006    3.23301E+006    3.50416E+006   -7.95968E+003    4.48240E+005    6.21703E+001    9.81116E+001   -5.42934E+004
            5510    3.30546E+006    3.51263E+006    3.51263E+006    4.67140E+005   -2.55028E+003    3.51518E+006   -1.32574E+006    3.22910E+006    3.51263E+006   -1.78296E+003    4.66373E+005    2.24563E+001    2.95723E+001   -1.89688E+004
            5511    3.32289E+006    3.50631E+006    3.50631E+006    5.17627E+005   -7.18736E+004    3.57818E+006   -1.31735E+006    3.20206E+006    3.50631E+006   -5.60881E+004    5.01842E+005    1.82556E+002    2.36032E+002   -9.51648E+004
            5512    3.31534E+006    3.51118E+006    3.51118E+006    5.04810E+005   -4.45139E+004    3.55569E+006   -1.32383E+006    3.21055E+006    3.51118E+006   -3.55195E+004    4.95816E+005   -1.57225E+002   -1.32413E+001   -6.97132E+004
            5513    3.31061E+006    3.51705E+006    3.51705E+006    5.01468E+005   -2.53971E+004    3.54245E+006   -1.33104E+006    3.21425E+006    3.51705E+006   -2.02150E+004    4.96286E+005    6.26956E+001    4.32587E+001   -5.19941E+004
            5514    3.30597E+006    3.52449E+006    3.52449E+006    5.08158E+005   -9.92898E+003    3.53442E+006   -1.34091E+006    3.21272E+006    3.52449E+006   -7.88001E+003    5.06109E+005    1.19333E+002    7.42351E+001   -3.25168E+004
            5515    3.30327E+006    3.53414E+006    3.53414E+006    5.28114E+005   -2.20639E+003    3.53635E+006   -1.35335E+006    3.20539E+006    3.53414E+006   -1.96361E+003    5.27871E+005    3.84161E+001    3.59584E+001   -1.13444E+004
            5516    3.31832E+006    3.51697E+006    3.51697E+006    5.32366E+005   -5.62748E+004    3.57324E+006   -1.33102E+006    3.19767E+006    3.51697E+006   -5.47520E+004    5.30843E+005    2.42828E+002    8.01165E+001   -2.99009E+004
            5517    3.31269E+006    3.52106E+006    3.52106E+006    5.24954E+005   -3.64712E+004    3.55753E+006   -1.33651E+006    3.20303E+006    3.52106E+006   -3.55370E+004    5.24019E+005   -1.95964E+002   -1.39360E+000   -2.28834E+004
            5518    3.30861E+006    3.52772E+006    3.52772E+006    5.26258E+005   -2.00269E+004    3.54775E+006   -1.34465E+006    3.20478E+006    3.52772E+006   -1.94950E+004    5.25726E+005    7.17233E+001    1.56591E+001   -1.70376E+004
            5519    3.30472E+006    3.53544E+006    3.53544E+006    5.37639E+005   -8.22514E+003    3.54367E+006   -1.35495E+006    3.20093E+006    3.53544E+006   -8.01369E+003    5.37427E+005    1.53424E+002    2.76963E+001   -1.07413E+004
            5520    3.30236E+006    3.54580E+006    3.54580E+006    5.60804E+005   -1.67343E+003    3.54747E+006   -1.36831E+006    3.19191E+006    3.54580E+006   -1.64726E+003    5.60778E+005    4.77515E+001    1.36390E+001   -3.83666E+003
            5521    3.33142E+006    3.48053E+006    3.48053E+006    4.73672E+005   -1.00760E+005    3.58129E+006   -1.28448E+006    3.21716E+006    3.48053E+006    4.14106E+005   -4.11947E+004    2.50834E+002    5.16782E+001    1.75124E+005
            5522    3.31633E+006    3.48821E+006    3.48821E+006    4.34144E+005   -3.94552E+004    3.52767E+006   -1.29430E+006    3.23894E+006    3.48821E+006    4.12155E+005   -1.74654E+004   -6.34375E+000    1.45059E+000    9.96534E+004
            5523    3.30846E+006    3.49695E+006    3.49695E+006    4.27303E+005   -7.35908E+003    3.50431E+006   -1.30563E+006    3.24329E+006    3.49695E+006    4.24389E+005   -4.44556E+003    9.56791E+001   -2.50791E+000    3.54670E+004
            5524    3.32346E+006    3.50012E+006    3.50012E+006    5.02539E+005   -7.38309E+004    3.57395E+006   -1.30961E+006    3.20811E+006    3.50012E+006    4.78495E+005   -4.97871E+004    2.24684E+002   -4.13037E+001    1.15239E+005
            5525    3.31130E+006    3.51083E+006    3.51083E+006    4.85907E+005   -2.69969E+004    3.53782E+006   -1.32325E+006    3.22011E+006    3.51083E+006    4.77626E+005   -1.87161E+004   -5.64429E+000    7.77509E+001    6.46425E+004
            5526    3.30524E+006    3.52294E+006    3.52294E+006    5.00011E+005   -6.19835E+003    3.52914E+006   -1.33892E+006    3.21629E+006    3.52294E+006    4.98924E+005   -5.11143E+003    1.02480E+002   -9.45132E+001    2.34314E+004
            5527    3.31769E+006    3.51510E+006    3.51510E+006    5.25242E+005   -5.41016E+004    3.56920E+006   -1.32875E+006    3.20090E+006    3.51510E+006    5.20103E+005   -4.89622E+004    1.13202E+002   -1.01869E+002    5.43237E+004
            5528    3.30890E+006    3.52518E+006    3.52518E+006    5.21068E+005   -2.14481E+004    3.54663E+006   -1.34160E+006    3.20654E+006    3.52518E+006    5.19352E+005   -1.97324E+004   -3.33362E+000    1.25896E+002    3.04607E+004
            5529    3.30355E+006    3.53995E+006    3.53995E+006    5.46539E+005   -4.43937E+003    3.54439E+006   -1.36068E+006    3.19771E+006    3.53995E+006    5.46323E+005   -4.22406E+003    6.34649E+001   -1.55820E+002    1.08895E+004
            5530    3.31592E+006    3.51952E+006    3.51952E+006    5.32138E+005   -4.83004E+004    3.56782E+006   -1.33445E+006    3.19862E+006    3.51952E+006    5.32122E+005   -4.82848E+004    1.98299E+001   -1.09052E+002   -3.01435E+003
            5531    3.30805E+006    3.53003E+006    3.53003E+006    5.32413E+005   -1.91307E+004    3.54916E+006   -1.34777E+006    3.20215E+006    3.53003E+006    5.32391E+005   -1.91090E+004    5.65739E-001    1.34982E+002   -3.46157E+003
            5532    3.30337E+006    3.54453E+006    3.54453E+006    5.59819E+005   -4.73714E+003    3.54927E+006   -1.36654E+006    3.19212E+006    3.54453E+006    5.59815E+005   -4.73340E+003    1.77601E+000   -1.73938E+002   -1.45209E+003
            5533    3.31799E+006    3.51399E+006    3.51399E+006    5.22932E+005   -5.50004E+004    3.56899E+006   -1.32731E+006    3.20180E+006    3.51399E+006    5.16703E+005   -4.87716E+004   -9.11456E+001   -1.07782E+002   -5.96742E+004
            5534    3.30926E+006    3.52283E+006    3.52283E+006    5.15267E+005   -2.23033E+004    3.54514E+006   -1.33860E+006    3.20882E+006    3.52283E+006    5.12581E+005   -1.96170E+004   -3.71302E+000    1.34082E+002   -3.79059E+004
            5535    3.30374E+006    3.53689E+006    3.53689E+006    5.37700E+005   -4.34889E+003    3.54124E+006   -1.35675E+006    3.20140E+006    3.53689E+006    5.37361E+005   -4.00965E+003   -4.86021E+001   -1.60407E+002   -1.35561E+004
            5536    3.32406E+006    3.49818E+006    3.49818E+006    4.98868E+005   -7.57151E+004    3.57390E+006   -1.30711E+006    3.20947E+006    3.49818E+006    4.72306E+005   -4.91522E+004   -1.73401E+002   -4.42644E+001   -1.20652E+005
            5537    3.31220E+006    3.50660E+006    3.50660E+006    4.75393E+005   -2.87841E+004    3.53538E+006   -1.31774E+006    3.22417E+006    3.50660E+006    4.65011E+005   -1.84021E+004    1.68255E+001    9.54718E+001   -7.16000E+004
            5538    3.30607E+006    3.51666E+006    3.51666E+006    4.82838E+005   -6.99416E+003    3.52365E+006   -1.33083E+006    3.22291E+006    3.51666E+006    4.81414E+005   -5.56958E+003   -8.56309E+001   -1.11138E+002   -2.63775E+004
            5539    3.30553E+006    3.51236E+006    3.51236E+006    4.66607E+005   -2.77927E+003    3.51514E+006   -1.32540E+006    3.22928E+006    3.51236E+006   -2.00862E+003    4.65837E+005    2.04494E+001   -3.04677E+001    1.90037E+004
            5540    3.30905E+006    3.50415E+006    3.50415E+006    4.54604E+005   -1.43633E+004    3.51852E+006   -1.31480E+006    3.23302E+006    3.50415E+006   -7.94411E+003    4.48185E+005    5.13773E+001   -1.01438E+002    5.44902E+004
            5541    3.31432E+006    3.49813E+006    3.49813E+006    4.57547E+005   -3.48471E+004    3.53297E+006   -1.30694E+006    3.23049E+006    3.49813E+006   -1.86945E+004    4.41394E+005    1.84202E+001   -6.50040E+001    8.77071E+004
            5542    3.32095E+006    3.49353E+006    3.49353E+006    4.72027E+005   -6.21259E+004    3.55565E+006   -1.30114E+006    3.22218E+006    3.49353E+006   -3.43840E+004    4.44285E+005   -4.88465E+001   -5.31233E+000    1.18528E+005
            5543    3.33128E+006    3.48722E+006    3.48722E+006    4.92698E+005   -1.00988E+005    3.58821E+006   -1.29298E+006    3.20901E+006    3.48722E+006   -5.25779E+004    4.44288E+005    4.59298E+001   -3.52562E+002    1.62470E+005
            5544    3.30321E+006    3.53421E+006    3.53421E+006    5.28100E+005   -1.99423E+003    3.53620E+006   -1.35344E+006    3.20541E+006    3.53421E+006   -1.75594E+003    5.27862E+005    3.74157E+001   -3.84153E+001    1.12365E+004
            5545    3.30595E+006    3.52454E+006    3.52454E+006    5.08273E+005   -9.89789E+003    3.53444E+006   -1.34097E+006    3.21268E+006    3.52454E+006   -7.88593E+003    5.06261E+005    1.15092E+002   -8.14233E+001    3.22256E+004
            5546    3.31055E+006    3.51705E+006    3.51705E+006    5.01289E+005   -2.51976E+004    3.54224E+006   -1.33105E+006    3.21433E+006    3.51705E+006   -2.00319E+004    4.96124E+005    5.40239E+001   -4.88967E+001    5.18941E+004
            5547    3.31540E+006    3.51115E+006    3.51115E+006    5.05107E+005   -4.48282E+004    3.55598E+006   -1.32381E+006    3.21037E+006    3.51115E+006   -3.58693E+004    4.96148E+005   -1.56923E+002    1.41276E+001    6.96173E+004
            5548    3.32301E+006    3.50619E+006    3.50619E+006    5.17940E+005   -7.24379E+004    3.57863E+006   -1.31723E+006    3.20181E+006    3.50619E+006   -5.65663E+004    5.02068E+005    1.92464E+002   -2.62598E+002    9.54898E+004
            5549    3.30240E+006    3.54577E+006    3.54577E+006    5.60841E+005   -1.81044E+003    3.54758E+006   -1.36827E+006    3.19188E+006    3.54577E+006   -1.78463E+003    5.60815E+005    4.62648E+001   -1.73250E+001    3.81100E+003
            5550    3.30466E+006    3.53551E+006    3.53551E+006    5.37623E+005   -7.99669E+003    3.54351E+006   -1.35505E+006    3.20096E+006    3.53551E+006   -7.78421E+003    5.37411E+005    1.54144E+002   -3.17319E+001    1.07652E+004
            5551    3.30861E+006    3.52777E+006    3.52777E+006    5.26356E+005   -2.00174E+004    3.54779E+006   -1.34470E+006    3.20475E+006    3.52777E+006   -1.94875E+004    5.25826E+005    7.04392E+001   -1.95782E+001    1.70071E+004
            5552    3.31258E+006    3.52107E+006    3.52107E+006    5.24701E+005   -3.61250E+004    3.55719E+006   -1.33655E+006    3.20315E+006    3.52107E+006   -3.52046E+004    5.23781E+005   -2.15838E+002   -6.60322E+000    2.27010E+004
            5553    3.31819E+006    3.51699E+006    3.51699E+006    5.31970E+005   -5.58187E+004    3.57281E+006   -1.33105E+006    3.19790E+006    3.51699E+006   -5.42773E+004    5.30429E+005    2.70407E+002   -9.66086E+001    3.00597E+004
            5554    3.35109E+006    3.42688E+006    3.42688E+006    3.87128E+005   -1.66569E+005    3.59345E+006   -1.21581E+006    3.24577E+006    3.42688E+006    1.62789E+005    5.77707E+004   -4.92668E+001    1.45485E+002    2.71823E+005
            5555    3.35212E+006    3.43034E+006    3.43034E+006    4.02370E+005   -1.71780E+005    3.60212E+006   -1.22031E+006    3.23872E+006    3.43034E+006    1.02152E+005    1.28439E+005   -1.97982E+002    3.96360E+001    2.86774E+005
            5556    3.35260E+006    3.43711E+006    3.43711E+006    4.24217E+005   -1.74516E+005    3.61163E+006   -1.22894E+006    3.22901E+006    3.43711E+006    4.70800E+004    2.02622E+005   -2.22741E+002   -1.00978E+002    2.89088E+005
            5557    3.34839E+006    3.44875E+006    3.44875E+006    4.43221E+005   -1.60393E+005    3.60914E+006   -1.24386E+006    3.22256E+006    3.44875E+006   -1.27679E+003    2.84105E+005   -2.05500E+002   -2.38100E+002    2.65945E+005
            5558    3.34128E+006    3.46576E+006    3.46576E+006    4.66346E+005   -1.35548E+005    3.60131E+006   -1.26552E+006    3.21590E+006    3.46576E+006   -3.65034E+004    3.67301E+005   -8.77100E+001   -3.45986E+002    2.23170E+005
            5559    3.32841E+006    3.47190E+006    3.47190E+006    4.34199E+005   -8.59644E+004    3.55786E+006   -1.27338E+006    3.23506E+006    3.47190E+006   -2.67202E+004    3.74955E+005    2.81249E+001   -1.39844E+001    1.65248E+005
            5560    3.32050E+006    3.47405E+006    3.47405E+006    4.05992E+005   -5.14530E+004    3.52550E+006   -1.27620E+006    3.24847E+006    3.47405E+006   -1.54840E+004    3.70023E+005   -1.90084E+001   -5.66104E+001    1.23126E+005
            5561    3.31421E+006    3.47788E+006    3.47788E+006    3.87074E+005   -2.18073E+004    3.49968E+006   -1.28105E+006    3.25674E+006    3.47788E+006   -6.59052E+003    3.71857E+005   -2.00180E+001   -8.12386E+001    7.73970E+004
            5562    3.31018E+006    3.48268E+006    3.48268E+006    3.83369E+005   -4.24566E+003    3.48692E+006   -1.28727E+006    3.25853E+006    3.48268E+006   -2.35598E+003    3.81480E+005    1.09089E+001   -8.17662E+000    2.69981E+004
            5563    3.33614E+006    3.45095E+006    3.45095E+006    3.99652E+005   -1.11118E+005    3.56207E+006   -1.24650E+006    3.24642E+006    3.45095E+006   -7.93468E+003    2.96469E+005    7.02831E+001   -4.09513E+001    2.05076E+005
            5564    3.32702E+006    3.45058E+006    3.45058E+006    3.56470E+005   -6.85099E+004    3.51909E+006   -1.24618E+006    3.26512E+006    3.45058E+006   -3.92411E+003    2.91885E+005   -7.82610E+001   -2.15167E+001    1.52566E+005
            5565    3.32107E+006    3.45001E+006    3.45001E+006    3.17819E+005   -3.22027E+004    3.48222E+006   -1.24521E+006    3.27918E+006    3.45001E+006   -3.01191E+003    2.88628E+005   -5.04820E+001   -3.46165E+001    9.67745E+004
            5566    3.31720E+006    3.44966E+006    3.44966E+006    2.90651E+005   -5.83956E+003    3.45550E+006   -1.24482E+006    3.28719E+006    3.44966E+006   -1.91734E+003    2.86729E+005    1.99787E+000    1.67227E+001    3.38750E+004
            5567    3.34048E+006    3.43536E+006    3.43536E+006    3.67770E+005   -1.23598E+005    3.55895E+006   -1.22651E+006    3.25769E+006    3.43536E+006    2.72418E+004    2.16930E+005    6.91100E+001   -1.56827E+001    2.26639E+005
            5568    3.33258E+006    3.43048E+006    3.43048E+006    3.11763E+005   -8.11238E+004    3.51161E+006   -1.22037E+006    3.27987E+006    3.43048E+006    1.47028E+004    2.15936E+005   -1.09106E+002    2.93951E+001    1.68719E+005
            5569    3.32755E+006    3.42552E+006    3.42552E+006    2.55128E+005   -3.95924E+004    3.46511E+006   -1.21368E+006    3.29800E+006    3.42552E+006    6.08290E+003    2.09453E+005   -5.23151E+001    4.16430E+000    1.06655E+005
            5570    3.32583E+006    3.41761E+006    3.41761E+006    2.00288E+005   -7.02259E+003    3.42463E+006   -1.20363E+006    3.31124E+006    3.41761E+006   -2.54098E+002    1.93520E+005    1.07852E+001    2.24010E+001    3.68425E+004
            5571    3.34257E+006    3.42405E+006    3.42405E+006    3.39697E+005   -1.27565E+005    3.55161E+006   -1.21206E+006    3.26788E+006    3.42405E+006    6.99233E+004    1.42210E+005    8.06424E+001   -5.98075E+001    2.30818E+005
            5572    3.33464E+006    3.41682E+006    3.41682E+006    2.68973E+005   -7.75582E+004    3.49437E+006   -1.20274E+006    3.29377E+006    3.41682E+006    4.49016E+004    1.46513E+005   -2.03063E+002    1.09246E+002    1.65649E+005
            5573    3.33276E+006    3.40548E+006    3.40548E+006    1.97597E+005   -3.95039E+004    3.44498E+006   -1.18786E+006    3.31371E+006    3.40548E+006    1.78529E+004    1.40241E+005    5.70288E+001    2.72352E+000    1.01536E+005
            5574    3.33441E+006    3.39048E+006    3.39048E+006    1.22753E+005   -6.82215E+003    3.39730E+006   -1.16880E+006    3.32873E+006    3.39048E+006    2.85915E+003    1.13072E+005   -1.46318E+001    9.80309E+000    3.40694E+004
            5575    3.33917E+006    3.42093E+006    3.42093E+006    3.11516E+005   -1.08285E+005    3.52922E+006   -1.20805E+006    3.27901E+006    3.42093E+006    1.31507E+005    7.17238E+004    7.63741E+001   -1.20596E+001    2.07761E+005
            5576    3.33459E+006    3.40578E+006    3.40578E+006    2.17890E+005   -5.83332E+004    3.46411E+006   -1.18844E+006    3.30870E+006    3.40578E+006    7.24623E+004    8.70950E+004   -2.18490E+002    1.31373E+002    1.37918E+005
            5577    3.33621E+006    3.39037E+006    3.39037E+006    1.42899E+005   -2.80016E+004    3.41837E+006   -1.16842E+006    3.32634E+006    3.39037E+006    3.00278E+004    8.48696E+004    1.31775E+002   -3.45658E+001    8.09311E+004
            5578    3.34178E+006    3.37011E+006    3.37011E+006    6.36549E+004   -5.91966E+003    3.37603E+006   -1.14261E+006    3.34015E+006    3.37011E+006    5.49989E+003    5.22354E+004   -4.16483E+001    1.60588E+001    2.57702E+004
            5579    3.34634E+006    3.35875E+006    3.35875E+006    2.58561E+004   -8.91701E+002    3.35964E+006   -1.12790E+006    3.34610E+006    3.35875E+006    8.43185E+003    1.65325E+004   -4.35581E+000    8.33051E+000    1.27458E+004
            5580    3.34931E+006    3.35174E+006    3.35174E+006    4.85425E+003    2.07339E-001    3.35174E+006   -1.11886E+006    3.34931E+006    3.35174E+006    2.55174E+003    2.30272E+003    8.33303E+000   -4.51738E+000    2.42383E+003
            5581    3.33953E+006    3.37695E+006    3.37695E+006    8.65982E+004   -9.68003E+003    3.38663E+006   -1.15129E+006    3.33641E+006    3.37695E+006    3.66536E+004    4.02646E+004    2.98137E+001   -3.03365E+001    4.81052E+004
            5582    3.34557E+006    3.36070E+006    3.36070E+006    3.11761E+004   -6.91274E+002    3.36139E+006   -1.13039E+006    3.34523E+006    3.36070E+006    2.04655E+004    1.00193E+004    2.19081E+000   -4.62711E-001    1.50533E+004
            5583    3.33540E+006    3.39433E+006    3.39433E+006    1.60688E+005   -3.42753E+004    3.42860E+006   -1.17358E+006    3.32254E+006    3.39433E+006    8.51584E+004    4.12547E+004   -3.90313E+001    4.00038E+001    9.49781E+004
            5584    3.33901E+006    3.37799E+006    3.37799E+006    8.58196E+004   -5.96440E+003    3.38396E+006   -1.15262E+006    3.33617E+006    3.37799E+006    6.97233E+004    1.01320E+004    2.20066E+000   -1.70584E+001    3.49041E+004
            5585    3.33282E+006    3.41635E+006    3.41635E+006    2.54311E+005   -6.43555E+004    3.48070E+006   -1.20210E+006    3.29828E+006    3.41635E+006    1.63983E+005    2.59731E+004   -6.98686E+001    4.33979E+001    1.43616E+005
            5586    3.33076E+006    3.40279E+006    3.40279E+006    1.61167E+005   -1.04728E+004    3.41326E+006   -1.18449E+006    3.32079E+006    3.40279E+006    1.46104E+005    4.59024E+003   -2.82402E+001    2.05689E+001    4.85645E+004
            5587    3.32243E+006    3.43108E+006    3.43108E+006    2.43305E+005   -1.13423E+004    3.44242E+006   -1.22101E+006    3.30036E+006    3.43108E+006    2.31891E+005    7.18584E+001   -1.56625E+001    1.12324E+002    5.26907E+004
            5588    3.31489E+006    3.46386E+006    3.46386E+006    3.37725E+005   -1.20497E+004    3.47591E+006   -1.26318E+006    3.27299E+006    3.46386E+006    3.31240E+005   -5.56479E+003    5.12710E+001    8.85892E+001    4.71825E+004
            5589    3.32972E+006    3.43824E+006    3.43824E+006    3.24356E+005   -7.18570E+004    3.51010E+006   -1.23025E+006    3.27606E+006    3.43824E+006    2.48377E+005    4.12158E+003   -1.24061E+001   -8.92917E+001    1.55984E+005
            5590    3.32287E+006    3.46283E+006    3.46283E+006    3.78431E+005   -5.58117E+004    3.51864E+006   -1.26181E+006    3.25811E+006    3.46283E+006    3.34464E+005   -1.18453E+004   -3.30812E+000   -8.55444E+001    1.30993E+005
            5591    3.33871E+006    3.46017E+006    3.46017E+006    4.40326E+005   -1.25184E+005    3.58535E+006   -1.25844E+006    3.22831E+006    3.46017E+006    3.32344E+005   -1.72018E+004    2.25323E+002    1.84073E+002    2.22272E+005
            5592    3.34548E+006    3.43989E+006    3.43989E+006    4.04506E+005   -1.47112E+005    3.58700E+006   -1.23243E+006    3.24079E+006    3.43989E+006    2.41228E+005    1.61649E+004    1.04026E+002    2.12634E+002    2.51808E+005
            5593    3.34801E+006    3.42187E+006    3.42187E+006    3.56924E+005   -1.51140E+005    3.57301E+006   -1.20922E+006    3.25959E+006    3.42187E+006    7.96237E+004    1.26161E+005   -1.63080E+002    1.56339E+000    2.52964E+005
            5594    3.34472E+006    3.43743E+006    3.43743E+006    3.94509E+005   -1.43793E+005    3.58123E+006   -1.22938E+006    3.24511E+006    3.43743E+006    3.83836E+004    2.12333E+005   -1.85349E+002    3.53585E+001    2.54711E+005
            5595    3.34234E+006    3.45229E+006    3.45229E+006    4.30449E+005   -1.37707E+005    3.59000E+006   -1.24834E+006    3.23100E+006    3.45229E+006   -4.21280E+003    2.96954E+005   -1.41587E+002    2.53022E+001    2.40883E+005
            5596    3.33574E+006    3.46979E+006    3.46979E+006    4.58428E+005   -1.15778E+005    3.58556E+006   -1.27081E+006    3.22172E+006    3.46979E+006   -3.37160E+004    3.76365E+005   -5.04253E+001    3.56452E+000    2.00964E+005
            5597    3.31925E+006    3.47653E+006    3.47653E+006    4.08194E+005   -4.67049E+004    3.52324E+006   -1.27934E+006    3.24801E+006    3.47653E+006   -1.53216E+004    3.76811E+005    1.03074E+002    1.03365E+002    1.15288E+005
            5598    3.31110E+006    3.48165E+006    3.48165E+006    3.84151E+005   -8.11552E+003    3.48976E+006   -1.28589E+006    3.25821E+006    3.48165E+006   -3.92623E+003    3.79962E+005   -2.13862E+001    3.98031E+001    4.03208E+004
            5599    3.32554E+006    3.45173E+006    3.45173E+006    3.52374E+005   -6.12921E+004    3.51302E+006   -1.24760E+006    3.26691E+006    3.45173E+006   -5.64528E+003    2.96728E+005    1.86675E+002    1.16470E+002    1.41148E+005
            5600    3.31880E+006    3.44766E+006    3.44766E+006    2.92432E+005   -1.35240E+004    3.46119E+006   -1.24219E+006    3.28685E+006    3.44766E+006   -5.21976E+003    2.84128E+005   -2.48080E+001    3.64698E+000    4.97170E+004
            5601    3.33167E+006    3.42896E+006    3.42896E+006    2.99805E+005   -7.37449E+004    3.50270E+006   -1.21834E+006    3.28406E+006    3.42896E+006    8.62564E+003    2.17435E+005    1.71076E+002    9.49716E+000    1.54870E+005
            5602    3.32739E+006    3.41498E+006    3.41498E+006    1.99976E+005   -1.44397E+004    3.42942E+006   -1.20017E+006    3.31180E+006    3.41498E+006    2.91931E+000    1.85533E+005   -5.53579E+000   -1.11695E+001    5.37414E+004
            5603    3.33438E+006    3.41071E+006    3.41071E+006    2.40983E+005   -6.69536E+004    3.47766E+006   -1.19491E+006    3.30216E+006    3.41071E+006    4.13860E+004    1.32643E+005    1.27175E+002    9.81335E-001    1.47052E+005
            5604    3.33541E+006    3.38836E+006    3.38836E+006    1.17759E+005   -8.27114E+003    3.39664E+006   -1.16595E+006    3.33004E+006    3.38836E+006    9.46492E+003    1.00023E+005    9.36404E+000   -2.34789E+001    4.38260E+004
            5605    3.34274E+006    3.36799E+006    3.36799E+006    5.66646E+004   -5.30010E+003    3.37329E+006   -1.13979E+006    3.34145E+006    3.36799E+006    1.01979E+004    4.11667E+004    2.88338E+001   -1.47262E+001    2.68354E+004
            5606    3.34742E+006    3.35625E+006    3.35625E+006    1.77489E+004   -1.54239E+001    3.35627E+006   -1.12466E+006    3.34732E+006    3.35625E+006    9.12474E+003    8.60873E+003    2.96201E+000   -7.22359E+000    8.87841E+003
            5607    3.33525E+006    3.39412E+006    3.39412E+006    1.61067E+005   -3.47082E+004    3.42882E+006   -1.17349E+006    3.32228E+006    3.39412E+006    6.51410E+004    6.12176E+004    2.92130E+001   -3.42702E+001    9.78679E+004
            5608    3.34244E+006    3.36880E+006    3.36880E+006    5.88322E+004   -5.19944E+003    3.37400E+006   -1.14081E+006    3.34106E+006    3.36880E+006    4.40496E+004    9.58319E+003    6.56829E+000   -2.78690E+001    2.69820E+004
            5609    3.33461E+006    3.39062E+006    3.39062E+006    1.24017E+005   -8.07933E+003    3.39870E+006   -1.16885E+006    3.32872E+006    3.39062E+006    1.07274E+005    8.66365E+003    1.30068E+001   -9.93364E+000    4.39472E+004
            5610    3.32621E+006    3.41905E+006    3.41905E+006    2.11413E+005   -1.42373E+004    3.43329E+006   -1.20541E+006    3.30892E+006    3.41905E+006    1.98322E+005   -1.14668E+003   -9.67731E-001   -3.33349E+000    5.27497E+004
            5611    3.31710E+006    3.45444E+006    3.45444E+006    3.10292E+005   -1.20872E+004    3.46652E+006   -1.25088E+006    3.28158E+006    3.45444E+006    3.03320E+005   -5.11454E+003   -7.65451E+000    3.68572E+000    4.68960E+004
            5612    3.30958E+006    3.48948E+006    3.48948E+006    4.05058E+005   -6.72568E+003    3.49620E+006   -1.29594E+006    3.25120E+006    3.48948E+006    4.01691E+005   -3.35798E+003   -3.18574E+001   -1.08594E+001    3.70867E+004
            5613    3.33428E+006    3.41163E+006    3.41163E+006    2.44047E+005   -6.74821E+004    3.47911E+006   -1.19607E+006    3.30130E+006    3.41163E+006    1.41182E+005    3.53837E+004   -1.79358E+001   -1.16001E+002    1.46507E+005
            5614    3.33084E+006    3.43199E+006    3.43199E+006    3.06189E+005   -7.16702E+004    3.50366E+006   -1.22217E+006    3.28210E+006    3.43199E+006    2.30846E+005    3.67324E+003   -2.15869E+001   -1.17641E+002    1.50972E+005
            5615    3.32388E+006    3.45701E+006    3.45701E+006    3.62420E+005   -5.64655E+004    3.51347E+006   -1.25432E+006    3.26371E+006    3.45701E+006    3.13757E+005   -7.80180E+003   -1.23480E+002   -9.19550E+001    1.34225E+005
            5616    3.31738E+006    3.48292E+006    3.48292E+006    4.20933E+005   -4.13565E+004    3.52428E+006   -1.28750E+006    3.24373E+006    3.48292E+006    3.95287E+005   -1.57102E+004   -8.06605E+001    7.33516E+000    1.05822E+005
            5617    3.33225E+006    3.47775E+006    3.47775E+006    4.68269E+005   -1.03324E+005    3.58107E+006   -1.28090E+006    3.21917E+006    3.47775E+006    4.04916E+005   -3.99712E+004   -2.70015E+000   -5.69120E+001    1.79439E+005
            5618    3.34001E+006    3.45775E+006    3.45775E+006    4.37109E+005   -1.29214E+005    3.58696E+006   -1.25521E+006    3.22933E+006    3.45775E+006    3.23308E+005   -1.54131E+004   -2.39381E+001    3.73985E+001    2.26930E+005
            5619    3.34377E+006    3.44010E+006    3.44010E+006    3.98481E+005   -1.40377E+005    3.58048E+006   -1.23273E+006    3.24392E+006    3.44010E+006    2.34685E+005    2.34190E+004   -5.84097E+001    1.05437E+002    2.47858E+005
            5620    3.34805E+006    3.42229E+006    3.42229E+006    3.58320E+005   -1.51393E+005    3.57368E+006   -1.20974E+006    3.25904E+006    3.42229E+006    1.43727E+005    6.32005E+004   -2.80492E+001    1.27611E+002    2.51656E+005
            5621    3.30683E+006    3.51032E+006    3.51032E+006    4.65100E+005   -7.30769E+003    3.51762E+006   -1.32270E+006    3.22960E+006    3.51032E+006   -5.45561E+003    4.63248E+005    1.16031E+001    4.75121E+001    2.95213E+004
            5622    3.31339E+006    3.49996E+006    3.49996E+006    4.60822E+005   -3.23912E+004    3.53235E+006   -1.30946E+006    3.22926E+006    3.49996E+006   -1.85279E+004    4.46959E+005    8.54461E+000    1.54121E+002    8.15191E+004
            5623    3.32789E+006    3.48998E+006    3.48998E+006    4.88435E+005   -8.87447E+004    3.57873E+006   -1.29656E+006    3.21237E+006    3.48998E+006   -4.83378E+004    4.48028E+005    2.14569E+001    1.23101E+001    1.47273E+005
            5624    3.30409E+006    3.53212E+006    3.53212E+006    5.24610E+005   -4.64888E+003    3.53677E+006   -1.35069E+006    3.20664E+006    3.53212E+006   -4.08642E+003    5.24048E+005    5.07243E+001    4.95671E+001    1.72444E+004
            5625    3.30973E+006    3.51827E+006    3.51827E+006    5.04187E+005   -2.36545E+004    3.54193E+006   -1.33293E+006    3.21298E+006    3.51827E+006   -1.91152E+004    4.99647E+005   -9.15151E+001    8.56391E+001    4.87382E+004
            5626    3.32053E+006    3.50814E+006    3.50814E+006    5.14610E+005   -6.34634E+004    3.57161E+006   -1.31976E+006    3.20437E+006    3.50814E+006   -5.03057E+004    5.01453E+005    9.98444E+001   -1.18348E+001    8.62147E+004
            5627    3.30320E+006    3.54341E+006    3.54341E+006    5.56195E+005   -4.11774E+003    3.54753E+006   -1.36516E+006    3.19365E+006    3.54341E+006   -4.05757E+003    5.56135E+005    9.67617E+001    1.91100E+001    5.80572E+003
            5628    3.30793E+006    3.52836E+006    3.52836E+006    5.28951E+005   -1.95187E+004    3.54788E+006   -1.34593E+006    3.20323E+006    3.52836E+006   -1.90791E+004    5.28511E+005   -1.69036E+002    5.75146E+001    1.55214E+004
            5629    3.31668E+006    3.51853E+006    3.51853E+006    5.30461E+005   -5.01011E+004    3.56863E+006   -1.33296E+006    3.19936E+006    3.51853E+006   -4.86779E+004    5.29038E+005    1.49802E+002    1.81582E+001    2.87094E+004
            5630    3.30866E+006    3.49633E+006    3.49633E+006    4.25509E+005   -7.53284E+003    3.50386E+006   -1.30477E+006    3.24398E+006    3.49633E+006    4.22575E+005   -4.59904E+003    3.44251E+001    1.06815E+001   -3.55225E+004
            5631    3.31641E+006    3.48778E+006    3.48778E+006    4.33647E+005   -3.99901E+004    3.52777E+006   -1.29381E+006    3.23901E+006    3.48778E+006    4.11211E+005   -1.75540E+004    1.16313E+002   -6.20177E+001   -1.00614E+005
            5632    3.33120E+006    3.48059E+006    3.48059E+006    4.73542E+005   -1.00226E+005    3.58081E+006   -1.28463E+006    3.21720E+006    3.48059E+006    4.14308E+005   -4.09915E+004    1.62386E+001    1.80720E+001   -1.74581E+005
            5633    3.30521E+006    3.52252E+006    3.52252E+006    4.98797E+005   -6.07878E+003    3.52860E+006   -1.33841E+006    3.21673E+006    3.52252E+006    4.97701E+005   -4.98326E+003    4.10897E+001   -2.25863E+001   -2.34926E+004
            5634    3.31116E+006    3.51054E+006    3.51054E+006    4.85625E+005   -2.70512E+004    3.53759E+006   -1.32304E+006    3.22004E+006    3.51054E+006    4.77255E+005   -1.86811E+004    1.03972E+002    3.43050E+001   -6.49698E+004
            5635    3.32349E+006    3.50021E+006    3.50021E+006    5.02560E+005   -7.37463E+004    3.57396E+006   -1.30968E+006    3.20818E+006    3.50021E+006    4.78497E+005   -4.96833E+004   -2.05230E+001   -4.66474E+001   -1.15276E+005
            5636    3.30336E+006    3.53984E+006    3.53984E+006    5.46221E+005   -4.12397E+003    3.54396E+006   -1.36065E+006    3.19777E+006    3.53984E+006    5.46001E+005   -3.90425E+003    3.44511E+001   -5.91271E+001   -1.09943E+004
            5637    3.30859E+006    3.52497E+006    3.52497E+006    5.20909E+005   -2.12034E+004    3.54617E+006   -1.34156E+006    3.20638E+006    3.52497E+006    5.19171E+005   -1.94657E+004    8.26721E+001    1.10733E+002   -3.06438E+004
            5638    3.31762E+006    3.51517E+006    3.51517E+006    5.25116E+005   -5.38006E+004    3.56897E+006   -1.32883E+006    3.20101E+006    3.51517E+006    5.19879E+005   -4.85635E+004    1.27149E+001   -1.03440E+002   -5.48128E+004
            5639    3.30316E+006    3.54464E+006    3.54464E+006    5.60131E+005   -4.39854E+003    3.54904E+006   -1.36679E+006    3.19191E+006    3.54464E+006    5.60128E+005   -4.39507E+003    1.53004E+001   -7.13696E+001    1.40069E+003
            5640    3.30776E+006    3.52973E+006    3.52973E+006    5.32547E+005   -1.92179E+004    3.54895E+006   -1.34769E+006    3.20176E+006    3.52973E+006    5.32527E+005   -1.91981E+004    1.46328E+001    1.27915E+002    3.30994E+003
            5641    3.31611E+006    3.51973E+006    3.51973E+006    5.32448E+005   -4.84313E+004    3.56817E+006   -1.33458E+006    3.19862E+006    3.51973E+006    5.32440E+005   -4.84229E+004   -8.29203E+000   -1.06155E+002    2.20323E+003
            5642    3.30352E+006    3.53724E+006    3.53724E+006    5.38615E+005   -3.98799E+003    3.54123E+006   -1.35729E+006    3.20096E+006    3.53724E+006    5.38282E+005   -3.65459E+003   -1.67441E+001   -7.03632E+001    1.34459E+004
            5643    3.30902E+006    3.52279E+006    3.52279E+006    5.15528E+005   -2.21230E+004    3.54492E+006   -1.33873E+006    3.20853E+006    3.52279E+006    5.12841E+005   -1.94364E+004   -2.23417E+001    1.42184E+002    3.79104E+004
            5644    3.31793E+006    3.51423E+006    3.51423E+006    5.22982E+005   -5.45514E+004    3.56878E+006   -1.32755E+006    3.20190E+006    3.51423E+006    5.16994E+005   -4.85641E+004    1.65098E+001   -1.34359E+002    5.84977E+004
            5645    3.30592E+006    3.51727E+006    3.51727E+006    4.84288E+005   -6.68554E+003    3.52395E+006   -1.33162E+006    3.22236E+006    3.51727E+006    4.82897E+005   -5.29459E+003   -2.30395E+001   -5.43595E+001    2.60957E+004
            5646    3.31188E+006    3.50630E+006    3.50630E+006    4.74992E+005   -2.84990E+004    3.53480E+006   -1.31760E+006    3.22409E+006    3.50630E+006    4.64633E+005   -1.81410E+004   -1.01433E+002    9.94873E+001    7.14694E+004
            5647    3.32413E+006    3.49866E+006    3.49866E+006    4.99314E+005   -7.53402E+004    3.57400E+006   -1.30754E+006    3.20952E+006    3.49866E+006    4.73047E+005   -4.90732E+004   -6.16775E+000   -1.05497E+002    1.20019E+005
            5648    3.32800E+006    3.49001E+006    3.49001E+006    4.88523E+005   -8.89293E+004    3.57894E+006   -1.29653E+006    3.21238E+006    3.49001E+006   -4.85912E+004    4.48185E+005    4.36734E+001   -1.48720E+001   -1.47194E+005
            5649    3.31329E+006    3.50018E+006    3.50018E+006    4.61052E+005   -3.20069E+004    3.53218E+006   -1.30974E+006    3.22920E+006    3.50018E+006   -1.83360E+004    4.47381E+005   -2.27333E+001   -1.57334E+002   -8.09547E+004
            5650    3.30682E+006    3.51067E+006    3.51067E+006    4.66111E+005   -7.35884E+003    3.51803E+006   -1.32314E+006    3.22924E+006    3.51067E+006   -5.53234E+003    4.64285E+005    2.58488E+001   -4.53683E+001   -2.93506E+004
            5651    3.32055E+006    3.50831E+006    3.50831E+006    5.14759E+005   -6.33166E+004    3.57163E+006   -1.31992E+006    3.20439E+006    3.50831E+006   -5.03162E+004    5.01758E+005    1.36260E+002    1.49093E+001   -8.57098E+004
            5652    3.30971E+006    3.51823E+006    3.51823E+006    5.03985E+005   -2.35714E+004    3.54180E+006   -1.33288E+006    3.21307E+006    3.51823E+006   -1.90257E+004    4.99439E+005   -1.34745E+002   -7.24639E+001   -4.87592E+004
            5653    3.30406E+006    3.53232E+006    3.53232E+006    5.24989E+005   -4.50946E+003    3.53683E+006   -1.35093E+006    3.20651E+006    3.53232E+006   -3.95370E+003    5.24433E+005    7.23150E+001   -4.25849E+001   -1.71453E+004
            5654    3.31665E+006    3.51866E+006    3.51866E+006    5.30494E+005   -4.98665E+004    3.56852E+006   -1.33310E+006    3.19940E+006    3.51866E+006   -4.85119E+004    5.29139E+005    1.62964E+002   -1.36077E+001   -2.80060E+004
            5655    3.30788E+006    3.52835E+006    3.52835E+006    5.28775E+005   -1.93662E+004    3.54771E+006   -1.34592E+006    3.20331E+006    3.52835E+006   -1.88974E+004    5.28306E+005   -1.87643E+002   -4.02361E+001   -1.60235E+004
            5656    3.30322E+006    3.54342E+006    3.54342E+006    5.56216E+005   -4.13946E+003    3.54755E+006   -1.36516E+006    3.19365E+006    3.54342E+006   -4.07795E+003    5.56155E+005    1.06801E+002   -6.51642E+000   -5.87054E+003
            5657    3.34216E+006    3.36979E+006    3.36979E+006    6.20284E+004   -5.74529E+003    3.37553E+006   -1.14202E+006    3.34062E+006    3.36979E+006    5.61452E+003    5.06686E+004    4.10989E+001    3.96950E+000   -2.53150E+004
            5658    3.33502E+006    3.38957E+006    3.38957E+006    1.20313E+005   -7.54557E+003    3.39712E+006   -1.16745E+006    3.32950E+006    3.38957E+006    2.18234E+003    1.10585E+005    2.09506E+001   -1.03582E+001   -3.38993E+004
            5659    3.32613E+006    3.41700E+006    3.41700E+006    1.98378E+005   -7.12018E+003    3.42412E+006   -1.20275E+006    3.31180E+006    3.41700E+006   -5.34773E+002    1.91793E+005   -1.62530E+001   -2.47059E-001   -3.61928E+004
            5660    3.31724E+006    3.44970E+006    3.44970E+006    2.90301E+005   -5.56794E+003    3.45526E+006   -1.24481E+006    3.28736E+006    3.44970E+006   -1.74184E+003    2.86475E+005   -1.24292E+001    2.44394E+001   -3.34273E+004
            5661    3.31027E+006    3.48270E+006    3.48270E+006    3.83428E+005   -4.39644E+003    3.48710E+006   -1.28724E+006    3.25857E+006    3.48270E+006   -2.54347E+003    3.81575E+005   -7.67081E+000    4.79750E+001   -2.67431E+004
            5662    3.33596E+006    3.39019E+006    3.39019E+006    1.42792E+005   -2.77885E+004    3.41798E+006   -1.16840E+006    3.32613E+006    3.39019E+006    3.04037E+004    8.45996E+004   -1.31092E+002   -5.75919E+001   -8.08709E+004
            5663    3.33250E+006    3.40497E+006    3.40497E+006    1.96096E+005   -3.87429E+004    3.44371E+006   -1.18744E+006    3.31381E+006    3.40497E+006    1.76079E+004    1.39746E+005   -1.20234E+002   -3.73773E+001   -1.00289E+005
            5664    3.32730E+006    3.42516E+006    3.42516E+006    2.53876E+005   -3.88276E+004    3.46398E+006   -1.21340E+006    3.29815E+006    3.42516E+006    6.49233E+003    2.08556E+005   -4.48343E+001    2.14593E-001   -1.05884E+005
            5665    3.32088E+006    3.44993E+006    3.44993E+006    3.17624E+005   -3.18937E+004    3.48182E+006   -1.24522E+006    3.27912E+006    3.44993E+006   -3.04905E+003    2.88780E+005   -2.94745E+001    2.45687E+001   -9.61754E+004
            5666    3.31404E+006    3.47805E+006    3.47805E+006    3.87021E+005   -2.11923E+004    3.49924E+006   -1.28129E+006    3.25676E+006    3.47805E+006   -6.17140E+003    3.72000E+005   -6.85795E+000    3.41329E+001   -7.68513E+004
            5667    3.33456E+006    3.40597E+006    3.40597E+006    2.18891E+005   -5.87178E+004    3.46469E+006   -1.18871E+006    3.30841E+006    3.40597E+006    7.32965E+004    8.68765E+004    7.68587E+001    2.91051E+001   -1.38638E+005
            5668    3.33473E+006    3.41686E+006    3.41686E+006    2.68548E+005   -7.73123E+004    3.49418E+006   -1.20270E+006    3.29401E+006    3.41686E+006    4.44227E+004    1.46813E+005    7.36850E+001    4.15177E+001   -1.65178E+005
            5669    3.33266E+006    3.43095E+006    3.43095E+006    3.11878E+005   -8.05527E+004    3.51150E+006   -1.22076E+006    3.28007E+006    3.43095E+006    1.37082E+004    2.17617E+005    1.54640E+001    2.39574E+001   -1.67648E+005
            5670    3.32711E+006    3.45105E+006    3.45105E+006    3.56662E+005   -6.80105E+004    3.51906E+006   -1.24657E+006    3.26530E+006    3.45105E+006   -4.36503E+003    2.93016E+005    1.44840E+001    3.66143E+001   -1.51584E+005
            5671    3.32040E+006    3.47430E+006    3.47430E+006    4.05829E+005   -5.07610E+004    3.52506E+006   -1.27646E+006    3.24864E+006    3.47430E+006   -1.54390E+004    3.70507E+005   -5.02845E+000    4.12127E+001   -1.21984E+005
            5672    3.33924E+006    3.42098E+006    3.42098E+006    3.11307E+005   -1.08190E+005    3.52917E+006   -1.20803E+006    3.27917E+006    3.42098E+006    1.31206E+005    7.19105E+004   -9.94242E+001   -6.24077E+001   -2.07643E+005
            5673    3.34256E+006    3.42433E+006    3.42433E+006    3.40209E+005   -1.27429E+005    3.55175E+006   -1.21237E+006    3.26775E+006    3.42433E+006    6.94177E+004    1.43363E+005   -1.39939E+002   -5.23795E+001   -2.30877E+005
            5674    3.34026E+006    3.43571E+006    3.43571E+006    3.68396E+005   -1.23051E+005    3.55876E+006   -1.22702E+006    3.25743E+006    3.43571E+006    2.62993E+004    2.19046E+005   -1.39147E+002    5.62442E+001   -2.26036E+005
            5675    3.33598E+006    3.45123E+006    3.45123E+006    4.00395E+005   -1.10862E+005    3.56210E+006   -1.24692E+006    3.24608E+006    3.45123E+006   -8.31403E+003    2.97847E+005   -1.18220E+002    1.00448E+002   -2.04725E+005
            5676    3.32838E+006    3.47197E+006    3.47197E+006    4.34214E+005   -8.58099E+004    3.55778E+006   -1.27346E+006    3.23508E+006    3.47197E+006   -2.66444E+004    3.75049E+005   -5.33028E+001    1.58594E+002   -1.65127E+005
            5677    3.34137E+006    3.46562E+006    3.46562E+006    4.66493E+005   -1.36016E+005    3.60164E+006   -1.26537E+006    3.21573E+006    3.46562E+006   -3.63850E+004    3.66862E+005    3.63416E+000   -7.99272E+001   -2.23835E+005
            5678    3.34855E+006    3.44899E+006    3.44899E+006    4.43488E+005   -1.60412E+005    3.60940E+006   -1.24402E+006    3.22260E+006    3.44899E+006   -4.98099E+002    2.83574E+005    9.01386E+001   -4.47520E+001   -2.66458E+005
            5679    3.35271E+006    3.43715E+006    3.43715E+006    4.24162E+005   -1.74609E+005    3.61176E+006   -1.22890E+006    3.22912E+006    3.43715E+006    4.76273E+004    2.01926E+005    1.30736E+002    2.45746E+001   -2.89274E+005
            5680    3.35225E+006    3.43057E+006    3.43057E+006    4.02503E+005   -1.71694E+005    3.60226E+006   -1.22046E+006    3.23883E+006    3.43057E+006    1.02405E+005    1.28404E+005    1.61571E+002    6.24657E+001   -2.86804E+005
            5681    3.35117E+006    3.42708E+006    3.42708E+006    3.87438E+005   -1.66566E+005    3.59365E+006   -1.21599E+006    3.24574E+006    3.42708E+006    1.63253E+005    5.76195E+004    8.33689E+001    7.98540E+001   -2.71920E+005
            5682    3.34548E+006    3.43983E+006    3.43983E+006    4.04265E+005   -1.47057E+005    3.58689E+006   -1.23235E+006    3.24090E+006    3.43983E+006    2.41773E+005    1.54343E+004    3.53090E+001    1.01932E+002   -2.51360E+005
            5683    3.33863E+006    3.46017E+006    3.46017E+006    4.40056E+005   -1.24897E+005    3.58506E+006   -1.25844E+006    3.22845E+006    3.46017E+006    3.32880E+005   -1.77202E+004   -7.81778E+000    8.60531E+001   -2.21501E+005
            5684    3.32296E+006    3.46263E+006    3.46263E+006    3.77966E+005   -5.59896E+004    3.51862E+006   -1.26154E+006    3.25830E+006    3.46263E+006    3.33245E+005   -1.12683E+004    8.45928E+001   -1.16734E+002   -1.31936E+005
            5685    3.31526E+006    3.46315E+006    3.46315E+006    3.35609E+005   -1.23780E+004    3.47553E+006   -1.26213E+006    3.27379E+006    3.46315E+006    3.29103E+005   -5.87266E+003    1.27199E+001    1.60803E+001   -4.71322E+004
            5686    3.32976E+006    3.43808E+006    3.43808E+006    3.24089E+005   -7.20200E+004    3.51010E+006   -1.23005E+006    3.27613E+006    3.43808E+006    2.47649E+005    4.41965E+003    3.91202E+001   -1.19369E+002   -1.56318E+005
            5687    3.32272E+006    3.43070E+006    3.43070E+006    2.42224E+005   -1.16845E+004    3.44239E+006   -1.22041E+006    3.30078E+006    3.43070E+006    2.30830E+005   -2.90507E+002   -1.51125E+000   -3.82331E-002   -5.25663E+004
            5688    3.33075E+006    3.40262E+006    3.40262E+006    1.61177E+005   -1.07616E+004    3.41339E+006   -1.18435E+006    3.32074E+006    3.40262E+006    1.46020E+005    4.39490E+003   -1.10995E+001   -3.34515E+001   -4.87470E+004
            5689    3.33893E+006    3.37807E+006    3.37807E+006    8.56893E+004   -5.55207E+003    3.38362E+006   -1.15273E+006    3.33613E+006    3.37807E+006    6.95259E+004    1.06113E+004   -1.52790E+001   -1.67466E+001   -3.48355E+004
            5690    3.34563E+006    3.36053E+006    3.36053E+006    3.07475E+004   -7.30062E+002    3.36126E+006   -1.13018E+006    3.34530E+006    3.36053E+006    2.04101E+004    9.60739E+003    9.34654E-001   -1.18834E+000   -1.47829E+004
            5691    3.34930E+006    3.35175E+006    3.35175E+006    4.90234E+003    1.73782E+001    3.35174E+006   -1.11889E+006    3.34929E+006    3.35175E+006    2.60222E+003    2.31750E+003   -1.69225E+000   -5.55359E+000   -2.43833E+003
            5692    3.33284E+006    3.41643E+006    3.41643E+006    2.54299E+005   -6.42396E+004    3.48067E+006   -1.20216E+006    3.29833E+006    3.41643E+006    1.64084E+005    2.59756E+004    2.24063E+000   -3.50307E+001   -1.43521E+005
            5693    3.33518E+006    3.39439E+006    3.39439E+006    1.61504E+005   -3.44448E+004    3.42884E+006   -1.17382E+006    3.32219E+006    3.39439E+006    8.56844E+004    4.13749E+004   -2.51855E+001   -2.53414E+001   -9.54367E+004
            5694    3.33949E+006    3.37704E+006    3.37704E+006    8.70344E+004   -9.83479E+003    3.38687E+006   -1.15141E+006    3.33633E+006    3.37704E+006    3.70084E+004    4.01912E+004   -2.72287E+001   -2.21401E+001   -4.84084E+004
            5695    3.34653E+006    3.35835E+006    3.35835E+006    2.47983E+004   -1.01150E+003    3.35936E+006   -1.12738E+006    3.34631E+006    3.35835E+006    7.87284E+003    1.59139E+004    6.71707E+000   -9.51899E-001   -1.22626E+004
            5696    3.33547E+006    3.38820E+006    3.38820E+006    1.17301E+005   -8.28628E+003    3.39649E+006   -1.16574E+006    3.33014E+006    3.38820E+006    9.45327E+003    9.95615E+004    8.25407E+000    2.63204E+001   -4.37398E+004
            5697    3.32734E+006    3.41518E+006    3.41518E+006    2.00521E+005   -1.44219E+004    3.42960E+006   -1.20043E+006    3.31166E+006    3.41518E+006   -1.66408E+001    1.86116E+005   -1.02095E+001    8.22336E+000   -5.37475E+004
            5698    3.31862E+006    3.44851E+006    3.44851E+006    2.94821E+005   -1.35186E+004    3.46203E+006   -1.24327E+006    3.28616E+006    3.44851E+006   -5.36677E+003    2.86669E+005   -2.91497E+001   -9.53967E+000   -4.94680E+004
            5699    3.31092E+006    3.48262E+006    3.48262E+006    3.86633E+005   -7.88645E+003    3.49050E+006   -1.28712E+006    3.25741E+006    3.48262E+006   -3.78804E+003    3.82534E+005   -2.13726E+001   -4.63573E+001   -4.00013E+004
            5700    3.33437E+006    3.41082E+006    3.41082E+006    2.41489E+005   -6.71267E+004    3.47794E+006   -1.19506E+006    3.30200E+006    3.41082E+006    4.13477E+004    1.33015E+005    1.37095E+002   -4.67507E+000   -1.47344E+005
            5701    3.33165E+006    3.42914E+006    3.42914E+006    3.00415E+005   -7.38244E+004    3.50297E+006   -1.21858E+006    3.28386E+006    3.42914E+006    8.17870E+003    2.18412E+005    1.86363E+002   -1.28891E+001   -1.54804E+005
            5702    3.32542E+006    3.45208E+006    3.45208E+006    3.52977E+005   -6.09150E+004    3.51300E+006   -1.24805E+006    3.26672E+006    3.45208E+006   -5.93288E+003    2.97995E+005    1.97652E+002   -1.29576E+002   -1.40476E+005
            5703    3.31911E+006    3.47690E+006    3.47690E+006    4.08626E+005   -4.61511E+004    3.52305E+006   -1.27979E+006    3.24790E+006    3.47690E+006   -1.53068E+004    3.77781E+005    9.95115E+001   -1.05885E+002   -1.14350E+005
            5704    3.33583E+006    3.46980E+006    3.46980E+006    4.58709E+005   -1.16076E+005    3.58588E+006   -1.27081E+006    3.22158E+006    3.46980E+006   -3.37204E+004    3.76353E+005   -4.38779E+001   -7.73557E+000   -2.01381E+005
            5705    3.34238E+006    3.45240E+006    3.45240E+006    4.30844E+005   -1.37831E+005    3.59023E+006   -1.24847E+006    3.23083E+006    3.45240E+006   -4.00715E+003    2.97020E+005   -1.49516E+002   -2.94819E+001   -2.41233E+005
            5706    3.34465E+006    3.43748E+006    3.43748E+006    3.94431E+005   -1.43545E+005    3.58103E+006   -1.22946E+006    3.24516E+006    3.43748E+006    3.86830E+004    2.12202E+005   -1.96883E+002   -4.63132E+001   -2.54612E+005
            5707    3.34805E+006    3.42175E+006    3.42175E+006    3.56787E+005   -1.51309E+005    3.57306E+006   -1.20908E+006    3.25962E+006    3.42175E+006    7.89627E+004    1.26515E+005   -1.69817E+002   -2.11785E+000   -2.52933E+005
            5708    3.34798E+006    3.42242E+006    3.42242E+006    3.58521E+005   -1.51186E+005    3.57361E+006   -1.20992E+006    3.25897E+006    3.42242E+006    1.43509E+005    6.38255E+004   -2.47488E+001   -1.30276E+002   -2.51720E+005
            5709    3.34377E+006    3.44012E+006    3.44012E+006    3.98691E+005   -1.40459E+005    3.58058E+006   -1.23279E+006    3.24381E+006    3.44012E+006    2.35132E+005    2.31000E+004   -5.73952E+001   -9.86836E+001   -2.47853E+005
            5710    3.33991E+006    3.45776E+006    3.45776E+006    4.36973E+005   -1.28966E+005    3.58672E+006   -1.25525E+006    3.22938E+006    3.45776E+006    3.23711E+005   -1.57037E+004   -2.11483E+001   -4.99157E+001   -2.26431E+005
            5711    3.33218E+006    3.47757E+006    3.47757E+006    4.67748E+005   -1.03184E+005    3.58076E+006   -1.28071E+006    3.21936E+006    3.47757E+006    4.04447E+005   -3.98834E+004   -1.13733E+001    3.90022E+001   -1.79258E+005
            5712    3.31750E+006    3.48289E+006    3.48289E+006    4.21438E+005   -4.19271E+004    3.52482E+006   -1.28747E+006    3.24350E+006    3.48289E+006    3.95680E+005   -1.61691E+004   -7.76481E+001    1.59305E+001   -1.06169E+005
            5713    3.30974E+006    3.48895E+006    3.48895E+006    4.04073E+005   -7.20311E+003    3.49616E+006   -1.29527E+006    3.25150E+006    3.48895E+006    4.00615E+005   -3.74460E+003   -3.13394E+001    4.31898E+000   -3.75558E+004
            5714    3.32395E+006    3.45685E+006    3.45685E+006    3.62321E+005   -5.67691E+004    3.51362E+006   -1.25413E+006    3.26372E+006    3.45685E+006    3.13260E+005   -7.70886E+003   -1.20014E+002    1.05024E+002   -1.34736E+005
            5715    3.31703E+006    3.45471E+006    3.45471E+006    3.11068E+005   -1.20483E+004    3.46676E+006   -1.25124E+006    3.28134E+006    3.45471E+006    3.03987E+005   -4.96723E+003   -4.73849E+000   -3.68895E+000   -4.73061E+004
            5716    3.33083E+006    3.43199E+006    3.43199E+006    3.06198E+005   -7.16520E+004    3.50364E+006   -1.22218E+006    3.28209E+006    3.43199E+006    2.30359E+005    4.18695E+003   -1.53819E+001    1.13607E+002   -1.51341E+005
            5717    3.32600E+006    3.41977E+006    3.41977E+006    2.13460E+005   -1.42286E+004    3.43400E+006   -1.20633E+006    3.30840E+006    3.41977E+006    2.00389E+005   -1.15761E+003    7.80874E-001    9.38532E+000   -5.29647E+004
            5718    3.33425E+006    3.41168E+006    3.41168E+006    2.44156E+005   -6.74201E+004    3.47910E+006   -1.19614E+006    3.30126E+006    3.41168E+006    1.41148E+005    3.55875E+004   -1.45516E+001    1.16374E+002   -1.46575E+005
            5719    3.33445E+006    3.39111E+006    3.39111E+006    1.25353E+005   -8.02922E+003    3.39914E+006   -1.16948E+006    3.32844E+006    3.39111E+006    1.08602E+005    8.72115E+003    1.35823E+001    1.23042E+001   -4.41998E+004
            5720    3.34236E+006    3.36901E+006    3.36901E+006    5.92716E+004   -5.04844E+003    3.37405E+006   -1.14108E+006    3.34096E+006    3.36901E+006    4.45604E+004    9.66274E+003    3.90660E+000    2.89611E+001   -2.70149E+004
            5721    3.34743E+006    3.35625E+006    3.35625E+006    1.77375E+004   -1.58852E+001    3.35627E+006   -1.12466E+006    3.34732E+006    3.35625E+006    9.28897E+003    8.43263E+003    1.42605E+000    9.65455E+000   -8.86635E+003
            5722    3.33522E+006    3.39418E+006    3.39418E+006    1.61225E+005   -3.46842E+004    3.42886E+006   -1.17357E+006    3.32224E+006    3.39418E+006    6.52447E+004    6.12964E+004    3.08201E+001    3.75381E+001   -9.79349E+004
            5723    3.34283E+006    3.36778E+006    3.36778E+006    5.61931E+004   -5.43402E+003    3.37321E+006   -1.13951E+006    3.34155E+006    3.36778E+006    1.01175E+004    4.06417E+004    2.92725E+001    1.81798E+001   -2.67684E+004
            5724    3.33123E+006    3.48718E+006    3.48718E+006    4.92532E+005   -1.00887E+005    3.58806E+006   -1.29294E+006    3.20907E+006    3.48718E+006   -5.24453E+004    4.44091E+005   -1.00309E+002   -1.16663E+002   -1.62479E+005
            5725    3.32092E+006    3.49354E+006    3.49354E+006    4.71364E+005   -6.16591E+004    3.55520E+006   -1.30108E+006    3.22257E+006    3.49354E+006   -3.38937E+004    4.43599E+005    3.77366E+001    1.44744E+002   -1.18443E+005
            5726    3.31406E+006    3.49802E+006    3.49802E+006    4.57148E+005   -3.43341E+004    3.53235E+006   -1.30694E+006    3.23054E+006    3.49802E+006   -1.83249E+004    4.41139E+005   -2.56602E+001    3.79659E+001   -8.72464E+004
            5727    3.30908E+006    3.50418E+006    3.50418E+006    4.54623E+005   -1.43821E+004    3.51856E+006   -1.31481E+006    3.23304E+006    3.50418E+006   -7.97334E+003    4.48214E+005    2.19948E+000    3.58371E+001   -5.44489E+004
            5728    3.30548E+006    3.51269E+006    3.51269E+006    4.67151E+005   -2.49159E+003    3.51519E+006   -1.32578E+006    3.22914E+006    3.51269E+006   -1.72884E+003    4.66389E+005    3.71933E+000    5.95144E+001   -1.89114E+004
            5729    3.32280E+006    3.50616E+006    3.50616E+006    5.17602E+005   -7.19686E+004    3.57812E+006   -1.31726E+006    3.20194E+006    3.50616E+006   -5.62194E+004    5.01853E+005   -1.55621E+002   -6.69011E+001   -9.50645E+004
            5730    3.31547E+006    3.51141E+006    3.51141E+006    5.04933E+005   -4.44206E+004    3.55583E+006   -1.32397E+006    3.21067E+006    3.51141E+006   -3.53752E+004    4.95887E+005    1.15059E+002    1.10141E+002   -6.99091E+004
            5731    3.31016E+006    3.51669E+006    3.51669E+006    5.01374E+005   -2.52047E+004    3.54189E+006   -1.33095E+006    3.21390E+006    3.51669E+006   -2.00480E+004    4.96218E+005   -4.79500E+001    2.81083E+001   -5.18541E+004
            5732    3.30605E+006    3.52455E+006    3.52455E+006    5.08165E+005   -9.98376E+003    3.53453E+006   -1.34091E+006    3.21279E+006    3.52455E+006   -7.92443E+003    5.06106E+005    4.91925E+000    2.63793E+001   -3.26006E+004
            5733    3.30327E+006    3.53422E+006    3.53422E+006    5.28154E+005   -2.11605E+003    3.53633E+006   -1.35342E+006    3.20541E+006    3.53422E+006   -1.87415E+003    5.27912E+005    7.52233E+000    4.55628E+001   -1.13233E+004
            5734    3.31831E+006    3.51680E+006    3.51680E+006    5.32258E+005   -5.64699E+004    3.57327E+006   -1.33086E+006    3.19763E+006    3.51680E+006   -5.49513E+004    5.30739E+005   -1.93889E+002   -3.31313E+001   -2.98610E+004
            5735    3.31283E+006    3.52136E+006    3.52136E+006    5.25104E+005   -3.63050E+004    3.55767E+006   -1.33672E+006    3.20318E+006    3.52136E+006   -3.53661E+004    5.24165E+005    1.53711E+002    2.76769E+001   -2.29396E+004
            5736    3.30802E+006    3.52725E+006    3.52725E+006    5.26164E+005   -1.97746E+004    3.54702E+006   -1.34455E+006    3.20430E+006    3.52725E+006   -1.92457E+004    5.25635E+005   -5.92690E+001    6.50704E+000   -1.69845E+004
            5737    3.30482E+006    3.53550E+006    3.53550E+006    5.37636E+005   -8.28583E+003    3.54379E+006   -1.35495E+006    3.20101E+006    3.53550E+006   -8.07319E+003    5.37423E+005   -4.38127E-001    8.13783E+000   -1.07719E+004
            5738    3.30235E+006    3.54589E+006    3.54589E+006    5.60866E+005   -1.55780E+003    3.54745E+006   -1.36840E+006    3.19193E+006    3.54589E+006   -1.53172E+003    5.60840E+005    9.21138E+000    1.64474E+001   -3.82966E+003
            5739    3.33138E+006    3.48053E+006    3.48053E+006    4.73722E+005   -1.00723E+005    3.58125E+006   -1.28451E+006    3.21711E+006    3.48053E+006    4.14217E+005   -4.12189E+004    8.34409E+000    3.29457E+000    1.75046E+005
            5740    3.31626E+006    3.48814E+006    3.48814E+006    4.34159E+005   -3.94702E+004    3.52761E+006   -1.29428E+006    3.23886E+006    3.48814E+006    4.12073E+005   -1.73841E+004    1.24629E+002    3.47420E+001    9.98640E+004
            5741    3.30856E+006    3.49698E+006    3.49698E+006    4.27253E+005   -7.43596E+003    3.50442E+006   -1.30560E+006    3.24339E+006    3.49698E+006    4.24372E+005   -4.55557E+003    3.61177E+001   -1.84062E+000    3.52672E+004
            5742    3.32354E+006    3.50029E+006    3.50029E+006    5.02640E+005   -7.37533E+004    3.57404E+006   -1.30972E+006    3.20819E+006    3.50029E+006    4.78626E+005   -4.97394E+004   -1.66949E+001    7.07469E+001    1.15173E+005
            5743    3.31114E+006    3.51065E+006    3.51065E+006    4.85841E+005   -2.69757E+004    3.53763E+006   -1.32317E+006    3.21997E+006    3.51065E+006    4.77517E+005   -1.86516E+004    1.02385E+002   -6.38073E+001    6.48028E+004
            5744    3.30517E+006    3.52300E+006    3.52300E+006    5.00079E+005   -6.04431E+003    3.52904E+006   -1.33901E+006    3.21625E+006    3.52300E+006    4.99009E+005   -4.97344E+003    4.18793E+001    3.46882E+001    2.32561E+004
            5745    3.31773E+006    3.51519E+006    3.51519E+006    5.25338E+005   -5.40804E+004    3.56927E+006   -1.32882E+006    3.20091E+006    3.51519E+006    5.20206E+005   -4.89478E+004    5.08554E+000    1.13230E+002    5.42920E+004
            5746    3.30864E+006    3.52494E+006    3.52494E+006    5.20989E+005   -2.13705E+004    3.54631E+006   -1.34152E+006    3.20634E+006    3.52494E+006    5.19262E+005   -1.96439E+004    7.24151E+001   -1.24525E+002    3.05524E+004
            5747    3.30335E+006    3.54003E+006    3.54003E+006    5.46684E+005   -4.09106E+003    3.54412E+006   -1.36087E+006    3.19759E+006    3.54003E+006    5.46472E+005   -3.87896E+003    2.69526E+001    6.51397E+001    1.08061E+004
            5748    3.31608E+006    3.51973E+006    3.51973E+006    5.32206E+005   -4.82480E+004    3.56798E+006   -1.33456E+006    3.19877E+006    3.51973E+006    5.32190E+005   -4.82323E+004   -7.12466E+000    1.21183E+002   -3.02225E+003
            5749    3.30772E+006    3.52971E+006    3.52971E+006    5.32315E+005   -1.90433E+004    3.54875E+006   -1.34766E+006    3.20188E+006    3.52971E+006    5.32294E+005   -1.90218E+004   -1.83257E+000   -1.42603E+002   -3.45038E+003
            5750    3.30315E+006    3.54462E+006    3.54462E+006    5.59991E+005   -4.33437E+003    3.54895E+006   -1.36676E+006    3.19198E+006    3.54462E+006    5.59987E+005   -4.33052E+003    5.98296E+000    7.91804E+001   -1.47448E+003
            5751    3.31802E+006    3.51408E+006    3.51408E+006    5.23036E+005   -5.49706E+004    3.56905E+006   -1.32738E+006    3.20181E+006    3.51408E+006    5.16811E+005   -4.87457E+004    5.92352E+000    1.25619E+002   -5.96598E+004
            5752    3.30905E+006    3.52264E+006    3.52264E+006    5.15182E+005   -2.22104E+004    3.54485E+006   -1.33854E+006    3.20866E+006    3.52264E+006    5.12489E+005   -1.95165E+004   -3.37064E+001   -1.29683E+002   -3.79530E+004
            5753    3.30354E+006    3.53697E+006    3.53697E+006    5.37841E+005   -3.99674E+003    3.54096E+006   -1.35694E+006    3.20127E+006    3.53697E+006    5.37505E+005   -3.66061E+003   -2.43995E+001    6.55502E+001   -1.34912E+004
            5754    3.32418E+006    3.49839E+006    3.49839E+006    4.98956E+005   -7.56265E+004    3.57401E+006   -1.30724E+006    3.20959E+006    3.49839E+006    4.72412E+005   -4.90820E+004   -4.55985E+000    8.75122E+001   -1.20613E+005
            5755    3.31196E+006    3.50628E+006    3.50628E+006    4.75295E+005   -2.88358E+004    3.53512E+006   -1.31758E+006    3.22394E+006    3.50628E+006    4.64873E+005   -1.84136E+004   -1.09669E+002   -7.27924E+001   -7.17325E+004
            5756    3.30598E+006    3.51675E+006    3.51675E+006    4.82929E+005   -6.76483E+003    3.52351E+006   -1.33097E+006    3.22287E+006    3.51675E+006    4.81518E+005   -5.35340E+003   -2.72180E+001    4.42822E+001   -2.62522E+004
            5757    3.30557E+006    3.51242E+006    3.51242E+006    4.66611E+005   -2.74829E+003    3.51516E+006   -1.32543E+006    3.22933E+006    3.51242E+006   -1.98199E+003    4.65844E+005    2.98714E+000   -6.15003E+001    1.89495E+004
            5758    3.30907E+006    3.50415E+006    3.50415E+006    4.54608E+005   -1.43929E+004    3.51855E+006   -1.31479E+006    3.23302E+006    3.50415E+006   -7.93789E+003    4.48153E+005   -2.90943E+000   -3.68525E+001    5.46418E+004
            5759    3.31415E+006    3.49802E+006    3.49802E+006    4.57519E+005   -3.47239E+004    3.53274E+006   -1.30694E+006    3.23037E+006    3.49802E+006   -1.86487E+004    4.41443E+005   -1.48100E+001   -4.19024E+001    8.74900E+004
            5760    3.32103E+006    3.49355E+006    3.49355E+006    4.72035E+005   -6.22239E+004    3.55577E+006   -1.30112E+006    3.22221E+006    3.49355E+006   -3.43396E+004    4.44151E+005    1.35573E+001   -1.44521E+002    1.18827E+005
            5761    3.33119E+006    3.48728E+006    3.48728E+006    4.92810E+005   -1.00811E+005    3.58809E+006   -1.29309E+006    3.20893E+006    3.48728E+006   -5.25154E+004    4.44514E+005   -7.50638E+001    1.11595E+002    1.62287E+005
            5762    3.30322E+006    3.53428E+006    3.53428E+006    5.28139E+005   -1.90827E+003    3.53619E+006   -1.35350E+006    3.20544E+006    3.53428E+006   -1.67103E+003    5.27902E+005    6.48955E+000   -4.99942E+001    1.12111E+004
            5763    3.30603E+006    3.52459E+006    3.52459E+006    5.08278E+005   -9.95137E+003    3.53454E+006   -1.34097E+006    3.21274E+006    3.52459E+006   -7.92745E+003    5.06254E+005    2.17988E+000   -2.92010E+001    3.23227E+004
            5764    3.31011E+006    3.51669E+006    3.51669E+006    5.01214E+005   -2.49992E+004    3.54169E+006   -1.33097E+006    3.21398E+006    3.51669E+006   -1.98615E+004    4.96076E+005   -4.66905E+001   -3.10595E+001    5.17408E+004
            5765    3.31555E+006    3.51139E+006    3.51139E+006    5.05205E+005   -4.47574E+004    3.55614E+006   -1.32394E+006    3.21052E+006    3.51139E+006   -3.57438E+004    4.96191E+005    1.12747E+002   -1.17984E+002    6.98276E+004
            5766    3.32296E+006    3.50607E+006    3.50607E+006    5.17907E+005   -7.25333E+004    3.57860E+006   -1.31715E+006    3.20174E+006    3.50607E+006   -5.67036E+004    5.02077E+005   -1.60911E+002    7.54839E+001    9.53727E+004
            5767    3.30238E+006    3.54585E+006    3.54585E+006    5.60904E+005   -1.68715E+003    3.54754E+006   -1.36836E+006    3.19189E+006    3.54585E+006   -1.66143E+003    5.60878E+005    9.04679E+000   -2.14686E+001    3.80363E+003
            5768    3.30476E+006    3.53558E+006    3.53558E+006    5.37630E+005   -8.05977E+003    3.54364E+006   -1.35505E+006    3.20104E+006    3.53558E+006   -7.84605E+003    5.37416E+005   -5.89470E-001   -1.30717E+001    1.07970E+004
            5769    3.30800E+006    3.52727E+006    3.52727E+006    5.26243E+005   -1.97651E+004    3.54704E+006   -1.34458E+006    3.20426E+006    3.52727E+006   -1.92382E+004    5.25716E+005   -6.39231E+001   -1.26309E+001    1.69531E+004
            5770    3.31273E+006    3.52141E+006    3.52141E+006    5.24889E+005   -3.59334E+004    3.55735E+006   -1.33679E+006    3.20331E+006    3.52141E+006   -3.50073E+004    5.23963E+005    1.66417E+002   -3.55820E+001    2.27706E+004
            5771    3.31819E+006    3.51681E+006    3.51681E+006    5.31872E+005   -5.60426E+004    3.57286E+006   -1.33088E+006    3.19785E+006    3.51681E+006   -5.45062E+004    5.30335E+005   -2.08865E+002    3.24805E+001    3.00160E+004
            5772    3.35118E+006    3.42701E+006    3.42701E+006    3.87194E+005   -1.66549E+005    3.59356E+006   -1.21588E+006    3.24585E+006    3.42701E+006    1.62888E+005    5.77573E+004    8.78067E+001   -8.26065E+001    2.71836E+005
            5773    3.35227E+006    3.43045E+006    3.43045E+006    4.02307E+005   -1.71789E+005    3.60224E+006   -1.22032E+006    3.23889E+006    3.43045E+006    1.02083E+005    1.28435E+005    1.49023E+002   -6.05033E+001    2.86746E+005
            5774    3.35268E+006    3.43717E+006    3.43717E+006    4.24181E+005   -1.74528E+005    3.61170E+006   -1.22894E+006    3.22911E+006    3.43717E+006    4.69677E+004    2.02685E+005    1.24949E+002   -2.63383E+001    2.89052E+005
            5775    3.34848E+006    3.44898E+006    3.44898E+006    4.43317E+005   -1.60220E+005    3.60920E+006   -1.24403E+006    3.22268E+006    3.44898E+006   -1.22846E+003    2.84325E+005    9.07210E+001    3.75450E+001    2.65855E+005
            5776    3.34119E+006    3.46579E+006    3.46579E+006    4.66421E+005   -1.35410E+005    3.60120E+006   -1.26560E+006    3.21583E+006    3.46579E+006   -3.65100E+004    3.67521E+005    1.05750E+001    7.66071E+001    2.23024E+005
            5777    3.32844E+006    3.47183E+006    3.47183E+006    4.34162E+005   -8.61046E+004    3.55794E+006   -1.27330E+006    3.23506E+006    3.47183E+006   -2.66328E+004    3.74690E+005   -6.51373E+001   -1.47915E+002    1.65542E+005
            5778    3.32056E+006    3.47412E+006    3.47412E+006    4.05984E+005   -5.14292E+004    3.52555E+006   -1.27623E+006    3.24854E+006    3.47412E+006   -1.55881E+004    3.70143E+005    4.47549E-002   -4.71559E+001    1.22921E+005
            5779    3.31416E+006    3.47786E+006    3.47786E+006    3.87096E+005   -2.17589E+004    3.49962E+006   -1.28106E+006    3.25669E+006    3.47786E+006   -6.47988E+003    3.71817E+005   -1.04155E+001   -3.30724E+001    7.75465E+004
            5780    3.31025E+006    3.48270E+006    3.48270E+006    3.83340E+005   -4.30842E+003    3.48701E+006   -1.28724E+006    3.25860E+006    3.48270E+006   -2.42849E+003    3.81460E+005   -9.51513E+000   -4.65707E+001    2.69298E+004
            5781    3.33609E+006    3.45085E+006    3.45085E+006    3.99652E+005   -1.11201E+005    3.56205E+006   -1.24643E+006    3.24634E+006    3.45085E+006   -7.78270E+003    2.96233E+005   -1.17229E+002   -9.29594E+001    2.05271E+005
            5782    3.32724E+006    3.45078E+006    3.45078E+006    3.56462E+005   -6.85450E+004    3.51933E+006   -1.24623E+006    3.26534E+006    3.45078E+006   -4.10084E+003    2.92017E+005    1.88408E+001   -3.88640E+001    1.52434E+005
            5783    3.32091E+006    3.44994E+006    3.44994E+006    3.17872E+005   -3.20865E+004    3.48203E+006   -1.24524E+006    3.27904E+006    3.44994E+006   -2.81941E+003    2.88605E+005   -3.60884E+001   -2.13745E+001    9.68797E+004
            5784    3.31730E+006    3.44967E+006    3.44967E+006    2.90608E+005   -5.94569E+003    3.45562E+006   -1.24478E+006    3.28728E+006    3.44967E+006   -2.04174E+003    2.86704E+005   -1.12522E+001   -2.23362E+001    3.38007E+004
            5785    3.34043E+006    3.43531E+006    3.43531E+006    3.67820E+005   -1.23608E+005    3.55892E+006   -1.22651E+006    3.25761E+006    3.43531E+006    2.74433E+004    2.16769E+005   -1.32042E+002   -4.81724E+001    2.26747E+005
            5786    3.33281E+006    3.43065E+006    3.43065E+006    3.11728E+005   -8.12048E+004    3.51186E+006   -1.22039E+006    3.28009E+006    3.43065E+006    1.45054E+004    2.16017E+005    1.60658E+001   -2.47610E+001    1.68663E+005
            5787    3.32731E+006    3.42543E+006    3.42543E+006    2.55216E+005   -3.93859E+004    3.46482E+006   -1.21375E+006    3.29778E+006    3.42543E+006    6.34960E+003    2.09480E+005   -4.86217E+001    3.19116E+000    1.06686E+005
            5788    3.32596E+006    3.41761E+006    3.41761E+006    2.00233E+005   -7.21732E+003    3.42483E+006   -1.20354E+006    3.31136E+006    3.41761E+006   -4.68893E+002    1.93485E+005   -1.53233E+001    4.20073E-001    3.68025E+004
            5789    3.34261E+006    3.42415E+006    3.42415E+006    3.39785E+005   -1.27537E+005    3.55168E+006   -1.21213E+006    3.26791E+006    3.42415E+006    6.99989E+004    1.42249E+005   -1.28291E+002    5.96889E+001    2.30852E+005
            5790    3.33476E+006    3.41688E+006    3.41688E+006    2.68970E+005   -7.76474E+004    3.49453E+006   -1.20273E+006    3.29386E+006    3.41688E+006    4.48324E+004    1.46490E+005    7.51272E+001   -4.17765E+001    1.65687E+005
            5791    3.33245E+006    3.40538E+006    3.40538E+006    1.97681E+005   -3.91702E+004    3.44455E+006   -1.18796E+006    3.31343E+006    3.40538E+006    1.81447E+004    1.40367E+005   -1.22607E+002    3.92006E+001    1.01440E+005
            5792    3.33469E+006    3.39049E+006    3.39049E+006    1.22650E+005   -7.25655E+003    3.39774E+006   -1.16863E+006    3.32899E+006    3.39049E+006    2.44093E+003    1.12952E+005    2.24888E+001    9.25433E+000    3.41427E+004
            5793    3.33930E+006    3.42094E+006    3.42094E+006    3.11401E+005   -1.08405E+005    3.52935E+006   -1.20798E+006    3.27914E+006    3.42094E+006    1.31342E+005    7.16547E+004   -9.29599E+001    6.49982E+001    2.07771E+005
            5794    3.33452E+006    3.40584E+006    3.40584E+006    2.18050E+005   -5.82335E+004    3.46407E+006   -1.18855E+006    3.30863E+006    3.40584E+006    7.26245E+004    8.71924E+004    7.81704E+001   -3.03462E+001    1.37950E+005
            5795    3.33596E+006    3.39023E+006    3.39023E+006    1.42891E+005   -2.78042E+004    3.41803E+006   -1.16844E+006    3.32612E+006    3.39023E+006    3.01541E+004    8.49325E+004   -1.37361E+002    5.77206E+001    8.08333E+004
            5796    3.34204E+006    3.37014E+006    3.37014E+006    6.35939E+004   -6.29768E+003    3.37644E+006   -1.14248E+006    3.34040E+006    3.37014E+006    5.15689E+003    5.21393E+004    4.39420E+001   -7.48793E+000    2.58722E+004
            5797    3.34638E+006    3.35873E+006    3.35873E+006    2.58468E+004   -9.70418E+002    3.35970E+006   -1.12787E+006    3.34613E+006    3.35873E+006    8.36419E+003    1.65122E+004    7.66039E+000   -2.54306E+000    1.27747E+004
            5798    3.34930E+006    3.35174E+006    3.35174E+006    4.87282E+003    1.94006E+001    3.35172E+006   -1.11888E+006    3.34929E+006    3.35174E+006    2.57325E+003    2.31897E+003   -3.51655E+000    3.93099E+000    2.42338E+003
            5799    3.33951E+006    3.37698E+006    3.37698E+006    8.66372E+004   -9.62957E+003    3.38660E+006   -1.15133E+006    3.33639E+006    3.37698E+006    3.66955E+004    4.03121E+004   -3.06240E+001    2.13465E+001    4.80994E+004
            5800    3.34557E+006    3.36068E+006    3.36068E+006    3.11736E+004   -7.10645E+002    3.36139E+006   -1.13038E+006    3.34522E+006    3.36068E+006    2.04687E+004    9.99424E+003   -1.33729E+000    1.79370E-001    1.50573E+004
            5801    3.33523E+006    3.39417E+006    3.39417E+006    1.60692E+005   -3.42471E+004    3.42842E+006   -1.17354E+006    3.32237E+006    3.39417E+006    8.51892E+004    4.12561E+004   -2.41416E+001    2.48016E+001    9.49622E+004
            5802    3.33897E+006    3.37800E+006    3.37800E+006    8.58762E+004   -5.92625E+003    3.38392E+006   -1.15265E+006    3.33613E+006    3.37800E+006    6.97674E+004    1.01826E+004   -1.83774E+001    1.60889E+001    3.49190E+004
            5803    3.33283E+006    3.41648E+006    3.41648E+006    2.54430E+005   -6.42351E+004    3.48071E+006   -1.20222E+006    3.29829E+006    3.41648E+006    1.64083E+005    2.61120E+004    4.80660E+000    3.48360E+001    1.43624E+005
            5804    3.33069E+006    3.40272E+006    3.40272E+006    1.61152E+005   -1.04654E+004    3.41318E+006   -1.18447E+006    3.32072E+006    3.40272E+006    1.46115E+005    4.57183E+003   -1.00611E+001    3.28532E+001    4.85235E+004
            5805    3.32262E+006    3.43106E+006    3.43106E+006    2.43139E+005   -1.15974E+004    3.44266E+006   -1.22087E+006    3.30054E+006    3.43106E+006    2.31798E+005   -2.56338E+002    1.71196E+000   -5.56990E+000    5.25391E+004
            5806    3.31515E+006    3.46382E+006    3.46382E+006    3.37537E+005   -1.24286E+004    3.47625E+006   -1.26298E+006    3.27320E+006    3.46382E+006    3.31109E+005   -6.00069E+003    1.75307E+001   -2.09871E+001    4.69919E+004
            5807    3.32967E+006    3.43834E+006    3.43834E+006    3.24542E+005   -7.17340E+004    3.51007E+006   -1.23038E+006    3.27599E+006    3.43834E+006    2.48419E+005    4.38861E+003    4.88551E+001    1.27830E+002    1.56112E+005
            5808    3.32285E+006    3.46298E+006    3.46298E+006    3.78582E+005   -5.56328E+004    3.51862E+006   -1.26198E+006    3.25811E+006    3.46298E+006    3.34500E+005   -1.15511E+004    9.19430E+001    1.20822E+002    1.31140E+005
            5809    3.33874E+006    3.46016E+006    3.46016E+006    4.40293E+005   -1.25225E+005    3.58538E+006   -1.25841E+006    3.22834E+006    3.46016E+006    3.32368E+005   -1.72998E+004    2.03713E+000   -9.16876E+001    2.22229E+005
            5810    3.34552E+006    3.43980E+006    3.43980E+006    4.04352E+005   -1.47226E+005    3.58703E+006   -1.23231E+006    3.24084E+006    3.43980E+006    2.41150E+005    1.59759E+004    3.20802E+001   -1.10817E+002    2.51761E+005
            5811    3.34798E+006    3.42189E+006    3.42189E+006    3.57026E+005   -1.51110E+005    3.57300E+006   -1.20927E+006    3.25953E+006    3.42189E+006    7.97088E+004    1.26206E+005    6.49066E+001    2.71097E+001    2.53002E+005
            5812    3.34493E+006    3.43778E+006    3.43778E+006    3.94642E+005   -1.43651E+005    3.58144E+006   -1.22959E+006    3.24533E+006    3.43778E+006    3.85760E+004    2.12415E+005    1.02579E+002    3.04229E+001    2.54725E+005
            5813    3.34239E+006    3.45241E+006    3.45241E+006    4.30541E+005   -1.37663E+005    3.59007E+006   -1.24843E+006    3.23104E+006    3.45241E+006   -4.14303E+003    2.97021E+005    1.04345E+002    8.40831E+001    2.40913E+005
            5814    3.33590E+006    3.46995E+006    3.46995E+006    4.58438E+005   -1.15797E+005    3.58574E+006   -1.27086E+006    3.22188E+006    3.46995E+006   -3.36673E+004    3.76309E+005    6.31463E+001    1.03760E+002    2.01038E+005
            5815    3.31924E+006    3.47640E+006    3.47640E+006    4.08081E+005   -4.68374E+004    3.52324E+006   -1.27922E+006    3.24800E+006    3.47640E+006   -1.55067E+004    3.76750E+005   -2.70789E+001    4.12429E+001    1.15201E+005
            5816    3.31099E+006    3.48168E+006    3.48168E+006    3.84235E+005   -7.92640E+003    3.48960E+006   -1.28600E+006    3.25812E+006    3.48168E+006   -3.70161E+003    3.80010E+005    3.15401E+001    6.43514E+001    4.04840E+004
            5817    3.32568E+006    3.45179E+006    3.45179E+006    3.52314E+005   -6.13938E+004    3.51318E+006   -1.24757E+006    3.26704E+006    3.45179E+006   -5.82684E+003    2.96747E+005   -5.69236E+001   -9.29727E+000    1.41070E+005
            5818    3.31861E+006    3.44764E+006    3.44764E+006    2.92531E+005   -1.32899E+004    3.46093E+006   -1.24229E+006    3.28668E+006    3.44764E+006   -4.93398E+003    2.84175E+005    4.05198E+001    4.72255E+001    4.98558E+004
            5819    3.33185E+006    3.42886E+006    3.42886E+006    2.99553E+005   -7.40507E+004    3.50291E+006   -1.21812E+006    3.28423E+006    3.42886E+006    8.24562E+003    2.17257E+005   -3.54850E+001    2.11381E+001    1.54834E+005
            5820    3.32718E+006    3.41500E+006    3.41500E+006    2.00151E+005   -1.41538E+004    3.42915E+006   -1.20033E+006    3.31160E+006    3.41500E+006    3.45847E+002    1.85652E+005    3.66188E+001    1.14608E+001    5.38249E+004
            5821    3.33452E+006    3.41082E+006    3.41082E+006    2.40962E+005   -6.69836E+004    3.47781E+006   -1.19493E+006    3.30230E+006    3.41082E+006    4.12791E+004    1.32700E+005   -1.60388E+001   -7.86165E+000    1.47031E+005
            5822    3.33526E+006    3.38830E+006    3.38830E+006    1.17825E+005   -8.17913E+003    3.39648E+006   -1.16598E+006    3.32990E+006    3.38830E+006    9.59392E+003    1.00052E+005    3.30953E+001   -1.34237E+001    4.38588E+004
            5823    3.34270E+006    3.36798E+006    3.36798E+006    5.66863E+004   -5.26317E+003    3.37324E+006   -1.13980E+006    3.34141E+006    3.36798E+006    1.02277E+004    4.11954E+004    1.15572E+001   -2.13105E+001    2.68269E+004
            5824    3.34739E+006    3.35623E+006    3.35623E+006    1.77396E+004    1.18231E+000    3.35623E+006   -1.12466E+006    3.34729E+006    3.35623E+006    9.12835E+003    8.61243E+003    9.19187E+000   -1.27275E+001    8.86546E+003
            5825    3.33532E+006    3.39412E+006    3.39412E+006    1.60990E+005   -3.47598E+004    3.42888E+006   -1.17345E+006    3.32235E+006    3.39412E+006    6.50741E+004    6.11562E+004    1.79999E+001   -2.47243E+001    9.78554E+004
            5826    3.34240E+006    3.36878E+006    3.36878E+006    5.88515E+004   -5.16229E+003    3.37394E+006   -1.14082E+006    3.34102E+006    3.36878E+006    4.40766E+004    9.61257E+003    1.25430E+001   -1.22938E+001    2.69722E+004
            5827    3.33452E+006    3.39056E+006    3.39056E+006    1.24043E+005   -8.04456E+003    3.39860E+006   -1.16885E+006    3.32863E+006    3.39056E+006    1.07276E+005    8.72293E+003    2.90592E+000   -3.01097E+001    4.39730E+004
            5828    3.32607E+006    3.41907E+006    3.41907E+006    2.11536E+005   -1.40531E+004    3.43312E+006   -1.20552E+006    3.30879E+006    3.41907E+006    1.98402E+005   -9.18885E+002   -1.78438E+001   -2.70149E+001    5.28245E+004
            5829    3.31697E+006    3.45440E+006    3.45440E+006    3.10341E+005   -1.19512E+004    3.46636E+006   -1.25093E+006    3.28147E+006    3.45440E+006    3.03331E+005   -4.94111E+003   -4.67122E+001   -2.65142E+001    4.70124E+004
            5830    3.30954E+006    3.48948E+006    3.48948E+006    4.05084E+005   -6.67262E+003    3.49615E+006   -1.29596E+006    3.25116E+006    3.48948E+006    4.01695E+005   -3.28364E+003   -4.92910E+001   -1.38627E+001    3.72015E+004
            5831    3.33439E+006    3.41174E+006    3.41174E+006    2.44064E+005   -6.74866E+004    3.47923E+006   -1.19611E+006    3.30141E+006    3.41174E+006    1.41246E+005    3.53310E+004   -1.02141E+000    3.60896E+000    1.46497E+005
            5832    3.33096E+006    3.43189E+006    3.43189E+006    3.05988E+005   -7.18995E+004    3.50379E+006   -1.22199E+006    3.28221E+006    3.43189E+006    2.30695E+005    3.39419E+003   -2.96539E+001    8.97855E+000    1.50942E+005
            5833    3.32397E+006    3.45710E+006    3.45710E+006    3.62431E+005   -5.64641E+004    3.51356E+006   -1.25435E+006    3.26379E+006    3.45710E+006    3.13819E+005   -7.85159E+003    9.77536E+000    1.45779E+001    1.34166E+005
            5834    3.31732E+006    3.48285E+006    3.48285E+006    4.20911E+005   -4.13600E+004    3.52421E+006   -1.28747E+006    3.24367E+006    3.48285E+006    3.95295E+005   -1.57440E+004   -3.60604E+001   -2.62987E+001    1.05761E+005
            5835    3.33229E+006    3.47775E+006    3.47775E+006    4.68220E+005   -1.03352E+005    3.58110E+006   -1.28087E+006    3.21922E+006    3.47775E+006    4.04823E+005   -3.99545E+004   -8.54532E+001   -5.59431E+000    1.79490E+005
            5836    3.33994E+006    3.45770E+006    3.45770E+006    4.37141E+005   -1.29212E+005    3.58691E+006   -1.25521E+006    3.22925E+006    3.45770E+006    3.23322E+005   -1.53935E+004   -8.57033E+001   -6.28097E+001    2.26951E+005
            5837    3.34393E+006    3.44039E+006    3.44039E+006    3.98590E+005   -1.40237E+005    3.58062E+006   -1.23291E+006    3.24410E+006    3.44039E+006    2.34757E+005    2.35964E+004   -4.03035E+001   -7.74875E+001    2.47863E+005
            5838    3.34801E+006    3.42229E+006    3.42229E+006    3.58390E+005   -1.51374E+005    3.57366E+006   -1.20977E+006    3.25898E+006    3.42229E+006    1.43749E+005    6.32666E+004   -3.86887E+001   -7.09394E+001    2.51685E+005
            5839    3.30675E+006    3.51028E+006    3.51028E+006    4.65101E+005   -7.25692E+003    3.51753E+006   -1.32271E+006    3.22954E+006    3.51028E+006   -5.38597E+003    4.63230E+005    1.02072E+001    7.95266E+001    2.96691E+004
            5840    3.31343E+006    3.50005E+006    3.50005E+006    4.60863E+005   -3.23479E+004    3.53239E+006   -1.30952E+006    3.22930E+006    3.50005E+006   -1.85204E+004    4.47035E+005    1.25758E+001   -8.63554E+000    8.14168E+004
            5841    3.32780E+006    3.48987E+006    3.48987E+006    4.88418E+005   -8.87590E+004    3.57863E+006   -1.29651E+006    3.21228E+006    3.48987E+006   -4.83242E+004    4.47983E+005    2.49697E+001    9.90224E+001    1.47320E+005
            5842    3.30406E+006    3.53206E+006    3.53206E+006    5.24578E+005   -4.68422E+003    3.53674E+006   -1.35065E+006    3.20660E+006    3.53206E+006   -4.11493E+003    5.24009E+005   -9.70061E+000    5.64098E+001    1.73488E+004
            5843    3.30975E+006    3.51833E+006    3.51833E+006    5.04240E+005   -2.36346E+004    3.54197E+006   -1.33298E+006    3.21299E+006    3.51833E+006   -1.91071E+004    4.99712E+005    7.30619E+001    3.52868E+001    4.86772E+004
            5844    3.32031E+006    3.50788E+006    3.50788E+006    5.14489E+005   -6.34653E+004    3.57134E+006   -1.31963E+006    3.20420E+006    3.50788E+006   -5.02879E+004    5.01312E+005   -1.91872E+001    8.80774E+001    8.62688E+004
            5845    3.30319E+006    3.54329E+006    3.54329E+006    5.56122E+005   -4.23615E+003    3.54753E+006   -1.36506E+006    3.19362E+006    3.54329E+006   -4.17543E+003    5.56062E+005   -3.50743E+001    3.02905E+001    5.83229E+003
            5846    3.30805E+006    3.52855E+006    3.52855E+006    5.29052E+005   -1.94797E+004    3.54803E+006   -1.34604E+006    3.20333E+006    3.52855E+006   -1.90417E+004    5.28614E+005    1.25228E+002   -1.33881E+001    1.54944E+004
            5847    3.31624E+006    3.51809E+006    3.51809E+006    5.30353E+005   -5.00162E+004    3.56811E+006   -1.33281E+006    3.19897E+006    3.51809E+006   -4.85918E+004    5.28928E+005   -4.30362E+001    2.05510E+001    2.87173E+004
            5848    3.30860E+006    3.49632E+006    3.49632E+006    4.25537E+005   -7.45954E+003    3.50378E+006   -1.30480E+006    3.24393E+006    3.49632E+006    4.22580E+005   -4.50220E+003    6.09677E+001   -2.01478E+001   -3.56619E+004
            5849    3.31641E+006    3.48777E+006    3.48777E+006    4.33633E+005   -3.99865E+004    3.52776E+006   -1.29381E+006    3.23901E+006    3.48777E+006    4.11242E+005   -1.75953E+004    4.45282E+000    1.58454E+001   -1.00516E+005
            5850    3.33129E+006    3.48068E+006    3.48068E+006    4.73562E+005   -1.00241E+005    3.58092E+006   -1.28467E+006    3.21728E+006    3.48068E+006    4.14283E+005   -4.09629E+004    8.14826E+001   -3.90549E+001   -1.74643E+005
            5851    3.30519E+006    3.52249E+006    3.52249E+006    4.98780E+005   -6.08534E+003    3.52858E+006   -1.33840E+006    3.21672E+006    3.52249E+006    4.97672E+005   -4.97749E+003    6.11783E+001    9.62246E-001   -2.36238E+004
            5852    3.31116E+006    3.51058E+006    3.51058E+006    4.85664E+005   -2.70140E+004    3.53760E+006   -1.32308E+006    3.22005E+006    3.51058E+006    4.77316E+005   -1.86660E+004    2.17514E+001   -3.64653E+001   -6.48856E+004
            5853    3.32338E+006    3.50003E+006    3.50003E+006    5.02485E+005   -7.38070E+004    3.57384E+006   -1.30957E+006    3.20806E+006    3.50003E+006    4.78395E+005   -4.97173E+004    1.03836E+002    2.59345E+000   -1.15336E+005
            5854    3.30337E+006    3.53978E+006    3.53978E+006    5.46170E+005   -4.22069E+003    3.54400E+006   -1.36058E+006    3.19777E+006    3.53978E+006    5.45947E+005   -3.99828E+003    4.58958E+001    1.98837E+001   -1.10617E+004
            5855    3.30862E+006    3.52505E+006    3.52505E+006    5.20968E+005   -2.11558E+004    3.54620E+006   -1.34162E+006    3.20641E+006    3.52505E+006    5.19237E+005   -1.94243E+004   -2.44017E+000   -8.31083E+001   -3.05884E+004
            5856    3.31743E+006    3.51497E+006    3.51497E+006    5.25034E+005   -5.37723E+004    3.56874E+006   -1.32874E+006    3.20086E+006    3.51497E+006    5.19789E+005   -4.85279E+004    4.88726E+001    3.67914E+001   -5.48453E+004
            5857    3.30319E+006    3.54455E+006    3.54455E+006    5.60055E+005   -4.54135E+003    3.54909E+006   -1.36669E+006    3.19191E+006    3.54455E+006    5.60052E+005   -4.53802E+003    1.23739E+001    2.92152E+001    1.37132E+003
            5858    3.30783E+006    3.52989E+006    3.52989E+006    5.32647E+005   -1.91314E+004    3.54902E+006   -1.34780E+006    3.20183E+006    3.52989E+006    5.32627E+005   -1.91114E+004    1.86544E+001   -1.01020E+002    3.32727E+003
            5859    3.31578E+006    3.51937E+006    3.51937E+006    5.32343E+005   -4.84379E+004    3.56780E+006   -1.33442E+006    3.19833E+006    3.51937E+006    5.32334E+005   -4.84296E+004    3.12361E+001    3.93940E+001    2.18902E+003
            5860    3.30355E+006    3.53718E+006    3.53718E+006    5.38555E+005   -4.11130E+003    3.54129E+006   -1.35721E+006    3.20096E+006    3.53718E+006    5.38220E+005   -3.77650E+003   -1.42874E+001    2.45491E+001    1.34748E+004
            5861    3.30902E+006    3.52286E+006    3.52286E+006    5.15596E+005   -2.20691E+004    3.54493E+006   -1.33880E+006    3.20853E+006    3.52286E+006    5.12911E+005   -1.93849E+004   -1.82134E+001   -1.03788E+002    3.78945E+004
            5862    3.31769E+006    3.51396E+006    3.51396E+006    5.22872E+005   -5.45224E+004    3.56848E+006   -1.32744E+006    3.20171E+006    3.51396E+006    5.16882E+005   -4.85322E+004   -3.53531E+001    5.08127E+001    5.85051E+004
            5863    3.30592E+006    3.51719E+006    3.51719E+006    4.84235E+005   -6.75984E+003    3.52395E+006   -1.33156E+006    3.22235E+006    3.51719E+006    4.82835E+005   -5.36061E+003   -4.81341E+001    1.53102E+001    2.61736E+004
            5864    3.31194E+006    3.50647E+006    3.50647E+006    4.75101E+005   -2.83750E+004    3.53485E+006   -1.31773E+006    3.22415E+006    3.50647E+006    4.64757E+005   -1.80315E+004    1.19068E+001   -7.35148E+001    7.14192E+004
            5865    3.32387E+006    3.49832E+006    3.49832E+006    4.99218E+005   -7.53914E+004    3.57371E+006   -1.30738E+006    3.20926E+006    3.49832E+006    4.72938E+005   -4.91109E+004   -5.71247E+001    2.84434E+001    1.20043E+005
            5866    3.32784E+006    3.48982E+006    3.48982E+006    4.88469E+005   -8.89527E+004    3.57877E+006   -1.29644E+006    3.21223E+006    3.48982E+006   -4.85879E+004    4.48104E+005    1.53450E+001   -9.33126E+001   -1.47235E+005
            5867    3.31335E+006    3.50030E+006    3.50030E+006    4.61112E+005   -3.19503E+004    3.53225E+006   -1.30982E+006    3.22926E+006    3.50030E+006   -1.83122E+004    4.47474E+005    2.95914E+001    1.17394E+001   -8.08605E+004
            5868    3.30674E+006    3.51062E+006    3.51062E+006    4.66105E+005   -7.32342E+003    3.51794E+006   -1.32313E+006    3.22917E+006    3.51062E+006   -5.47901E+003    4.64260E+005    4.69658E+000   -7.96203E+001   -2.94922E+004
            5869    3.32024E+006    3.50797E+006    3.50797E+006    5.14632E+005   -6.32989E+004    3.57127E+006   -1.31977E+006    3.20414E+006    3.50797E+006   -5.02822E+004    5.01615E+005   -3.83042E+001   -7.90646E+001   -8.57515E+004
            5870    3.30976E+006    3.51833E+006    3.51833E+006    5.04065E+005   -2.35411E+004    3.54187E+006   -1.33295E+006    3.21310E+006    3.51833E+006   -1.90048E+004    4.99528E+005    9.76581E+001   -3.39854E+001   -4.87116E+004
            5871    3.30403E+006    3.53224E+006    3.53224E+006    5.24945E+005   -4.57303E+003    3.53681E+006   -1.35087E+006    3.20648E+006    3.53224E+006   -4.01155E+003    5.24383E+005   -1.91674E+001   -4.87397E+001   -1.72337E+004
            5872    3.31616E+006    3.51816E+006    3.51816E+006    5.30355E+005   -4.97904E+004    3.56796E+006   -1.33291E+006    3.19899E+006    3.51816E+006   -4.84356E+004    5.29000E+005   -5.09823E+001   -6.71656E+000   -2.80032E+004
            5873    3.30803E+006    3.52857E+006    3.52857E+006    5.28885E+005   -1.93181E+004    3.54789E+006   -1.34604E+006    3.20343E+006    3.52857E+006   -1.88502E+004    5.28417E+005    1.37086E+002    1.84913E+001   -1.60084E+004
            5874    3.30321E+006    3.54329E+006    3.54329E+006    5.56137E+005   -4.27563E+003    3.54756E+006   -1.36505E+006    3.19362E+006    3.54329E+006   -4.21391E+003    5.56075E+005   -4.02579E+001   -1.83908E+001   -5.88076E+003
            5875    3.34199E+006    3.36976E+006    3.36976E+006    6.20913E+004   -5.52543E+003    3.37529E+006   -1.14211E+006    3.34045E+006    3.36976E+006    5.81718E+003    5.07487E+004   -4.26358E+001   -2.41159E+001   -2.52645E+004
            5876    3.33478E+006    3.38955E+006    3.38955E+006    1.20422E+005   -7.22266E+003    3.39677E+006   -1.16758E+006    3.32928E+006    3.38955E+006    2.49755E+003    1.10702E+005   -4.05591E+001   -7.22013E+000   -3.38563E+004
            5877    3.32597E+006    3.41698E+006    3.41698E+006    1.98455E+005   -6.91529E+003    3.42389E+006   -1.20284E+006    3.31166E+006    3.41698E+006   -3.10449E+002    1.91850E+005   -1.60235E+001    9.50535E+000   -3.62328E+004
            5878    3.31714E+006    3.44967E+006    3.44967E+006    2.90335E+005   -5.46012E+003    3.45513E+006   -1.24485E+006    3.28727E+006    3.44967E+006   -1.61341E+003    2.86488E+005   -1.35102E+001    2.49827E+001   -3.35118E+004
            5879    3.31023E+006    3.48270E+006    3.48270E+006    3.83433E+005   -4.34558E+003    3.48704E+006   -1.28726E+006    3.25854E+006    3.48270E+006   -2.47941E+003    3.81567E+005   -5.02482E+000    3.70707E+001   -2.68362E+004
            5880    3.33601E+006    3.39020E+006    3.39020E+006    1.42785E+005   -2.78606E+004    3.41806E+006   -1.16837E+006    3.32617E+006    3.39020E+006    3.03430E+004    8.45816E+004    5.22390E+001    1.62587E+001   -8.08984E+004
            5881    3.33264E+006    3.40497E+006    3.40497E+006    1.96027E+005   -3.89334E+004    3.44391E+006   -1.18736E+006    3.31393E+006    3.40497E+006    1.74245E+004    1.39669E+005    5.11494E+001    1.95748E+001   -1.00328E+005
            5882    3.32745E+006    3.42520E+006    3.42520E+006    2.53796E+005   -3.89580E+004    3.46416E+006   -1.21335E+006    3.29829E+006    3.42520E+006    6.30572E+003    2.08532E+005    3.98823E+000    1.66372E+001   -1.05841E+005
            5883    3.32100E+006    3.44999E+006    3.44999E+006    3.17587E+005   -3.19561E+004    3.48195E+006   -1.24521E+006    3.27924E+006    3.44999E+006   -3.17299E+003    2.88804E+005    2.26721E+000    2.33027E+001   -9.60858E+004
            5884    3.31407E+006    3.47806E+006    3.47806E+006    3.87000E+005   -2.12098E+004    3.49927E+006   -1.28128E+006    3.25679E+006    3.47806E+006   -6.23582E+003    3.72026E+005   -9.81099E+000    3.40345E+001   -7.67353E+004
            5885    3.33460E+006    3.40600E+006    3.40600E+006    2.18869E+005   -5.87231E+004    3.46472E+006   -1.18871E+006    3.30845E+006    3.40600E+006    7.32784E+004    8.68677E+004   -9.56048E+001   -4.64924E+001   -1.38630E+005
            5886    3.33469E+006    3.41692E+006    3.41692E+006    2.68621E+005   -7.72074E+004    3.49413E+006   -1.20278E+006    3.29398E+006    3.41692E+006    4.45400E+004    1.46873E+005   -1.12701E+002   -2.82943E+001   -1.65170E+005
            5887    3.33256E+006    3.43093E+006    3.43093E+006    3.11950E+005   -8.04766E+004    3.51140E+006   -1.22080E+006    3.27998E+006    3.43093E+006    1.38915E+004    2.17582E+005   -7.58236E+001    2.16881E+001   -1.67712E+005
            5888    3.32703E+006    3.45098E+006    3.45098E+006    3.56682E+005   -6.80057E+004    3.51898E+006   -1.24655E+006    3.26521E+006    3.45098E+006   -4.23160E+003    2.92908E+005   -6.64518E+001    5.02449E+001   -1.51713E+005
            5889    3.32038E+006    3.47428E+006    3.47428E+006    4.05849E+005   -5.07853E+004    3.52507E+006   -1.27645E+006    3.24861E+006    3.47428E+006   -1.53515E+004    3.70415E+005   -3.12099E+001    6.63727E+001   -1.22167E+005
            5890    3.33919E+006    3.42100E+006    3.42100E+006    3.11376E+005   -1.08119E+005    3.52912E+006   -1.20809E+006    3.27913E+006    3.42100E+006    1.31288E+005    7.19691E+004    5.82936E+001    2.34424E+001   -2.07640E+005
            5891    3.34260E+006    3.42431E+006    3.42431E+006    3.40141E+005   -1.27462E+005    3.55178E+006   -1.21233E+006    3.26779E+006    3.42431E+006    6.93570E+004    1.43323E+005    8.27007E+001    5.10550E+001   -2.30858E+005
            5892    3.34034E+006    3.43578E+006    3.43578E+006    3.68364E+005   -1.23050E+005    3.55883E+006   -1.22703E+006    3.25753E+006    3.43578E+006    2.61806E+004    2.19133E+005    6.82375E+001    8.02443E+000   -2.25974E+005
            5893    3.33603E+006    3.45134E+006    3.45134E+006    4.00416E+005   -1.10780E+005    3.56212E+006   -1.24699E+006    3.24615E+006    3.45134E+006   -8.36981E+003    2.98006E+005    4.65102E+001    3.67668E-001   -2.04606E+005
            5894    3.32831E+006    3.47197E+006    3.47197E+006    4.34231E+005   -8.57071E+004    3.55768E+006   -1.27350E+006    3.23504E+006    3.47197E+006   -2.66788E+004    3.75203E+005    2.82000E+000   -3.65548E+001   -1.64945E+005
            5895    3.34146E+006    3.46566E+006    3.46566E+006    4.66469E+005   -1.36078E+005    3.60173E+006   -1.26535E+006    3.21580E+006    3.46566E+006   -3.63493E+004    3.66741E+005   -3.31222E+001    1.57631E+002   -2.23931E+005
            5896    3.34861E+006    3.44895E+006    3.44895E+006    4.43441E+005   -1.60561E+005    3.60951E+006   -1.24394E+006    3.22262E+006    3.44895E+006   -5.46288E+002    2.83426E+005   -7.82461E+001    1.38997E+002   -2.66541E+005
            5897    3.35285E+006    3.43732E+006    3.43732E+006    4.24242E+005   -1.74593E+005    3.61191E+006   -1.22899E+006    3.22923E+006    3.43732E+006    4.77191E+004    2.01930E+005   -9.87032E+001    5.24255E+001   -2.89319E+005
            5898    3.35239E+006    3.43074E+006    3.43074E+006    4.02587E+005   -1.71706E+005    3.60244E+006   -1.22054E+006    3.23894E+006    3.43074E+006    1.02473E+005    1.28408E+005   -1.13636E+002   -5.96499E-001   -2.86854E+005
            5899    3.35130E+006    3.42721E+006    3.42721E+006    3.87453E+005   -1.66585E+005    3.59380E+006   -1.21603E+006    3.24586E+006    3.42721E+006    1.63220E+005    5.76478E+004   -3.01040E+001   -3.93822E+001   -2.71944E+005
            5900    3.34555E+006    3.43998E+006    3.43998E+006    4.04380E+005   -1.47004E+005    3.58699E+006   -1.23245E+006    3.24095E+006    3.43998E+006    2.41833E+005    1.55421E+004    3.47596E+001   -6.91640E+001   -2.51404E+005
            5901    3.33870E+006    3.46028E+006    3.46028E+006    4.40102E+005   -1.24856E+005    3.58514E+006   -1.25851E+006    3.22852E+006    3.46028E+006    3.32891E+005   -1.76446E+004    9.07252E+001   -7.72402E+001   -2.21530E+005
            5902    3.32302E+006    3.46256E+006    3.46256E+006    3.77868E+005   -5.61379E+004    3.51870E+006   -1.26143E+006    3.25834E+006    3.46256E+006    3.33203E+005   -1.14724E+004    1.63796E+001    2.84627E+001   -1.31872E+005
            5903    3.31513E+006    3.46317E+006    3.46317E+006    3.35697E+005   -1.21788E+004    3.47535E+006   -1.26223E+006    3.27369E+006    3.46317E+006    3.29153E+005   -5.63488E+003    4.31841E+001   -2.74010E+001   -4.72615E+004
            5904    3.32988E+006    3.43814E+006    3.43814E+006    3.24019E+005   -7.20793E+004    3.51021E+006   -1.23003E+006    3.27625E+006    3.43814E+006    2.47650E+005    4.28943E+003    5.20667E+000    1.93375E+001   -1.56260E+005
            5905    3.32261E+006    3.43067E+006    3.43067E+006    2.42289E+005   -1.15921E+004    3.44227E+006   -1.22046E+006    3.30068E+006    3.43067E+006    2.30857E+005   -1.59717E+002    1.53954E+001   -2.41811E+001   -5.26476E+004
            5906    3.33073E+006    3.40262E+006    3.40262E+006    1.61192E+005   -1.07463E+004    3.41337E+006   -1.18436E+006    3.32072E+006    3.40262E+006    1.46035E+005    4.41125E+003   -4.12253E+000   -7.09082E+000   -4.87485E+004
            5907    3.33889E+006    3.37802E+006    3.37802E+006    8.56785E+004   -5.54520E+003    3.38357E+006   -1.15272E+006    3.33608E+006    3.37802E+006    6.95287E+004    1.06046E+004   -1.01773E+001   -1.33802E+001   -3.48199E+004
            5908    3.34561E+006    3.36052E+006    3.36052E+006    3.07642E+004   -7.17135E+002    3.36124E+006   -1.13019E+006    3.34527E+006    3.36052E+006    2.04260E+004    9.62104E+003   -1.27584E+001   -8.27029E+000   -1.47845E+004
            5909    3.34929E+006    3.35174E+006    3.35174E+006    4.89560E+003    1.05145E+001    3.35173E+006   -1.11888E+006    3.34928E+006    3.35174E+006    2.59414E+003    2.31198E+003   -2.85917E+000   -3.89266E+000   -2.43846E+003
            5910    3.33287E+006    3.41640E+006    3.41640E+006    2.54245E+005   -6.42955E+004    3.48070E+006   -1.20212E+006    3.29836E+006    3.41640E+006    1.64039E+005    2.59106E+004    1.49679E+000   -2.99742E+001   -1.43517E+005
            5911    3.33521E+006    3.39447E+006    3.39447E+006    1.61543E+005   -3.43966E+004    3.42886E+006   -1.17387E+006    3.32222E+006    3.39447E+006    8.57264E+004    4.14201E+004   -1.18314E+001   -1.70449E+001   -9.54323E+004
            5912    3.33944E+006    3.37698E+006    3.37698E+006    8.70193E+004   -9.84087E+003    3.38682E+006   -1.15139E+006    3.33628E+006    3.37698E+006    3.69966E+004    4.01818E+004   -9.87695E+000   -1.34143E+001   -4.84039E+004
            5913    3.34651E+006    3.35836E+006    3.35836E+006    2.48145E+004   -9.63953E+002    3.35932E+006   -1.12740E+006    3.34628E+006    3.35836E+006    7.91638E+003    1.59341E+004   -1.10477E+001   -1.55216E+001   -1.22499E+004
            5914    3.33532E+006    3.38814E+006    3.38814E+006    1.17374E+005   -8.18424E+003    3.39632E+006   -1.16578E+006    3.32999E+006    3.38814E+006    9.59660E+003    9.95932E+004    3.48310E+001    1.37726E+001   -4.37764E+004
            5915    3.32711E+006    3.41520E+006    3.41520E+006    2.00707E+005   -1.41097E+004    3.42931E+006   -1.20060E+006    3.31145E+006    3.41520E+006    3.56621E+002    1.86241E+005    3.97142E+001   -1.38773E+001   -5.38361E+004
            5916    3.31841E+006    3.44849E+006    3.44849E+006    2.94930E+005   -1.32565E+004    3.46175E+006   -1.24339E+006    3.28598E+006    3.44849E+006   -5.05042E+003    2.86724E+005    4.32694E+001   -5.29548E+001   -4.96151E+004
            5917    3.31079E+006    3.48264E+006    3.48264E+006    3.86720E+005   -7.68708E+003    3.49033E+006   -1.28722E+006    3.25731E+006    3.48264E+006   -3.55279E+003    3.82586E+005    3.30446E+001   -6.81501E+001   -4.01685E+004
            5918    3.33452E+006    3.41093E+006    3.41093E+006    2.41459E+005   -6.71631E+004    3.47810E+006   -1.19508E+006    3.30215E+006    3.41093E+006    4.12287E+004    1.33067E+005   -1.70051E+001    7.92193E+000   -1.47321E+005
            5919    3.33184E+006    3.42903E+006    3.42903E+006    3.00149E+005   -7.41540E+004    3.50318E+006   -1.21834E+006    3.28404E+006    3.42903E+006    7.77165E+003    2.18223E+005   -4.04253E+001   -2.57586E+001   -1.54768E+005
            5920    3.32557E+006    3.45213E+006    3.45213E+006    3.52905E+005   -6.10320E+004    3.51316E+006   -1.24800E+006    3.26686E+006    3.45213E+006   -6.13398E+003    2.98007E+005   -6.24971E+001    9.43144E+000   -1.40394E+005
            5921    3.31909E+006    3.47676E+006    3.47676E+006    4.08519E+005   -4.62828E+004    3.52304E+006   -1.27967E+006    3.24788E+006    3.47676E+006   -1.54902E+004    3.77727E+005   -2.66344E+001   -4.54086E+001   -1.14264E+005
            5922    3.33599E+006    3.46995E+006    3.46995E+006    4.58717E+005   -1.16097E+005    3.58605E+006   -1.27086E+006    3.22174E+006    3.46995E+006   -3.36707E+004    3.76291E+005    6.33353E+001   -1.07268E+002   -2.01459E+005
            5923    3.34242E+006    3.45251E+006    3.45251E+006    4.30940E+005   -1.37777E+005    3.59029E+006   -1.24856E+006    3.23086E+006    3.45251E+006   -3.92823E+003    2.97091E+005    1.16273E+002   -9.00995E+001   -2.41260E+005
            5924    3.34487E+006    3.43786E+006    3.43786E+006    3.94572E+005   -1.43395E+005    3.58125E+006   -1.22968E+006    3.24540E+006    3.43786E+006    3.88910E+004    2.12286E+005    1.15634E+002   -3.37147E+001   -2.54629E+005
            5925    3.34802E+006    3.42178E+006    3.42178E+006    3.56895E+005   -1.51275E+005    3.57306E+006   -1.20913E+006    3.25956E+006    3.42178E+006    7.90552E+004    1.26565E+005    7.49166E+001   -3.27771E+001   -2.52972E+005
            5926    3.34794E+006    3.42242E+006    3.42242E+006    3.58585E+005   -1.51169E+005    3.57359E+006   -1.20994E+006    3.25891E+006    3.42242E+006    1.43529E+005    6.38865E+004   -3.56506E+001    6.81817E+001   -2.51747E+005
            5927    3.34393E+006    3.44043E+006    3.44043E+006    3.98810E+005   -1.40312E+005    3.58074E+006   -1.23297E+006    3.24399E+006    3.44043E+006    2.35216E+005    2.32815E+004   -3.56673E+001    6.93470E+001   -2.47859E+005
            5928    3.33987E+006    3.45772E+006    3.45772E+006    4.37004E+005   -1.28975E+005    3.58670E+006   -1.25525E+006    3.22932E+006    3.45772E+006    3.23722E+005   -1.56925E+004   -8.83159E+001    6.75821E+001   -2.26457E+005
            5929    3.33225E+006    3.47763E+006    3.47763E+006    4.67723E+005   -1.03198E+005    3.58083E+006   -1.28072E+006    3.21945E+006    3.47763E+006    4.04376E+005   -3.98522E+004   -8.23607E+001    1.60482E+001   -1.79313E+005
            5930    3.31743E+006    3.48280E+006    3.48280E+006    4.21395E+005   -4.19524E+004    3.52475E+006   -1.28741E+006    3.24344E+006    3.48280E+006    3.95670E+005   -1.62265E+004   -3.95026E+001    1.89519E+001   -1.06105E+005
            5931    3.30970E+006    3.48896E+006    3.48896E+006    4.04103E+005   -7.14282E+003    3.49610E+006   -1.29531E+006    3.25147E+006    3.48896E+006    4.00623E+005   -3.66188E+003   -4.94724E+001    1.73038E+001   -3.76750E+004
            5932    3.32403E+006    3.45695E+006    3.45695E+006    3.62338E+005   -5.67620E+004    3.51371E+006   -1.25417E+006    3.26380E+006    3.45695E+006    3.13330E+005   -7.75446E+003    1.09707E+001   -1.55494E+001   -1.34675E+005
            5933    3.31691E+006    3.45468E+006    3.45468E+006    3.11110E+005   -1.19299E+004    3.46661E+006   -1.25129E+006    3.28123E+006    3.45468E+006    3.03992E+005   -4.81139E+003   -4.46481E+001    2.74675E+001   -4.74226E+004
            5934    3.33094E+006    3.43189E+006    3.43189E+006    3.05994E+005   -7.18797E+004    3.50377E+006   -1.22200E+006    3.28220E+006    3.43189E+006    2.30204E+005    3.91100E+003   -2.87864E+001   -2.96231E+000   -1.51311E+005
            5935    3.32587E+006    3.41978E+006    3.41978E+006    2.13576E+005   -1.40588E+004    3.43384E+006   -1.20643E+006    3.30827E+006    3.41978E+006    2.00465E+005   -9.47396E+002   -1.57731E+001    2.58784E+001   -5.30350E+004
            5936    3.33436E+006    3.41180E+006    3.41180E+006    2.44183E+005   -6.74219E+004    3.47922E+006   -1.19619E+006    3.30136E+006    3.41180E+006    1.41220E+005    3.55413E+004    4.46915E-001   -2.40477E+000   -1.46569E+005
            5937    3.33435E+006    3.39104E+006    3.39104E+006    1.25374E+005   -7.99554E+003    3.39904E+006   -1.16947E+006    3.32834E+006    3.39104E+006    1.08603E+005    8.77555E+003    3.20915E+000    3.12979E+001   -4.42209E+004
            5938    3.34231E+006    3.36899E+006    3.36899E+006    5.92924E+004   -5.00904E+003    3.37400E+006   -1.14109E+006    3.34092E+006    3.36899E+006    4.45895E+004    9.69380E+003    1.19300E+001    1.34601E+001   -2.70044E+004
            5939    3.34740E+006    3.35622E+006    3.35622E+006    1.77272E+004    1.18121E+000    3.35622E+006   -1.12465E+006    3.34729E+006    3.35622E+006    9.29236E+003    8.43598E+003    8.69307E+000    1.39959E+001   -8.85264E+003
            5940    3.33529E+006    3.39418E+006    3.39418E+006    1.61146E+005   -3.47380E+004    3.42892E+006   -1.17353E+006    3.32231E+006    3.39418E+006    6.51759E+004    6.12321E+004    1.99165E+001    2.47755E+001   -9.79221E+004
            5941    3.34278E+006    3.36777E+006    3.36777E+006    5.62141E+004   -5.39695E+003    3.37316E+006   -1.13953E+006    3.34150E+006    3.36777E+006    1.01470E+004    4.06701E+004    1.16010E+001    2.40886E+001   -2.67594E+004
            5942    3.33117E+006    3.48705E+006    3.48705E+006    4.92468E+005   -1.00952E+005    3.58800E+006   -1.29286E+006    3.20901E+006    3.48705E+006   -5.24391E+004    4.43956E+005    2.85765E+001    1.86011E+002   -1.62588E+005
            5943    3.32080E+006    3.49347E+006    3.49347E+006    4.71371E+005   -6.15746E+004    3.55504E+006   -1.30109E+006    3.22247E+006    3.49347E+006   -3.38946E+004    4.43691E+005   -5.84784E+001   -3.46088E+001   -1.18261E+005
            5944    3.31412E+006    3.49805E+006    3.49805E+006    4.57167E+005   -3.43867E+004    3.53244E+006   -1.30694E+006    3.23058E+006    3.49805E+006   -1.83122E+004    4.41093E+005    8.87276E+000    6.60436E+001   -8.74249E+004
            5945    3.30901E+006    3.50414E+006    3.50414E+006    4.54611E+005   -1.43171E+004    3.51846E+006   -1.31481E+006    3.23299E+006    3.50414E+006   -7.93365E+003    4.48227E+005   -2.05272E+001    3.48038E+001   -5.43383E+004
            5946    3.30551E+006    3.51269E+006    3.51269E+006    4.67133E+005   -2.54414E+003    3.51523E+006   -1.32576E+006    3.22916E+006    3.51269E+006   -1.77530E+003    4.66364E+005   -3.82628E+000    3.73468E+001   -1.89873E+004
            5947    3.32263E+006    3.50608E+006    3.50608E+006    5.17601E+005   -7.18181E+004    3.57789E+006   -1.31729E+006    3.20182E+006    3.50608E+006   -5.60451E+004    5.01828E+005    5.07984E+001    1.04776E+002   -9.51217E+004
            5948    3.31532E+006    3.51121E+006    3.51121E+006    5.04853E+005   -4.44643E+004    3.55567E+006   -1.32387E+006    3.21053E+006    3.51121E+006   -3.54493E+004    4.95838E+005   -1.14010E+002   -3.70826E+001   -6.97914E+004
            5949    3.31029E+006    3.51682E+006    3.51682E+006    5.01436E+005   -2.52301E+004    3.54205E+006   -1.33101E+006    3.21400E+006    3.51682E+006   -2.00516E+004    4.96258E+005    4.48202E+001    4.52439E+001   -5.19666E+004
            5950    3.30589E+006    3.52444E+006    3.52444E+006    5.08153E+005   -9.88545E+003    3.53433E+006   -1.34090E+006    3.21266E+006    3.52444E+006   -7.83388E+003    5.06101E+005   -3.24091E+001    2.74215E+001   -3.25358E+004
            5951    3.30333E+006    3.53421E+006    3.53421E+006    5.28127E+005   -2.20192E+003    3.53641E+006   -1.35338E+006    3.20545E+006    3.53421E+006   -1.95847E+003    5.27883E+005   -3.06429E+000    2.72805E+001   -1.13599E+004
            5952    3.31800E+006    3.51666E+006    3.51666E+006    5.32300E+005   -5.62231E+004    3.57288E+006   -1.33091E+006    3.19739E+006    3.51666E+006   -5.47018E+004    5.30779E+005    6.87949E+001    4.91051E+001   -2.98831E+004
            5953    3.31267E+006    3.52111E+006    3.52111E+006    5.25004E+005   -3.63935E+004    3.55750E+006   -1.33657E+006    3.20302E+006    3.52111E+006   -3.54574E+004    5.24068E+005   -1.43391E+002   -3.95173E+000   -2.29052E+004
            5954    3.30820E+006    3.52744E+006    3.52744E+006    5.26230E+005   -1.98061E+004    3.54725E+006   -1.34462E+006    3.20446E+006    3.52744E+006   -1.92749E+004    5.25698E+005    6.31277E+001    1.64666E+001   -1.70222E+004
            5955    3.30461E+006    3.53537E+006    3.53537E+006    5.37632E+005   -8.15901E+003    3.54353E+006   -1.35495E+006    3.20084E+006    3.53537E+006   -7.94725E+003    5.37420E+005   -3.68932E+001    8.51222E+000   -1.07484E+004
            5956    3.30242E+006    3.54587E+006    3.54587E+006    5.60832E+005   -1.66517E+003    3.54754E+006   -1.36835E+006    3.19196E+006    3.54587E+006   -1.63895E+003    5.60806E+005   -4.75423E+000    8.25437E+000   -3.83997E+003
            5957    3.33142E+006    3.48055E+006    3.48055E+006    4.73714E+005   -1.00742E+005    3.58130E+006   -1.28451E+006    3.21715E+006    3.48055E+006    4.14166E+005   -4.11939E+004    8.64948E+001    2.86952E+001    1.75105E+005
            5958    3.31628E+006    3.48816E+006    3.48816E+006    4.34153E+005   -3.94599E+004    3.52762E+006   -1.29428E+006    3.23888E+006    3.48816E+006    4.12112E+005   -1.74184E+004    3.53959E+000   -4.95327E+000    9.97663E+004
            5959    3.30849E+006    3.49697E+006    3.49697E+006    4.27280E+005   -7.36258E+003    3.50433E+006   -1.30563E+006    3.24333E+006    3.49697E+006    4.24376E+005   -4.45861E+003    6.45166E+001    1.63319E+001    3.54084E+004
            5960    3.32338E+006    3.50006E+006    3.50006E+006    5.02558E+005   -7.38050E+004    3.57386E+006   -1.30960E+006    3.20803E+006    3.50006E+006    4.78520E+005   -4.97671E+004    9.68990E+001   -1.64961E+001    1.15225E+005
            5961    3.31115E+006    3.51072E+006    3.51072E+006    4.85897E+005   -2.69262E+004    3.53764E+006   -1.32323E+006    3.21998E+006    3.51072E+006    4.77594E+005   -1.86228E+004    1.94360E+001    5.15396E+001    6.47240E+004
            5962    3.30516E+006    3.52296E+006    3.52296E+006    5.00056E+005   -6.06380E+003    3.52902E+006   -1.33898E+006    3.21624E+006    3.52296E+006    4.98974E+005   -4.98148E+003    5.85665E+001   -6.43376E+000    2.33798E+004
            5963    3.31751E+006    3.51494E+006    3.51494E+006    5.25233E+005   -5.40593E+004    3.56900E+006   -1.32871E+006    3.20074E+006    3.51494E+006    5.20094E+005   -4.89203E+004    4.32959E+001   -4.29472E+001    5.43194E+004
            5964    3.30867E+006    3.52504E+006    3.52504E+006    5.21065E+005   -2.13066E+004    3.54635E+006   -1.34160E+006    3.20637E+006    3.52504E+006    5.19344E+005   -1.95856E+004   -4.83077E+000    9.26700E+001    3.05038E+004
            5965    3.30337E+006    3.53995E+006    3.53995E+006    5.46625E+005   -4.21180E+003    3.54416E+006   -1.36079E+006    3.19759E+006    3.53995E+006    5.46411E+005   -3.99753E+003    3.92622E+001   -2.27824E+001    1.08621E+004
            5966    3.31572E+006    3.51934E+006    3.51934E+006    5.32107E+005   -4.82402E+004    3.56758E+006   -1.33440E+006    3.19845E+006    3.51934E+006    5.32091E+005   -4.82245E+004    1.47921E+001   -4.56459E+001   -3.01467E+003
            5967    3.30780E+006    3.52988E+006    3.52988E+006    5.32415E+005   -1.89606E+004    3.54884E+006   -1.34778E+006    3.20195E+006    3.52988E+006    5.32393E+005   -1.89389E+004    1.53522E+001    1.10608E+002   -3.45834E+003
            5968    3.30318E+006    3.54453E+006    3.54453E+006    5.59911E+005   -4.48310E+003    3.54901E+006   -1.36665E+006    3.19198E+006    3.54453E+006    5.59907E+005   -4.47934E+003    2.56946E+000   -3.31401E+001   -1.45703E+003
            5969    3.31781E+006    3.51383E+006    3.51383E+006    5.22921E+005   -5.49534E+004    3.56879E+006   -1.32727E+006    3.20164E+006    3.51383E+006    5.16691E+005   -4.87232E+004   -4.13795E+001   -4.58685E+001   -5.96776E+004
            5970    3.30905E+006    3.52270E+006    3.52270E+006    5.15249E+005   -2.21547E+004    3.54486E+006   -1.33860E+006    3.20866E+006    3.52270E+006    5.12558E+005   -1.94640E+004   -2.37122E+001    9.82193E+001   -3.79303E+004
            5971    3.30357E+006    3.53690E+006    3.53690E+006    5.37782E+005   -4.11740E+003    3.54102E+006   -1.35685E+006    3.20128E+006    3.53690E+006    5.37444E+005   -3.77921E+003   -2.35358E+001   -2.15620E+001   -1.35332E+004
            5972    3.32396E+006    3.49810E+006    3.49810E+006    4.98881E+005   -7.56807E+004    3.57378E+006   -1.30710E+006    3.20937E+006    3.49810E+006    4.72321E+005   -4.91208E+004   -7.06442E+001   -1.65542E+001   -1.20644E+005
            5973    3.31200E+006    3.50644E+006    3.50644E+006    4.75390E+005   -2.87193E+004    3.53516E+006   -1.31770E+006    3.22399E+006    3.50644E+006    4.64985E+005   -1.83140E+004    1.08678E+001    6.16349E+001   -7.16739E+004
            5974    3.30598E+006    3.51669E+006    3.51669E+006    4.82880E+005   -6.82665E+003    3.52352E+006   -1.33091E+006    3.22286E+006    3.51669E+006    4.81459E+005   -5.40579E+003   -5.32080E+001   -9.81045E+000   -2.63398E+004
            5975    3.30558E+006    3.51241E+006    3.51241E+006    4.66597E+005   -2.77398E+003    3.51518E+006   -1.32541E+006    3.22933E+006    3.51241E+006   -2.00169E+003    4.65825E+005   -5.97300E+000   -3.85645E+001    1.90235E+004
            5976    3.30902E+006    3.50413E+006    3.50413E+006    4.54601E+005   -1.43437E+004    3.51848E+006   -1.31480E+006    3.23299E+006    3.50413E+006   -7.91357E+003    4.48171E+005   -1.42071E+001   -3.74348E+001    5.45347E+004
            5977    3.31419E+006    3.49803E+006    3.49803E+006    4.57531E+005   -3.47752E+004    3.53281E+006   -1.30693E+006    3.23039E+006    3.49803E+006   -1.86350E+004    4.41391E+005   -4.60208E+000   -6.63993E+001    8.76664E+004
            5978    3.32093E+006    3.49350E+006    3.49350E+006    4.72042E+005   -6.21265E+004    3.55563E+006   -1.30114E+006    3.22214E+006    3.49350E+006   -3.43282E+004    4.44244E+005   -4.09078E+001    3.13294E+001    1.18643E+005
            5979    3.33115E+006    3.48716E+006    3.48716E+006    4.92730E+005   -1.00898E+005    3.58806E+006   -1.29300E+006    3.20890E+006    3.48716E+006   -5.25286E+004    4.44361E+005    1.42886E+001   -1.87103E+002    1.62400E+005
            5980    3.30327E+006    3.53427E+006    3.53427E+006    5.28113E+005   -1.99016E+003    3.53626E+006   -1.35347E+006    3.20547E+006    3.53427E+006   -1.75118E+003    5.27874E+005   -3.29099E+000   -3.05862E+001    1.12529E+004
            5981    3.30587E+006    3.52449E+006    3.52449E+006    5.08267E+005   -9.85503E+003    3.53434E+006   -1.34097E+006    3.21262E+006    3.52449E+006   -7.83985E+003    5.06252E+005   -3.10073E+001   -3.05053E+001    3.22498E+004
            5982    3.31024E+006    3.51683E+006    3.51683E+006    5.01265E+005   -2.50312E+004    3.54186E+006   -1.33102E+006    3.21409E+006    3.51683E+006   -1.98699E+004    4.96104E+005    4.25526E+001   -4.92036E+001    5.18629E+004
            5983    3.31540E+006    3.51119E+006    3.51119E+006    5.05144E+005   -4.47905E+004    3.55598E+006   -1.32385E+006    3.21037E+006    3.51119E+006   -3.58098E+004    4.96164E+005   -1.12420E+002    3.56381E+001    6.97005E+004
            5984    3.32277E+006    3.50597E+006    3.50597E+006    5.17913E+005   -7.23824E+004    3.57835E+006   -1.31717E+006    3.20160E+006    3.50597E+006   -5.65250E+004    5.02055E+005    5.39175E+001   -1.18393E+002    9.54415E+004
            5985    3.30245E+006    3.54584E+006    3.54584E+006    5.60869E+005   -1.80175E+003    3.54764E+006   -1.36830E+006    3.19193E+006    3.54584E+006   -1.77588E+003    5.60844E+005   -4.15424E+000   -1.24602E+001    3.81512E+003
            5986    3.30454E+006    3.53544E+006    3.53544E+006    5.37620E+005   -7.93141E+003    3.54337E+006   -1.35504E+006    3.20087E+006    3.53544E+006   -7.71857E+003    5.37407E+005   -3.92121E+001   -1.24859E+001    1.07735E+004
            5987    3.30820E+006    3.52748E+006    3.52748E+006    5.26323E+005   -1.97930E+004    3.54728E+006   -1.34467E+006    3.20443E+006    3.52748E+006   -1.92636E+004    5.25793E+005    6.80735E+001   -2.06154E+001    1.69954E+004
            5988    3.31258E+006    3.52115E+006    3.52115E+006    5.24762E+005   -3.60458E+004    3.55719E+006   -1.33662E+006    3.20316E+006    3.52115E+006   -3.51230E+004    5.23839E+005   -1.51977E+002    3.17188E+000    2.27299E+004
            5989    3.31787E+006    3.51667E+006    3.51667E+006    5.31902E+005   -5.57754E+004    3.57245E+006   -1.33093E+006    3.19762E+006    3.51667E+006   -5.42357E+004    5.30362E+005    7.68164E+001   -5.68376E+001    3.00406E+004
            5990    3.35131E+006    3.42713E+006    3.42713E+006    3.87206E+005   -1.66572E+005    3.59371E+006   -1.21592E+006    3.24597E+006    3.42713E+006    1.62847E+005    5.77876E+004   -2.48026E+001    4.42229E+001    2.71860E+005
            5991    3.35243E+006    3.43064E+006    3.43064E+006    4.02395E+005   -1.71797E+005    3.60244E+006   -1.22041E+006    3.23902E+006    3.43064E+006    1.02147E+005    1.28451E+005   -9.61427E+001    4.81781E+000    2.86795E+005
            5992    3.35282E+006    3.43735E+006    3.43735E+006    4.24261E+005   -1.74526E+005    3.61187E+006   -1.22903E+006    3.22922E+006    3.43735E+006    4.70456E+004    2.02689E+005   -8.85868E+001   -4.92389E+001    2.89103E+005
            5993    3.34856E+006    3.44896E+006    3.44896E+006    4.43270E+005   -1.60362E+005    3.60932E+006   -1.24396E+006    3.22273E+006    3.44896E+006   -1.27578E+003    2.84184E+005   -7.44956E+001   -1.31005E+002    2.65934E+005
            5994    3.34128E+006    3.46584E+006    3.46584E+006    4.66409E+005   -1.35486E+005    3.60132E+006   -1.26559E+006    3.21590E+006    3.46584E+006   -3.64900E+004    3.67412E+005   -3.46351E+001   -1.56808E+002    2.23126E+005
            5995    3.32837E+006    3.47185E+006    3.47185E+006    4.34195E+005   -8.59838E+004    3.55783E+006   -1.27335E+006    3.23502E+006    3.47185E+006   -2.66471E+004    3.74858E+005    1.19567E+001    2.82669E+001    1.65363E+005
            5996    3.32054E+006    3.47409E+006    3.47409E+006    4.05996E+005   -5.14529E+004    3.52554E+006   -1.27621E+006    3.24851E+006    3.47409E+006   -1.55038E+004    3.70047E+005   -3.87649E+001   -6.17315E+001    1.23096E+005
            5997    3.31421E+006    3.47788E+006    3.47788E+006    3.87075E+005   -2.17893E+004    3.49967E+006   -1.28105E+006    3.25674E+006    3.47788E+006   -6.55369E+003    3.71839E+005   -6.47614E+000   -3.62319E+001    7.74414E+004
            5998    3.31020E+006    3.48269E+006    3.48269E+006    3.83350E+005   -4.24077E+003    3.48694E+006   -1.28727E+006    3.25856E+006    3.48269E+006   -2.34856E+003    3.81457E+005   -5.91852E+000   -3.67704E+001    2.70152E+004
            5999    3.33613E+006    3.45095E+006    3.45095E+006    3.99667E+005   -1.11114E+005    3.56206E+006   -1.24650E+006    3.24640E+006    3.45095E+006   -7.82741E+003    2.96381E+005    4.67773E+001   -3.31948E+000    2.05156E+005
            6000    3.32717E+006    3.45071E+006    3.45071E+006    3.56479E+005   -6.85467E+004    3.51926E+006   -1.24622E+006    3.26526E+006    3.45071E+006   -3.98174E+003    2.91914E+005   -6.96297E+001   -4.59520E+001    1.52555E+005
            6001    3.32102E+006    3.45001E+006    3.45001E+006    3.17836E+005   -3.21506E+004    3.48216E+006   -1.24523E+006    3.27915E+006    3.45001E+006   -2.93987E+003    2.88625E+005    5.55328E+000   -2.51881E+001    9.67994E+004
            6002    3.31719E+006    3.44965E+006    3.44965E+006    2.90644E+005   -5.83007E+003    3.45548E+006   -1.24482E+006    3.28719E+006    3.44965E+006   -1.90749E+003    2.86722E+005   -1.55086E+001   -2.36837E+001    3.38756E+004
            6003    3.34049E+006    3.43538E+006    3.43538E+006    3.67802E+005   -1.23592E+005    3.55897E+006   -1.22653E+006    3.25769E+006    3.43538E+006    2.73509E+004    2.16858E+005    6.57692E+001   -9.98644E+000    2.26691E+005
            6004    3.33273E+006    3.43064E+006    3.43064E+006    3.11791E+005   -8.11413E+004    3.51178E+006   -1.22043E+006    3.28001E+006    3.43064E+006    1.46671E+004    2.15982E+005   -7.39304E+001   -1.75280E+001    1.68722E+005
            6005    3.32745E+006    3.42547E+006    3.42547E+006    2.55146E+005   -3.95078E+004    3.46498E+006   -1.21370E+006    3.29791E+006    3.42547E+006    6.17749E+003    2.09461E+005    5.47432E+000   -1.77776E+001    1.06650E+005
            6006    3.32580E+006    3.41759E+006    3.41759E+006    2.00307E+005   -7.01576E+003    3.42461E+006   -1.20363E+006    3.31121E+006    3.41759E+006   -2.50771E+002    1.93542E+005   -1.69869E+001   -8.25455E+000    3.68344E+004
            6007    3.34263E+006    3.42412E+006    3.42412E+006    3.39714E+005   -1.27558E+005    3.55168E+006   -1.21209E+006    3.26794E+006    3.42412E+006    6.99550E+004    1.42201E+005    7.89428E+001   -5.11542E+001    2.30827E+005
            6008    3.33474E+006    3.41695E+006    3.41695E+006    2.69036E+005   -7.75524E+004    3.49450E+006   -1.20281E+006    3.29386E+006    3.41695E+006    4.49272E+004    1.46556E+005   -1.10210E+002    3.13088E+001    1.65677E+005
            6009    3.33257E+006    3.40538E+006    3.40538E+006    1.97621E+005   -3.93516E+004    3.44473E+006   -1.18788E+006    3.31353E+006    3.40538E+006    1.79796E+004    1.40290E+005    5.11899E+001   -2.06201E+001    1.01484E+005
            6010    3.33446E+006    3.39047E+006    3.39047E+006    1.22753E+005   -6.94484E+003    3.39741E+006   -1.16876E+006    3.32877E+006    3.39047E+006    2.74013E+003    1.13068E+005   -4.04994E+001    6.44732E+000    3.40929E+004
            6011    3.33924E+006    3.42096E+006    3.42096E+006    3.11485E+005   -1.08328E+005    3.52929E+006   -1.20804E+006    3.27908E+006    3.42096E+006    1.31439E+005    7.17180E+004    5.88997E+001   -2.30599E+001    2.07772E+005
            6012    3.33458E+006    3.40587E+006    3.40587E+006    2.18014E+005   -5.82483E+004    3.46412E+006   -1.18854E+006    3.30869E+006    3.40587E+006    7.25855E+004    8.71804E+004   -9.28063E+001    4.77624E+001    1.37938E+005
            6013    3.33600E+006    3.39023E+006    3.39023E+006    1.42899E+005   -2.78670E+004    3.41810E+006   -1.16842E+006    3.32614E+006    3.39023E+006    3.01116E+004    8.49209E+004    5.55115E+001   -1.79937E+001    8.08658E+004
            6014    3.34188E+006    3.37011E+006    3.37011E+006    6.36482E+004   -6.08386E+003    3.37620E+006   -1.14256E+006    3.34024E+006    3.37011E+006    5.34685E+003    5.22175E+004   -4.41059E+001    2.32556E+001    2.58152E+004
            6015    3.34635E+006    3.35874E+006    3.35874E+006    2.58624E+004   -9.21834E+002    3.35966E+006   -1.12789E+006    3.34611E+006    3.35874E+006    8.40756E+003    1.65330E+004   -1.20012E+001    1.36890E+001    1.27610E+004
            6016    3.34929E+006    3.35173E+006    3.35173E+006    4.86699E+003    1.34249E+001    3.35172E+006   -1.11887E+006    3.34928E+006    3.35173E+006    2.56580E+003    2.31462E+003   -3.66839E+000    3.18097E+000    2.42353E+003
            6017    3.33946E+006    3.37691E+006    3.37691E+006    8.66230E+004   -9.63628E+003    3.38655E+006   -1.15130E+006    3.33633E+006    3.37691E+006    3.66856E+004    4.03011E+004   -9.09490E+000    1.26191E+001    4.80957E+004
            6018    3.34554E+006    3.36068E+006    3.36068E+006    3.11910E+004   -6.96510E+002    3.36137E+006   -1.13039E+006    3.34520E+006    3.36068E+006    2.04849E+004    1.00096E+004   -1.50220E+001    8.10474E+000    1.50589E+004
            6019    3.33526E+006    3.39425E+006    3.39425E+006    1.60731E+005   -3.41983E+004    3.42845E+006   -1.17359E+006    3.32241E+006    3.39425E+006    8.52287E+004    4.13040E+004   -1.17192E+001    1.65621E+001    9.49579E+004
            6020    3.33893E+006    3.37796E+006    3.37796E+006    8.58645E+004   -5.92065E+003    3.38388E+006   -1.15263E+006    3.33609E+006    3.37796E+006    6.97702E+004    1.01736E+004   -1.05197E+001    1.34273E+001    3.49026E+004
            6021    3.33286E+006    3.41645E+006    3.41645E+006    2.54372E+005   -6.42938E+004    3.48075E+006   -1.20218E+006    3.29832E+006    3.41645E+006    1.64036E+005    2.60426E+004    4.44342E+000    3.02940E+001    1.43619E+005
            6022    3.33068E+006    3.40272E+006    3.40272E+006    1.61168E+005   -1.04498E+004    3.41317E+006   -1.18448E+006    3.32071E+006    3.40272E+006    1.46128E+005    4.59035E+003   -3.38879E+000    6.18174E+000    4.85279E+004
            6023    3.32250E+006    3.43104E+006    3.43104E+006    2.43217E+005   -1.14799E+004    3.44252E+006   -1.22092E+006    3.30043E+006    3.43104E+006    2.31833E+005   -9.57971E+001    1.91511E+001    2.60786E+001    5.26298E+004
            6024    3.31500E+006    3.46384E+006    3.46384E+006    3.37633E+005   -1.22055E+004    3.47605E+006   -1.26309E+006    3.27309E+006    3.46384E+006    3.31164E+005   -5.73667E+003    4.81430E+001    2.97347E+001    4.71298E+004
            6025    3.32980E+006    3.43839E+006    3.43839E+006    3.24455E+005   -7.18045E+004    3.51020E+006   -1.23035E+006    3.27612E+006    3.43839E+006    2.48410E+005    4.23954E+003    6.14419E+000   -2.53912E+001    1.56046E+005
            6026    3.32291E+006    3.46291E+006    3.46291E+006    3.78487E+005   -5.57886E+004    3.51870E+006   -1.26187E+006    3.25815E+006    3.46291E+006    3.34463E+005   -1.17644E+004    1.87695E+001   -3.48595E+001    1.31075E+005
            6027    3.33880E+006    3.46026E+006    3.46026E+006    4.40336E+005   -1.25185E+005    3.58544E+006   -1.25847E+006    3.22840E+006    3.46026E+006    3.32373E+005   -1.72212E+004    9.19337E+001    8.29067E+001    2.22260E+005
            6028    3.34560E+006    3.43997E+006    3.43997E+006    4.04472E+005   -1.47168E+005    3.58714E+006   -1.23242E+006    3.24091E+006    3.43997E+006    2.41211E+005    1.60933E+004    4.37219E+001    7.91629E+001    2.51808E+005
            6029    3.34810E+006    3.42201E+006    3.42201E+006    3.56997E+005   -1.51101E+005    3.57311E+006   -1.20930E+006    3.25967E+006    3.42201E+006    7.96812E+004    1.26215E+005   -5.22888E+001    7.33278E-001    2.52982E+005
            6030    3.34492E+006    3.43768E+006    3.43768E+006    3.94562E+005   -1.43746E+005    3.58143E+006   -1.22950E+006    3.24531E+006    3.43768E+006    3.84504E+004    2.12366E+005   -6.34329E+001    3.07785E+001    2.54720E+005
            6031    3.34247E+006    3.45244E+006    3.45244E+006    4.30491E+005   -1.37714E+005    3.59015E+006   -1.24841E+006    3.23112E+006    3.45244E+006   -4.20275E+003    2.96980E+005   -6.22495E+001    4.85071E+000    2.40908E+005
            6032    3.33583E+006    3.46985E+006    3.46985E+006    4.58424E+005   -1.15822E+005    3.58568E+006   -1.27082E+006    3.22180E+006    3.46985E+006   -3.37295E+004    3.76332E+005   -2.85779E+001    6.77297E+000    2.01003E+005
            6033    3.31925E+006    3.47650E+006    3.47650E+006    4.08172E+005   -4.67552E+004    3.52325E+006   -1.27930E+006    3.24800E+006    3.47650E+006   -1.53818E+004    3.76798E+005    4.02665E+001    3.89149E+001    1.15275E+005
            6034    3.31106E+006    3.48165E+006    3.48165E+006    3.84156E+005   -8.04242E+003    3.48969E+006   -1.28592E+006    3.25819E+006    3.48165E+006   -3.83825E+003    3.79952E+005   -7.48961E+000    3.29903E+001    4.03881E+004
            6035    3.32565E+006    3.45178E+006    3.45178E+006    3.52328E+005   -6.13588E+004    3.51314E+006   -1.24758E+006    3.26701E+006    3.45178E+006   -5.73061E+003    2.96700E+005    5.97177E+001    6.18112E+001    1.41132E+005
            6036    3.31873E+006    3.44765E+006    3.44765E+006    2.92458E+005   -1.34274E+004    3.46108E+006   -1.24223E+006    3.28679E+006    3.44765E+006   -5.09942E+003    2.84130E+005   -1.08181E+001    1.96065E+001    4.97800E+004
            6037    3.33180E+006    3.42896E+006    3.42896E+006    2.99713E+005   -7.38878E+004    3.50285E+006   -1.21826E+006    3.28418E+006    3.42896E+006    8.45402E+003    2.17371E+005    4.80435E+001    1.43833E+001    1.54864E+005
            6038    3.32730E+006    3.41497E+006    3.41497E+006    2.00033E+005   -1.43283E+004    3.42930E+006   -1.20023E+006    3.31172E+006    3.41497E+006    1.41682E+002    1.85563E+005   -2.66224E+000    8.58461E+000    5.37813E+004
            6039    3.33450E+006    3.41080E+006    3.41080E+006    2.40953E+005   -6.69996E+004    3.47780E+006   -1.19492E+006    3.30228E+006    3.41080E+006    4.13010E+004    1.32653E+005    3.61585E+001   -1.67445E+000    1.47046E+005
            6040    3.33531E+006    3.38832E+006    3.38832E+006    1.17794E+005   -8.21429E+003    3.39653E+006   -1.16597E+006    3.32995E+006    3.38832E+006    9.53905E+003    1.00041E+005   -1.29803E+000   -3.61552E+000    4.38394E+004
            6041    3.34269E+006    3.36796E+006    3.36796E+006    5.66682E+004   -5.27951E+003    3.37324E+006   -1.13978E+006    3.34140E+006    3.36796E+006    1.02071E+004    4.11816E+004    8.71575E+000   -1.70898E+001    2.68240E+004
            6042    3.34738E+006    3.35621E+006    3.35621E+006    1.77354E+004   -5.70167E+000    3.35621E+006   -1.12465E+006    3.34727E+006    3.35621E+006    9.12294E+003    8.60673E+003    4.58919E+000   -7.69867E+000    8.86678E+003
            6043    3.33531E+006    3.39416E+006    3.39416E+006    1.61026E+005   -3.47131E+004    3.42887E+006   -1.17349E+006    3.32235E+006    3.39416E+006    6.51135E+004    6.11990E+004    6.60173E+000   -1.12850E+001    9.78498E+004
            6044    3.34239E+006    3.36876E+006    3.36876E+006    5.88344E+004   -5.17908E+003    3.37394E+006   -1.14081E+006    3.34101E+006    3.36876E+006    4.40616E+004    9.59373E+003    1.02654E+001   -1.06070E+001    2.69708E+004
            6045    3.33454E+006    3.39057E+006    3.39057E+006    1.24034E+005   -8.04343E+003    3.39862E+006   -1.16885E+006    3.32865E+006    3.39057E+006    1.07278E+005    8.71237E+003   -2.11956E+000   -2.42859E+000    4.39581E+004
            6046    3.32615E+006    3.41904E+006    3.41904E+006    2.11445E+005   -1.41711E+004    3.43321E+006   -1.20544E+006    3.30887E+006    3.41904E+006    1.98333E+005   -1.05981E+003   -1.30755E+001   -3.89646E+000    5.27846E+004
            6047    3.31705E+006    3.45441E+006    3.45441E+006    3.10292E+005   -1.20448E+004    3.46645E+006   -1.25088E+006    3.28154E+006    3.45441E+006    3.03303E+005   -5.05515E+003   -1.77305E+001    3.38274E+000    4.69485E+004
            6048    3.30956E+006    3.48945E+006    3.48945E+006    4.05038E+005   -6.72505E+003    3.49617E+006   -1.29592E+006    3.25118E+006    3.48945E+006    4.01661E+005   -3.34811E+003   -2.48715E+001   -1.16585E+000    3.71362E+004
            6049    3.33438E+006    3.41171E+006    3.41171E+006    2.44034E+005   -6.75154E+004    3.47922E+006   -1.19608E+006    3.30140E+006    3.41171E+006    1.41188E+005    3.53306E+004   -5.22217E+000   -3.62176E+001    1.46507E+005
            6050    3.33091E+006    3.43197E+006    3.43197E+006    3.06123E+005   -7.17697E+004    3.50374E+006   -1.22211E+006    3.28217E+006    3.43197E+006    2.30792E+005    3.56153E+003   -1.80514E+001   -3.96282E+001    1.50971E+005
            6051    3.32394E+006    3.45705E+006    3.45705E+006    3.62412E+005   -5.64694E+004    3.51352E+006   -1.25433E+006    3.26376E+006    3.45705E+006    3.13756E+005   -7.81368E+003   -5.83240E+001   -4.44696E+001    1.34215E+005
            6052    3.31734E+006    3.48290E+006    3.48290E+006    4.20952E+005   -4.13470E+004    3.52424E+006   -1.28750E+006    3.24368E+006    3.48290E+006    3.95311E+005   -1.57055E+004   -2.61912E+001   -1.86140E+001    1.05814E+005
            6053    3.33222E+006    3.47770E+006    3.47770E+006    4.68250E+005   -1.03337E+005    3.58104E+006   -1.28087E+006    3.21914E+006    3.47770E+006    4.04875E+005   -3.99627E+004   -1.65059E+000   -2.59882E+001    1.79465E+005
            6054    3.34003E+006    3.45778E+006    3.45778E+006    4.37134E+005   -1.29218E+005    3.58700E+006   -1.25523E+006    3.22934E+006    3.45778E+006    3.23318E+005   -1.54032E+004   -3.86531E+000    2.36647E+001    2.26949E+005
            6055    3.34391E+006    3.44029E+006    3.44029E+006    3.98529E+005   -1.40324E+005    3.58061E+006   -1.23283E+006    3.24407E+006    3.44029E+006    2.34714E+005    2.34913E+004   -2.99808E+001    3.23774E+001    2.47865E+005
            6056    3.34813E+006    3.42242E+006    3.42242E+006    3.58382E+005   -1.51354E+005    3.57377E+006   -1.20981E+006    3.25912E+006    3.42242E+006    1.43766E+005    6.32631E+004   -9.03996E+000    4.08343E+001    2.51670E+005
            6057    3.30679E+006    3.51027E+006    3.51027E+006    4.65078E+005   -7.31257E+003    3.51758E+006   -1.32268E+006    3.22957E+006    3.51027E+006   -5.45325E+003    4.63219E+005    3.51209E-002    2.75346E+001    2.95782E+004
            6058    3.31340E+006    3.49998E+006    3.49998E+006    4.60826E+005   -3.23773E+004    3.53235E+006   -1.30948E+006    3.22926E+006    3.49998E+006   -1.85238E+004    4.46972E+005    2.53413E+001    8.52949E+001    8.14903E+004
            6059    3.32784E+006    3.48992E+006    3.48992E+006    4.88424E+005   -8.87588E+004    3.57868E+006   -1.29653E+006    3.21232E+006    3.48992E+006   -4.83344E+004    4.48000E+005    9.03321E+000   -7.05589E-001    1.47303E+005
            6060    3.30406E+006    3.53203E+006    3.53203E+006    5.24568E+005   -4.71548E+003    3.53675E+006   -1.35063E+006    3.20659E+006    3.53203E+006   -4.15062E+003    5.24003E+005    9.77560E+000    2.65478E+001    1.72816E+004
            6061    3.30969E+006    3.51825E+006    3.51825E+006    5.04212E+005   -2.36436E+004    3.54189E+006   -1.33294E+006    3.21293E+006    3.51825E+006   -1.91080E+004    4.99677E+005    2.51863E-001    2.23008E+001    4.87190E+004
            6062    3.32035E+006    3.50798E+006    3.50798E+006    5.14581E+005   -6.34252E+004    3.57141E+006   -1.31971E+006    3.20422E+006    3.50798E+006   -5.02596E+004    5.01415E+005    5.50542E+001   -1.05333E+001    8.62351E+004
            6063    3.30318E+006    3.54328E+006    3.54328E+006    5.56134E+005   -4.24574E+003    3.54752E+006   -1.36505E+006    3.19360E+006    3.54328E+006   -4.18540E+003    5.56074E+005    2.39919E+001    7.05801E+000    5.81459E+003
            6064    3.30790E+006    3.52836E+006    3.52836E+006    5.28982E+005   -1.95082E+004    3.54787E+006   -1.34594E+006    3.20319E+006    3.52836E+006   -1.90693E+004    5.28543E+005   -2.13481E+001    4.28270E+001    1.55101E+004
            6065    3.31641E+006    3.51832E+006    3.51832E+006    5.30451E+005   -4.99972E+004    3.56831E+006   -1.33292E+006    3.19912E+006    3.51832E+006   -4.85731E+004    5.29027E+005    8.52499E+001    8.34324E+000    2.87156E+004
            6066    3.30863E+006    3.49631E+006    3.49631E+006    4.25505E+005   -7.50418E+003    3.50382E+006   -1.30477E+006    3.24397E+006    3.49631E+006    4.22561E+005   -4.56093E+003    2.51324E+001    4.67117E+000   -3.55779E+004
            6067    3.31642E+006    3.48778E+006    3.48778E+006    4.33642E+005   -3.99936E+004    3.52777E+006   -1.29381E+006    3.23901E+006    3.48778E+006    4.11216E+005   -1.75684E+004    6.46703E+001   -3.15536E+001   -1.00591E+005
            6068    3.33125E+006    3.48062E+006    3.48062E+006    4.73543E+005   -1.00254E+005    3.58087E+006   -1.28464E+006    3.21724E+006    3.48062E+006    4.14287E+005   -4.09975E+004    1.11013E+001    1.05740E+001   -1.74614E+005
            6069    3.30519E+006    3.52247E+006    3.52247E+006    4.98772E+005   -6.10474E+003    3.52858E+006   -1.33838E+006    3.21672E+006    3.52247E+006    4.97672E+005   -5.00488E+003    2.62771E+001   -5.89622E+000   -2.35389E+004
            6070    3.31114E+006    3.51054E+006    3.51054E+006    4.85638E+005   -2.70413E+004    3.53758E+006   -1.32305E+006    3.22003E+006    3.51054E+006    4.77274E+005   -1.86773E+004    4.00093E+001   -3.40572E+000   -6.49469E+004
            6071    3.32341E+006    3.50012E+006    3.50012E+006    5.02541E+005   -7.37488E+004    3.57387E+006   -1.30964E+006    3.20810E+006    3.50012E+006    4.78466E+005   -4.96734E+004   -1.75431E+001   -3.06356E+001   -1.15303E+005
            6072    3.30334E+006    3.53976E+006    3.53976E+006    5.46178E+005   -4.20694E+003    3.54397E+006   -1.36058E+006    3.19774E+006    3.53976E+006    5.45957E+005   -3.98627E+003    1.62143E+001   -1.53085E+001   -1.10185E+004
            6073    3.30857E+006    3.52495E+006    3.52495E+006    5.20929E+005   -2.11911E+004    3.54615E+006   -1.34156E+006    3.20635E+006    3.52495E+006    5.19194E+005   -1.94556E+004    5.07410E+001    1.50876E+001   -3.06243E+004
            6074    3.31746E+006    3.51504E+006    3.51504E+006    5.25102E+005   -5.37402E+004    3.56878E+006   -1.32880E+006    3.20087E+006    3.51504E+006    5.19861E+005   -4.84997E+004    9.01366E+000   -6.86222E+001   -5.48268E+004
            6075    3.30314E+006    3.54454E+006    3.54454E+006    5.60083E+005   -4.50014E+003    3.54904E+006   -1.36671E+006    3.19186E+006    3.54454E+006    5.60080E+005   -4.49671E+003    8.72492E+000   -2.36344E+001    1.39159E+003
            6076    3.30774E+006    3.52973E+006    3.52973E+006    5.32571E+005   -1.92001E+004    3.54893E+006   -1.34770E+006    3.20174E+006    3.52973E+006    5.32551E+005   -1.91801E+004   -3.97826E+000    2.44737E+001    3.31412E+003
            6077    3.31588E+006    3.51955E+006    3.51955E+006    5.32441E+005   -4.83522E+004    3.56791E+006   -1.33455E+006    3.19843E+006    3.51955E+006    5.32433E+005   -4.83439E+004   -1.09692E+001   -8.46846E+001    2.19966E+003
            6078    3.30351E+006    3.53715E+006    3.53715E+006    5.38565E+005   -4.08930E+003    3.54124E+006   -1.35721E+006    3.20093E+006    3.53715E+006    5.38231E+005   -3.75525E+003   -9.11818E+000   -1.86619E+001    1.34596E+004
            6079    3.30897E+006    3.52277E+006    3.52277E+006    5.15559E+005   -2.21078E+004    3.54488E+006   -1.33874E+006    3.20848E+006    3.52277E+006    5.12874E+005   -1.94222E+004    3.95113E+000    2.23816E+001    3.79045E+004
            6080    3.31771E+006    3.51406E+006    3.51406E+006    5.22966E+005   -5.44720E+004    3.56853E+006   -1.32752E+006    3.20172E+006    3.51406E+006    5.16977E+005   -4.84835E+004    1.05414E+001   -8.87479E+001    5.84989E+004
            6081    3.30591E+006    3.51719E+006    3.51719E+006    4.84244E+005   -6.76157E+003    3.52395E+006   -1.33156E+006    3.22234E+006    3.51719E+006    4.82850E+005   -5.36723E+003   -1.40757E+001   -1.38261E+001    2.61282E+004
            6082    3.31188E+006    3.50633E+006    3.50633E+006    4.75021E+005   -2.84604E+004    3.53479E+006   -1.31763E+006    3.22409E+006    3.50633E+006    4.64667E+005   -1.81067E+004   -5.37472E+001    5.50267E+000    7.14542E+004
            6083    3.32395E+006    3.49848E+006    3.49848E+006    4.99294E+005   -7.53117E+004    3.57380E+006   -1.30749E+006    3.20935E+006    3.49848E+006    4.73018E+005   -4.90356E+004   -1.84712E+000   -6.18656E+001    1.20033E+005
            6084    3.32791E+006    3.48990E+006    3.48990E+006    4.88504E+005   -8.89355E+004    3.57884E+006   -1.29649E+006    3.21228E+006    3.48990E+006   -4.85806E+004    4.48149E+005    1.98106E+001   -1.19891E+000   -1.47221E+005
            6085    3.31329E+006    3.50020E+006    3.50020E+006    4.61066E+005   -3.19876E+004    3.53219E+006   -1.30976E+006    3.22921E+006    3.50020E+006   -1.83258E+004    4.47404E+005    2.11353E+001   -8.44593E+001   -8.09281E+004
            6086    3.30678E+006    3.51061E+006    3.51061E+006    4.66084E+005   -7.38352E+003    3.51799E+006   -1.32310E+006    3.22920E+006    3.51061E+006   -5.55012E+003    4.64251E+005    2.46638E+000   -2.59230E+001   -2.94057E+004
            6087    3.32033E+006    3.50812E+006    3.50812E+006    5.14731E+005   -6.32589E+004    3.57137E+006   -1.31986E+006    3.20420E+006    3.50812E+006   -5.02517E+004    5.01724E+005    7.17038E+001    1.06333E+001   -8.57255E+004
            6088    3.30967E+006    3.51822E+006    3.51822E+006    5.04023E+005   -2.35584E+004    3.54177E+006   -1.33289E+006    3.21302E+006    3.51822E+006   -1.90158E+004    4.99481E+005   -8.52166E+000   -1.49088E+001   -4.87435E+004
            6089    3.30403E+006    3.53221E+006    3.53221E+006    5.24938E+005   -4.60555E+003    3.53682E+006   -1.35085E+006    3.20646E+006    3.53221E+006   -4.04767E+003    5.24380E+005    1.38349E+001   -2.35910E+001   -1.71787E+004
            6090    3.31635E+006    3.51842E+006    3.51842E+006    5.30479E+005   -4.97581E+004    3.56818E+006   -1.33305E+006    3.19914E+006    3.51842E+006   -4.84031E+004    5.29124E+005    9.30378E+001   -9.11929E+000   -2.80076E+004
            6091    3.30786E+006    3.52835E+006    3.52835E+006    5.28810E+005   -1.93547E+004    3.54770E+006   -1.34593E+006    3.20328E+006    3.52835E+006   -1.88864E+004    5.28341E+005   -2.66446E+001   -3.49846E+001   -1.60162E+004
            6092    3.30319E+006    3.54327E+006    3.54327E+006    5.56152E+005   -4.28166E+003    3.54756E+006   -1.36505E+006    3.19359E+006    3.54327E+006   -4.22005E+003    5.56090E+005    2.66340E+001   -2.86671E+000   -5.87571E+003
            6093    3.34205E+006    3.36975E+006    3.36975E+006    6.20600E+004   -5.62017E+003    3.37537E+006   -1.14206E+006    3.34051E+006    3.36975E+006    5.72837E+003    5.07114E+004    1.30067E+001    1.10139E+000   -2.52840E+004
            6094    3.33491E+006    3.38954E+006    3.38954E+006    1.20342E+005   -7.41738E+003    3.39696E+006   -1.16749E+006    3.32940E+006    3.38954E+006    2.30241E+003    1.10622E+005    1.48900E+001    2.31454E+000   -3.38722E+004
            6095    3.32609E+006    3.41697E+006    3.41697E+006    1.98374E+005   -7.08170E+003    3.42405E+006   -1.20275E+006    3.31177E+006    3.41697E+006   -4.92871E+002    1.91785E+005    3.41394E+000    8.71987E+000   -3.61980E+004
            6096    3.31723E+006    3.44968E+006    3.44968E+006    2.90281E+005   -5.55845E+003    3.45524E+006   -1.24480E+006    3.28735E+006    3.44968E+006   -1.72808E+003    2.86450E+005    5.29710E+000    1.87260E+001   -3.34440E+004
            6097    3.31026E+006    3.48269E+006    3.48269E+006    3.83406E+005   -4.38946E+003    3.48708E+006   -1.28723E+006    3.25857E+006    3.48269E+006   -2.53440E+003    3.81551E+005   -1.73024E+000    2.46046E+001   -2.67570E+004
            6098    3.33599E+006    3.39021E+006    3.39021E+006    1.42802E+005   -2.78067E+004    3.41802E+006   -1.16840E+006    3.32615E+006    3.39021E+006    3.03959E+004    8.45997E+004   -5.86925E+001   -2.37538E+001   -8.08847E+004
            6099    3.33257E+006    3.40500E+006    3.40500E+006    1.96089E+005   -3.87944E+004    3.44379E+006   -1.18743E+006    3.31387E+006    3.40500E+006    1.75664E+004    1.39728E+005   -6.96534E+001   -9.91020E+000   -1.00308E+005
            6100    3.32737E+006    3.42520E+006    3.42520E+006    2.53864E+005   -3.88600E+004    3.46406E+006   -1.21340E+006    3.29822E+006    3.42520E+006    6.45154E+003    2.08552E+005   -4.32800E+001    1.32219E+001   -1.05880E+005
            6101    3.32094E+006    3.44996E+006    3.44996E+006    3.17612E+005   -3.19208E+004    3.48188E+006   -1.24522E+006    3.27918E+006    3.44996E+006   -3.08305E+003    2.88774E+005   -3.78266E+001    3.05946E+001   -9.61671E+004
            6102    3.31405E+006    3.47805E+006    3.47805E+006    3.87008E+005   -2.11996E+004    3.49925E+006   -1.28129E+006    3.25677E+006    3.47805E+006   -6.18345E+003    3.71992E+005   -1.74357E+001    3.80597E+001   -7.68391E+004
            6103    3.33459E+006    3.40599E+006    3.40599E+006    2.18871E+005   -5.87152E+004    3.46470E+006   -1.18871E+006    3.30844E+006    3.40599E+006    7.32836E+004    8.68720E+004    4.38070E+001    1.96941E+001   -1.38627E+005
            6104    3.33473E+006    3.41689E+006    3.41689E+006    2.68559E+005   -7.72811E+004    3.49417E+006   -1.20272E+006    3.29402E+006    3.41689E+006    4.44568E+004    1.46821E+005    5.80216E+001    2.60227E+001   -1.65172E+005
            6105    3.33264E+006    3.43095E+006    3.43095E+006    3.11892E+005   -8.05274E+004    3.51148E+006   -1.22077E+006    3.28006E+006    3.43095E+006    1.37759E+004    2.17589E+005    3.49047E+001    1.20406E+001   -1.67670E+005
            6106    3.32708E+006    3.45103E+006    3.45103E+006    3.56670E+005   -6.79939E+004    3.51903E+006   -1.24657E+006    3.26527E+006    3.45103E+006   -4.30084E+003    2.92977E+005    2.75327E+001    3.69069E+000   -1.51629E+005
            6107    3.32038E+006    3.47429E+006    3.47429E+006    4.05835E+005   -5.07601E+004    3.52505E+006   -1.27645E+006    3.24862E+006    3.47429E+006   -1.53983E+004    3.70474E+005   -1.28999E-001   -2.58586E+000   -1.22048E+005
            6108    3.33930E+006    3.42107E+006    3.42107E+006    3.11352E+005   -1.08159E+005    3.52923E+006   -1.20809E+006    3.27923E+006    3.42107E+006    1.31258E+005    7.19351E+004   -4.09164E+001   -2.68712E+001   -2.07647E+005
            6109    3.34266E+006    3.42443E+006    3.42443E+006    3.40212E+005   -1.27435E+005    3.55186E+006   -1.21240E+006    3.26785E+006    3.42443E+006    6.94136E+004    1.43363E+005   -7.95519E+001   -1.56204E+001   -2.30882E+005
            6110    3.34039E+006    3.43583E+006    3.43583E+006    3.68397E+005   -1.23059E+005    3.55889E+006   -1.22706E+006    3.25756E+006    3.43583E+006    2.62557E+004    2.19083E+005   -7.70788E+001    3.77493E+001   -2.26024E+005
            6111    3.33606E+006    3.45132E+006    3.45132E+006    4.00406E+005   -1.10857E+005    3.56218E+006   -1.24696E+006    3.24616E+006    3.45132E+006   -8.34634E+003    2.97896E+005   -6.15703E+001    6.42894E+001   -2.04698E+005
            6112    3.32836E+006    3.47198E+006    3.47198E+006    4.34225E+005   -8.57786E+004    3.55776E+006   -1.27348E+006    3.23508E+006    3.47198E+006   -2.66529E+004    3.75100E+005   -3.04929E+001    1.00173E+002   -1.65075E+005
            6113    3.34140E+006    3.46563E+006    3.46563E+006    4.66477E+005   -1.36041E+005    3.60167E+006   -1.26535E+006    3.21576E+006    3.46563E+006   -3.63698E+004    3.66806E+005   -4.16076E-002   -5.26075E+001   -2.23873E+005
            6114    3.34861E+006    3.44902E+006    3.44902E+006    4.43482E+005   -1.60458E+005    3.60948E+006   -1.24401E+006    3.22264E+006    3.44902E+006   -5.03785E+002    2.83528E+005    4.36967E+001   -4.98254E+001   -2.66491E+005
            6115    3.35283E+006    3.43726E+006    3.43726E+006    4.24176E+005   -1.74624E+005    3.61188E+006   -1.22894E+006    3.22922E+006    3.43726E+006    4.76539E+004    2.01898E+005    7.76408E+001    1.65321E+001   -2.89297E+005
            6116    3.35236E+006    3.43068E+006    3.43068E+006    4.02529E+005   -1.71719E+005    3.60239E+006   -1.22049E+006    3.23893E+006    3.43068E+006    1.02418E+005    1.28391E+005    1.09550E+002    3.66383E+001   -2.86830E+005
            6117    3.35131E+006    3.42721E+006    3.42721E+006    3.87435E+005   -1.66591E+005    3.59380E+006   -1.21602E+006    3.24587E+006    3.42721E+006    1.63227E+005    5.76170E+004    5.81483E+001    4.28914E+001   -2.71934E+005
            6118    3.34561E+006    3.43999E+006    3.43999E+006    4.04317E+005   -1.47045E+005    3.58704E+006   -1.23242E+006    3.24102E+006    3.43999E+006    2.41800E+005    1.54721E+004    2.36333E+001    4.18249E+001   -2.51384E+005
            6119    3.33873E+006    3.46027E+006    3.46027E+006    4.40080E+005   -1.24904E+005    3.58518E+006   -1.25848E+006    3.22855E+006    3.46027E+006    3.32886E+005   -1.77105E+004   -2.89195E+000    4.23417E+001   -2.21523E+005
            6120    3.32301E+006    3.46263E+006    3.46263E+006    3.77935E+005   -5.60504E+004    3.51868E+006   -1.26150E+006    3.25833E+006    3.46263E+006    3.33226E+005   -1.13414E+004    3.57624E+001   -3.58138E+001   -1.31925E+005
            6121    3.31522E+006    3.46316E+006    3.46316E+006    3.35627E+005   -1.23025E+004    3.47546E+006   -1.26216E+006    3.27376E+006    3.46316E+006    3.29105E+005   -5.78061E+003    2.10810E+001    5.22618E+000   -4.71871E+004
            6122    3.32985E+006    3.43812E+006    3.43812E+006    3.24049E+005   -7.20663E+004    3.51019E+006   -1.23004E+006    3.27621E+006    3.43812E+006    2.47636E+005    4.34751E+003    2.84812E+001   -3.63417E+001   -1.56300E+005
            6123    3.32267E+006    3.43069E+006    3.43069E+006    2.42247E+005   -1.16412E+004    3.44233E+006   -1.22043E+006    3.30074E+006    3.43069E+006    2.30834E+005   -2.28571E+002    1.24808E+001    5.86426E-001   -5.26050E+004
            6124    3.33073E+006    3.40260E+006    3.40260E+006    1.61179E+005   -1.07629E+004    3.41337E+006   -1.18434E+006    3.32072E+006    3.40260E+006    1.46021E+005    4.39525E+003    1.70689E+000   -1.09665E+001   -4.87499E+004
            6125    3.33889E+006    3.37802E+006    3.37802E+006    8.56856E+004   -5.54537E+003    3.38357E+006   -1.15272E+006    3.33608E+006    3.37802E+006    6.95335E+004    1.06068E+004   -7.76635E+000   -2.85750E+000   -3.48236E+004
            6126    3.34559E+006    3.36050E+006    3.36050E+006    3.07548E+004   -7.13583E+002    3.36121E+006   -1.13018E+006    3.34526E+006    3.36050E+006    2.04226E+004    9.61858E+003   -9.36727E+000   -5.26579E+000   -1.47778E+004
            6127    3.34927E+006    3.35172E+006    3.35172E+006    4.89882E+003    1.38842E+001    3.35171E+006   -1.11888E+006    3.34926E+006    3.35172E+006    2.59911E+003    2.31359E+003   -5.02406E+000   -4.56458E+000   -2.43829E+003
            6128    3.33288E+006    3.41646E+006    3.41646E+006    2.54282E+005   -6.42553E+004    3.48071E+006   -1.20216E+006    3.29837E+006    3.41646E+006    1.64077E+005    2.59504E+004    1.47119E+000   -4.56122E+000   -1.43516E+005
            6129    3.33521E+006    3.39444E+006    3.39444E+006    1.61510E+005   -3.44203E+004    3.42886E+006   -1.17384E+006    3.32222E+006    3.39444E+006    8.56979E+004    4.13919E+004   -6.45431E+000   -1.50751E+001   -9.54276E+004
            6130    3.33945E+006    3.37701E+006    3.37701E+006    8.70353E+004   -9.81620E+003    3.38682E+006   -1.15141E+006    3.33629E+006    3.37701E+006    3.70227E+004    4.01964E+004   -1.09064E+001   -8.03492E+000   -4.83997E+004
            6131    3.34649E+006    3.35833E+006    3.35833E+006    2.48077E+004   -9.81831E+002    3.35931E+006   -1.12739E+006    3.34627E+006    3.35833E+006    7.89855E+003    1.59273E+004   -4.38981E+000   -7.84224E+000   -1.22540E+004
            6132    3.33537E+006    3.38816E+006    3.38816E+006    1.17338E+005   -8.22423E+003    3.39638E+006   -1.16576E+006    3.33005E+006    3.38816E+006    9.53530E+003    9.95781E+004   -1.32830E+000    3.79876E+000   -4.37552E+004
            6133    3.32725E+006    3.41518E+006    3.41518E+006    2.00580E+005   -1.42998E+004    3.42948E+006   -1.20049E+006    3.31158E+006    3.41518E+006    1.35075E+002    1.86145E+005   -3.33743E+000   -1.02239E+001   -5.37902E+004
            6134    3.31854E+006    3.44850E+006    3.44850E+006    2.94848E+005   -1.34109E+004    3.46192E+006   -1.24331E+006    3.28610E+006    3.44850E+006   -5.23440E+003    2.86671E+005   -1.17395E+001   -2.12701E+001   -4.95339E+004
            6135    3.31087E+006    3.48261E+006    3.48261E+006    3.86638E+005   -7.81286E+003    3.49042E+006   -1.28714E+006    3.25737E+006    3.48261E+006   -3.69951E+003    3.82525E+005   -8.14385E+000   -3.40251E+001   -4.00698E+004
            6136    3.33450E+006    3.41091E+006    3.41091E+006    2.41454E+005   -6.71773E+004    3.47808E+006   -1.19506E+006    3.30213E+006    3.41091E+006    4.12567E+004    1.33020E+005    3.98430E+001   -2.23063E-001   -1.47337E+005
            6137    3.33178E+006    3.42914E+006    3.42914E+006    3.00315E+005   -7.39776E+004    3.50312E+006   -1.21849E+006    3.28398E+006    3.42914E+006    7.99704E+003    2.18341E+005    5.38399E+001   -1.56684E+001   -1.54799E+005
            6138    3.32553E+006    3.45213E+006    3.45213E+006    3.52927E+005   -6.09862E+004    3.51311E+006   -1.24802E+006    3.26683E+006    3.45213E+006   -6.02284E+003    2.97964E+005    6.62385E+001   -6.65063E+001   -1.40460E+005
            6139    3.31910E+006    3.47685E+006    3.47685E+006    4.08608E+005   -4.61990E+004    3.52305E+006   -1.27975E+006    3.24789E+006    3.47685E+006   -1.53640E+004    3.77773E+005    4.42001E+001   -3.81149E+001   -1.14338E+005
            6140    3.33591E+006    3.46985E+006    3.46985E+006    4.58704E+005   -1.16118E+005    3.58597E+006   -1.27081E+006    3.22165E+006    3.46985E+006   -3.37307E+004    3.76317E+005   -2.38870E+001   -5.33228E+000   -2.01422E+005
            6141    3.34250E+006    3.45254E+006    3.45254E+006    4.30889E+005   -1.37834E+005    3.59037E+006   -1.24853E+006    3.23094E+006    3.45254E+006   -3.99230E+003    2.97048E+005   -6.62004E+001   -6.05729E+000   -2.41258E+005
            6142    3.34485E+006    3.43774E+006    3.43774E+006    3.94487E+005   -1.43496E+005    3.58123E+006   -1.22958E+006    3.24537E+006    3.43774E+006    3.87566E+004    2.12235E+005   -6.65167E+001   -3.35598E+001   -2.54623E+005
            6143    3.34815E+006    3.42190E+006    3.42190E+006    3.56863E+005   -1.51268E+005    3.57317E+006   -1.20917E+006    3.25971E+006    3.42190E+006    7.90253E+004    1.26570E+005   -5.38922E+001   -2.20724E+000   -2.52951E+005
            6144    3.34806E+006    3.42255E+006    3.42255E+006    3.58583E+005   -1.51149E+005    3.57370E+006   -1.21000E+006    3.25905E+006    3.42255E+006    1.43549E+005    6.38855E+004   -7.07668E+000   -4.34032E+001   -2.51734E+005
            6145    3.34392E+006    3.44033E+006    3.44033E+006    3.98743E+005   -1.40404E+005    3.58073E+006   -1.23289E+006    3.24396E+006    3.44033E+006    2.35167E+005    2.31717E+004   -3.16694E+001   -2.96963E+001   -2.47860E+005
            6146    3.33995E+006    3.45781E+006    3.45781E+006    4.37001E+005   -1.28975E+005    3.58678E+006   -1.25528E+006    3.22941E+006    3.45781E+006    3.23724E+005   -1.56972E+004   -1.17834E+000   -2.70682E+001   -2.26452E+005
            6147    3.33217E+006    3.47756E+006    3.47756E+006    4.67738E+005   -1.03197E+005    3.58075E+006   -1.28070E+006    3.21936E+006    3.47756E+006    4.04415E+005   -3.98746E+004   -8.16165E+000    1.87198E+001   -1.79286E+005
            6148    3.31746E+006    3.48286E+006    3.48286E+006    4.21447E+005   -4.19294E+004    3.52479E+006   -1.28746E+006    3.24345E+006    3.48286E+006    3.95694E+005   -1.61762E+004   -2.69837E+001    2.06784E+001   -1.06161E+005
            6149    3.30971E+006    3.48893E+006    3.48893E+006    4.04057E+005   -7.19114E+003    3.49612E+006   -1.29526E+006    3.25149E+006    3.48893E+006    4.00588E+005   -3.72300E+003   -2.64460E+001    8.44301E-001   -3.76063E+004
            6150    3.32401E+006    3.45690E+006    3.45690E+006    3.62311E+005   -5.67773E+004    3.51368E+006   -1.25415E+006    3.26378E+006    3.45690E+006    3.13260E+005   -7.72568E+003   -5.88156E+001    4.37179E+001   -1.34725E+005
            6151    3.31697E+006    3.45468E+006    3.45468E+006    3.11068E+005   -1.20065E+004    3.46669E+006   -1.25125E+006    3.28129E+006    3.45468E+006    3.03970E+005   -4.90836E+003   -1.77661E+001   -2.64207E+000   -4.73588E+004
            6152    3.33090E+006    3.43198E+006    3.43198E+006    3.06132E+005   -7.17517E+004    3.50373E+006   -1.22212E+006    3.28216E+006    3.43198E+006    2.30306E+005    4.07428E+003   -1.65174E+001    3.64601E+001   -1.51340E+005
            6153    3.32594E+006    3.41975E+006    3.41975E+006    2.13490E+005   -1.41689E+004    3.43392E+006   -1.20636E+006    3.30834E+006    3.41975E+006    2.00399E+005   -1.07860E+003   -1.24679E+001    5.37980E+000   -5.29977E+004
            6154    3.33436E+006    3.41176E+006    3.41176E+006    2.44147E+005   -6.74522E+004    3.47922E+006   -1.19615E+006    3.30136E+006    3.41176E+006    1.41159E+005    3.55364E+004   -3.12953E+000    3.62393E+001   -1.46576E+005
            6155    3.33437E+006    3.39105E+006    3.39105E+006    1.25369E+005   -7.99459E+003    3.39905E+006   -1.16948E+006    3.32836E+006    3.39105E+006    1.08608E+005    8.76632E+003   -1.70091E+000    2.41817E+000   -4.42082E+004
            6156    3.34230E+006    3.36897E+006    3.36897E+006    5.92754E+004   -5.02625E+003    3.37399E+006   -1.14107E+006    3.34091E+006    3.36897E+006    4.45747E+004    9.67448E+003    1.03750E+001    1.09013E+001   -2.70031E+004
            6157    3.34738E+006    3.35620E+006    3.35620E+006    1.77231E+004   -6.16599E+000    3.35621E+006   -1.12464E+006    3.34727E+006    3.35620E+006    9.28721E+003    8.42975E+003    4.49868E+000    8.37616E+000   -8.85427E+003
            6158    3.33529E+006    3.39422E+006    3.39422E+006    1.61182E+005   -3.46894E+004    3.42891E+006   -1.17357E+006    3.32231E+006    3.39422E+006    6.52173E+004    6.12755E+004    7.34623E+000    1.17142E+001   -9.79160E+004
            6159    3.34278E+006    3.36775E+006    3.36775E+006    5.61956E+004   -5.41314E+003    3.37316E+006   -1.13951E+006    3.34150E+006    3.36775E+006    1.01270E+004    4.06555E+004    9.38470E+000    1.80911E+001   -2.67565E+004
            6160    3.33119E+006    3.48712E+006    3.48712E+006    4.92523E+005   -1.00894E+005    3.58802E+006   -1.29292E+006    3.20902E+006    3.48712E+006   -5.24235E+004    4.44053E+005   -5.78579E+001   -9.54792E+001   -1.62523E+005
            6161    3.32081E+006    3.49345E+006    3.49345E+006    4.71362E+005   -6.16126E+004    3.55506E+006   -1.30107E+006    3.22247E+006    3.49345E+006   -3.38722E+004    4.43621E+005    1.20901E+001    8.96445E+001   -1.18387E+005
            6162    3.31406E+006    3.49801E+006    3.49801E+006    4.57158E+005   -3.43456E+004    3.53236E+006   -1.30694E+006    3.23053E+006    3.49801E+006   -1.83138E+004    4.41126E+005   -3.71080E+001   -6.92105E+000   -8.73079E+004
            6163    3.30904E+006    3.50415E+006    3.50415E+006    4.54612E+005   -1.43568E+004    3.51850E+006   -1.31480E+006    3.23300E+006    3.50415E+006   -7.95136E+003    4.48206E+005    3.34549E+000    3.84508E+001   -5.44328E+004
            6164    3.30546E+006    3.51266E+006    3.51266E+006    4.67136E+005   -2.49502E+003    3.51516E+006   -1.32577E+006    3.22912E+006    3.51266E+006   -1.73153E+003    4.66372E+005   -7.09778E+000    2.53393E+001   -1.89202E+004
            6165    3.32269E+006    3.50609E+006    3.50609E+006    5.17611E+005   -7.18989E+004    3.57799E+006   -1.31727E+006    3.20185E+006    3.50609E+006   -5.61399E+004    5.01852E+005   -7.78105E+001   -4.02149E+001   -9.50880E+004
            6166    3.31529E+006    3.51124E+006    3.51124E+006    5.04903E+005   -4.43798E+004    3.55562E+006   -1.32392E+006    3.21051E+006    3.51124E+006   -3.53438E+004    4.95867E+005    4.78212E+001    7.31657E+001   -6.98690E+004
            6167    3.31018E+006    3.51670E+006    3.51670E+006    5.01395E+005   -2.52172E+004    3.54192E+006   -1.33096E+006    3.21390E+006    3.51670E+006   -2.00535E+004    4.96231E+005   -7.55747E+001   -4.56404E+000   -5.18902E+004
            6168    3.30596E+006    3.52448E+006    3.52448E+006    5.08161E+005   -9.94284E+003    3.53442E+006   -1.34090E+006    3.21271E+006    3.52448E+006   -7.88445E+003    5.06102E+005    2.16298E+001    2.54530E+001   -3.25918E+004
            6169    3.30322E+006    3.53416E+006    3.53416E+006    5.28145E+005   -2.11289E+003    3.53627E+006   -1.35340E+006    3.20536E+006    3.53416E+006   -1.87098E+003    5.27903E+005   -1.26044E+001    1.85339E+001   -1.13233E+004
            6170    3.31815E+006    3.51672E+006    3.51672E+006    5.32290E+005   -5.63581E+004    3.57308E+006   -1.33088E+006    3.19750E+006    3.51672E+006   -5.48384E+004    5.30770E+005   -9.53974E+001   -3.28615E+001   -2.98708E+004
            6171    3.31261E+006    3.52115E+006    3.52115E+006    5.25067E+005   -3.62610E+004    3.55741E+006   -1.33665E+006    3.20298E+006    3.52115E+006   -3.53229E+004    5.24129E+005    6.48379E+001    1.42508E+001   -2.29274E+004
            6172    3.30805E+006    3.52728E+006    3.52728E+006    5.26185E+005   -1.97952E+004    3.54707E+006   -1.34456E+006    3.20432E+006    3.52728E+006   -1.92655E+004    5.25655E+005   -9.79670E+001   -3.23085E+000   -1.69977E+004
            6173    3.30471E+006    3.53542E+006    3.53542E+006    5.37639E+005   -8.23701E+003    3.54366E+006   -1.35494E+006    3.20091E+006    3.53542E+006   -8.02458E+003    5.37427E+005    3.02153E+001    8.84564E+000   -1.07664E+004
            6174    3.30228E+006    3.54581E+006    3.54581E+006    5.60859E+005   -1.55389E+003    3.54737E+006   -1.36837E+006    3.19185E+006    3.54581E+006   -1.52781E+003    5.60832E+005   -1.40648E+001    5.96065E+000   -3.82952E+003
            6175    3.33140E+006    3.48052E+006    3.48052E+006    4.73714E+005   -1.00747E+005    3.58127E+006   -1.28450E+006    3.21712E+006    3.48052E+006    4.14188E+005   -4.12216E+004    8.75304E+000   -3.25964E+000    1.75077E+005
            6176    3.31627E+006    3.48815E+006    3.48815E+006    4.34160E+005   -3.94664E+004    3.52761E+006   -1.29428E+006    3.23886E+006    3.48815E+006    4.12085E+005   -1.73918E+004    6.53288E+001    2.93557E+001    9.98390E+004
            6177    3.30854E+006    3.49696E+006    3.49696E+006    4.27244E+005   -7.41980E+003    3.50438E+006   -1.30560E+006    3.24337E+006    3.49696E+006    4.24354E+005   -4.52993E+003    2.50608E+001   -3.74111E+000    3.53237E+004
            6178    3.32343E+006    3.50017E+006    3.50017E+006    5.02619E+005   -7.37434E+004    3.57391E+006   -1.30968E+006    3.20808E+006    3.50017E+006    4.78594E+005   -4.97181E+004   -1.60082E+001    4.26901E+001    1.15196E+005
            6179    3.31112E+006    3.51065E+006    3.51065E+006    4.85863E+005   -2.69596E+004    3.53761E+006   -1.32319E+006    3.21995E+006    3.51065E+006    4.77545E+005   -1.86418E+004    3.77470E+001   -1.25118E+000    6.47795E+004
            6180    3.30515E+006    3.52294E+006    3.52294E+006    5.00049E+005   -6.08707E+003    3.52903E+006   -1.33897E+006    3.21623E+006    3.52294E+006    4.98974E+005   -5.01206E+003    2.46471E+001    8.31419E+000    2.33012E+004
            6181    3.31754E+006    3.51504E+006    3.51504E+006    5.25322E+005   -5.40127E+004    3.56905E+006   -1.32878E+006    3.20075E+006    3.51504E+006    5.20187E+005   -4.88773E+004    5.47625E+000    7.73904E+001    5.43023E+004
            6182    3.30861E+006    3.52493E+006    3.52493E+006    5.21016E+005   -2.13537E+004    3.54629E+006   -1.34153E+006    3.20630E+006    3.52493E+006    5.19291E+005   -1.96292E+004    4.43419E+001   -1.85468E+001    3.05342E+004
            6183    3.30334E+006    3.53994E+006    3.53994E+006    5.46639E+005   -4.18695E+003    3.54412E+006   -1.36080E+006    3.19756E+006    3.53994E+006    5.46426E+005   -3.97406E+003    1.28859E+001    1.72089E+001    1.08267E+004
            6184    3.31584E+006    3.51955E+006    3.51955E+006    5.32201E+005   -4.81617E+004    3.56771E+006   -1.33453E+006    3.19857E+006    3.51955E+006    5.32185E+005   -4.81460E+004   -7.98890E+000    8.96438E+001   -3.02160E+003
            6185    3.30770E+006    3.52970E+006    3.52970E+006    5.32340E+005   -1.90265E+004    3.54873E+006   -1.34767E+006    3.20185E+006    3.52970E+006    5.32318E+005   -1.90049E+004   -1.14507E+001   -2.83695E+001   -3.45202E+003
            6186    3.30313E+006    3.54451E+006    3.54451E+006    5.59939E+005   -4.44403E+003    3.54896E+006   -1.36667E+006    3.19193E+006    3.54451E+006    5.59935E+005   -4.44020E+003    4.47584E+000    2.58951E+001   -1.46933E+003
            6187    3.31782E+006    3.51391E+006    3.51391E+006    5.23017E+005   -5.48997E+004    3.56881E+006   -1.32734E+006    3.20163E+006    3.51391E+006    5.16790E+005   -4.86725E+004    5.03361E+000    8.59194E+001   -5.96659E+004
            6188    3.30900E+006    3.52262E+006    3.52262E+006    5.15212E+005   -2.21956E+004    3.54481E+006   -1.33854E+006    3.20861E+006    3.52262E+006    5.12519E+005   -1.95027E+004   -2.01739E+000   -1.98401E+001   -3.79461E+004
            6189    3.30353E+006    3.53687E+006    3.53687E+006    5.37791E+005   -4.09216E+003    3.54097E+006   -1.35686E+006    3.20124E+006    3.53687E+006    5.37454E+005   -3.75520E+003   -1.32620E+001    1.73590E+001   -1.35085E+004
            6190    3.32403E+006    3.49824E+006    3.49824E+006    4.98942E+005   -7.56086E+004    3.57385E+006   -1.30719E+006    3.20945E+006    3.49824E+006    4.72386E+005   -4.90535E+004    1.76724E+000    5.27986E+001   -1.20632E+005
            6191    3.31195E+006    3.50631E+006    3.50631E+006    4.75317E+005   -2.88010E+004    3.53511E+006   -1.31761E+006    3.22394E+006    3.50631E+006    4.64899E+005   -1.83833E+004   -6.02998E+001   -7.45407E-001   -7.17163E+004
            6192    3.30597E+006    3.51668E+006    3.51668E+006    4.82888E+005   -6.82576E+003    3.52351E+006   -1.33091E+006    3.22285E+006    3.51668E+006    4.81473E+005   -5.41059E+003   -1.70683E+001    1.20014E+001   -2.62873E+004
            6193    3.30555E+006    3.51239E+006    3.51239E+006    4.66594E+005   -2.74879E+003    3.51514E+006   -1.32541E+006    3.22931E+006    3.51239E+006   -1.98178E+003    4.65827E+005   -3.82098E+000   -2.70710E+001    1.89580E+004
            6194    3.30903E+006    3.50413E+006    3.50413E+006    4.54597E+005   -1.43749E+004    3.51850E+006   -1.31478E+006    3.23300E+006    3.50413E+006   -7.92298E+003    4.48146E+005   -4.66287E+000   -3.88582E+001    5.46274E+004
            6195    3.31414E+006    3.49801E+006    3.49801E+006    4.57527E+005   -3.47313E+004    3.53274E+006   -1.30693E+006    3.23036E+006    3.49801E+006   -1.86336E+004    4.41429E+005   -2.43525E+001    4.27059E+000    8.75504E+004
            6196    3.32094E+006    3.49349E+006    3.49349E+006    4.72035E+005   -6.21789E+004    3.55566E+006   -1.30111E+006    3.22214E+006    3.49349E+006   -3.43196E+004    4.44176E+005   -1.53799E-001   -9.08158E+001    1.18772E+005
            6197    3.33115E+006    3.48723E+006    3.48723E+006    4.92794E+005   -1.00828E+005    3.58806E+006   -1.29306E+006    3.20890E+006    3.48723E+006   -5.25030E+004    4.44469E+005   -4.46033E+001    9.37656E+001    1.62332E+005
            6198    3.30316E+006    3.53422E+006    3.53422E+006    5.28130E+005   -1.90481E+003    3.53613E+006   -1.35348E+006    3.20539E+006    3.53422E+006   -1.66752E+003    5.27892E+005   -1.20631E+001   -2.06183E+001    1.12122E+004
            6199    3.30595E+006    3.52453E+006    3.52453E+006    5.08274E+005   -9.91204E+003    3.53444E+006   -1.34096E+006    3.21267E+006    3.52453E+006   -7.88931E+003    5.06251E+005    2.04448E+001   -2.81793E+001    3.23119E+004
            6200    3.31013E+006    3.51671E+006    3.51671E+006    5.01230E+005   -2.50157E+004    3.54173E+006   -1.33097E+006    3.21399E+006    3.51671E+006   -1.98703E+004    4.96085E+005   -7.29143E+001    2.77987E+000    5.17810E+004
            6201    3.31537E+006    3.51122E+006    3.51122E+006    5.05180E+005   -4.47143E+004    3.55593E+006   -1.32390E+006    3.21036E+006    3.51122E+006   -3.57105E+004    4.96176E+005    4.66748E+001   -7.63898E+001    6.97860E+004
            6202    3.32285E+006    3.50601E+006    3.50601E+006    5.17917E+005   -7.24684E+004    3.57847E+006   -1.31715E+006    3.20165E+006    3.50601E+006   -5.66275E+004    5.02076E+005   -7.60210E+001    4.66634E+001    9.54006E+004
            6203    3.30231E+006    3.54578E+006    3.54578E+006    5.60896E+005   -1.68453E+003    3.54746E+006   -1.36833E+006    3.19181E+006    3.54578E+006   -1.65881E+003    5.60871E+005   -1.51348E+001   -8.97740E+000    3.80383E+003
            6204    3.30465E+006    3.53550E+006    3.53550E+006    5.37631E+005   -8.01027E+003    3.54351E+006   -1.35504E+006    3.20094E+006    3.53550E+006   -7.79670E+003    5.37417E+005    3.35745E+001   -1.19292E+001    1.07929E+004
            6205    3.30804E+006    3.52731E+006    3.52731E+006    5.26268E+005   -1.97880E+004    3.54709E+006   -1.34460E+006    3.20428E+006    3.52731E+006   -1.92603E+004    5.25741E+005   -1.02310E+002    1.54848E+000    1.69678E+004
            6206    3.31251E+006    3.52119E+006    3.52119E+006    5.24843E+005   -3.58953E+004    3.55709E+006   -1.33671E+006    3.20311E+006    3.52119E+006   -3.49703E+004    5.23918E+005    7.05493E+001   -1.97692E+001    2.27562E+004
            6207    3.31804E+006    3.51674E+006    3.51674E+006    5.31903E+005   -5.59267E+004    3.57267E+006   -1.33090E+006    3.19772E+006    3.51674E+006   -5.43888E+004    5.30365E+005   -9.88759E+001    3.33277E+001    3.00274E+004
            6208    3.35131E+006    3.42713E+006    3.42713E+006    3.87190E+005   -1.66575E+005    3.59370E+006   -1.21591E+006    3.24598E+006    3.42713E+006    1.62859E+005    5.77561E+004    5.92306E+001   -4.26579E+001    2.71849E+005
            6209    3.35239E+006    3.43057E+006    3.43057E+006    4.02334E+005   -1.71813E+005    3.60238E+006   -1.22036E+006    3.23899E+006    3.43057E+006    1.02093E+005    1.28428E+005    1.01670E+002   -3.75802E+001    2.86771E+005
            6210    3.35280E+006    3.43728E+006    3.43728E+006    4.24193E+005   -1.74550E+005    3.61183E+006   -1.22898E+006    3.22922E+006    3.43728E+006    4.69875E+004    2.02655E+005    7.51442E+001   -1.60478E+001    2.89076E+005
            6211    3.34855E+006    3.44902E+006    3.44902E+006    4.43311E+005   -1.60265E+005    3.60928E+006   -1.24402E+006    3.22273E+006    3.44902E+006   -1.23594E+003    2.84282E+005    4.51903E+001    4.39328E+001    2.65887E+005
            6212    3.34123E+006    3.46581E+006    3.46581E+006    4.66407E+005   -1.35442E+005    3.60125E+006   -1.26559E+006    3.21587E+006    3.46581E+006   -3.65024E+004    3.67467E+005    4.71560E+000    5.16623E+001    2.23065E+005
            6213    3.32844E+006    3.47186E+006    3.47186E+006    4.34179E+005   -8.60710E+004    3.55793E+006   -1.27332E+006    3.23507E+006    3.47186E+006   -2.66382E+004    3.74746E+005   -3.59916E+001   -9.51918E+001    1.65492E+005
            6214    3.32054E+006    3.47410E+006    3.47410E+006    4.05987E+005   -5.14264E+004    3.52553E+006   -1.27622E+006    3.24852E+006    3.47410E+006   -1.55473E+004    3.70108E+005    7.16770E+000   -2.08687E+000    1.22981E+005
            6215    3.31418E+006    3.47787E+006    3.47787E+006    3.87085E+005   -2.17713E+004    3.49964E+006   -1.28106E+006    3.25671E+006    3.47787E+006   -6.49601E+003    3.71809E+005   -2.21044E+001   -3.63677E+001    7.75374E+004
            6216    3.31024E+006    3.48269E+006    3.48269E+006    3.83317E+005   -4.30046E+003    3.48699E+006   -1.28723E+006    3.25860E+006    3.48269E+006   -2.41858E+003    3.81436E+005   -1.26535E-001   -2.57357E+001    2.69427E+004
            6217    3.33617E+006    3.45094E+006    3.45094E+006    3.99664E+005   -1.11194E+005    3.56214E+006   -1.24647E+006    3.24642E+006    3.45094E+006   -7.81083E+003    2.96281E+005   -5.90106E+001   -6.11425E+001    2.05246E+005
            6218    3.32722E+006    3.45077E+006    3.45077E+006    3.56468E+005   -6.85302E+004    3.51930E+006   -1.24623E+006    3.26531E+006    3.45077E+006   -4.04199E+003    2.91980E+005    3.02760E+001   -6.62702E+000    1.52475E+005
            6219    3.32097E+006    3.44998E+006    3.44998E+006    3.17860E+005   -3.21151E+004    3.48210E+006   -1.24524E+006    3.27910E+006    3.44998E+006   -2.85375E+003    2.88598E+005   -4.00453E+001   -2.81025E+001    9.68738E+004
            6220    3.31728E+006    3.44965E+006    3.44965E+006    2.90589E+005   -5.93234E+003    3.45558E+006   -1.24477E+006    3.28726E+006    3.44965E+006   -2.02458E+003    2.86681E+005    6.46144E+000   -1.92323E+001    3.38152E+004
            6221    3.34056E+006    3.43544E+006    3.43544E+006    3.67826E+005   -1.23610E+005    3.55905E+006   -1.22655E+006    3.25774E+006    3.43544E+006    2.74091E+004    2.16806E+005   -7.12987E+001   -3.36016E+001    2.26737E+005
            6222    3.33280E+006    3.43066E+006    3.43066E+006    3.11739E+005   -8.11833E+004    3.51184E+006   -1.22041E+006    3.28008E+006    3.43066E+006    1.45653E+004    2.15990E+005    3.40147E+001   -1.33162E+001    1.68683E+005
            6223    3.32738E+006    3.42548E+006    3.42548E+006    2.55208E+005   -3.94155E+004    3.46489E+006   -1.21376E+006    3.29784E+006    3.42548E+006    6.31260E+003    2.09480E+005   -4.30924E+001   -1.17221E+001    1.06684E+005
            6224    3.32591E+006    3.41759E+006    3.41759E+006    2.00231E+005   -7.17630E+003    3.42476E+006   -1.20355E+006    3.31131E+006    3.41759E+006   -4.25389E+002    1.93480E+005    3.60458E+000   -9.58429E+000    3.68051E+004
            6225    3.34271E+006    3.42424E+006    3.42424E+006    3.39788E+005   -1.27538E+005    3.55178E+006   -1.21216E+006    3.26800E+006    3.42424E+006    7.00016E+004    1.42248E+005   -7.16930E+001    1.76625E+001    2.30854E+005
            6226    3.33477E+006    3.41691E+006    3.41691E+006    2.68978E+005   -7.76194E+004    3.49453E+006   -1.20276E+006    3.29388E+006    3.41691E+006    4.48576E+004    1.46501E+005    5.70644E+001   -2.66895E+001    1.65679E+005
            6227    3.33250E+006    3.40541E+006    3.40541E+006    1.97678E+005   -3.92190E+004    3.44463E+006   -1.18796E+006    3.31348E+006    3.40541E+006    1.81080E+004    1.40351E+005   -6.75474E+001    1.06899E+001    1.01460E+005
            6228    3.33457E+006    3.39045E+006    3.39045E+006    1.22682E+005   -7.12621E+003    3.39758E+006   -1.16867E+006    3.32888E+006    3.39045E+006    2.56170E+003    1.12994E+005    1.39383E+001   -2.70232E+000    3.41132E+004
            6229    3.33935E+006    3.42104E+006    3.42104E+006    3.11451E+005   -1.08370E+005    3.52941E+006   -1.20804E+006    3.27919E+006    3.42104E+006    1.31399E+005    7.16820E+004   -3.64622E+001    2.87387E+001    2.07776E+005
            6230    3.33456E+006    3.40586E+006    3.40586E+006    2.18025E+005   -5.82335E+004    3.46409E+006   -1.18855E+006    3.30866E+006    3.40586E+006    7.26033E+004    8.71887E+004    4.26932E+001   -1.96505E+001    1.37937E+005
            6231    3.33598E+006    3.39024E+006    3.39024E+006    1.42907E+005   -2.78198E+004    3.41806E+006   -1.16844E+006    3.32613E+006    3.39024E+006    3.01509E+004    8.49359E+004   -5.91066E+001    2.45081E+001    8.08488E+004
            6232    3.34192E+006    3.37011E+006    3.37011E+006    6.36272E+004   -6.16860E+003    3.37628E+006   -1.14252E+006    3.34028E+006    3.37011E+006    5.27284E+003    5.21858E+004    1.33547E+001   -2.38266E+000    2.58391E+004
            6233    3.34633E+006    3.35871E+006    3.35871E+006    2.58583E+004   -9.38236E+002    3.35965E+006   -1.12788E+006    3.34609E+006    3.35871E+006    8.39230E+003    1.65278E+004   -4.35708E+000    7.27938E+000    1.27659E+004
            6234    3.34928E+006    3.35172E+006    3.35172E+006    4.86945E+003    1.58571E+001    3.35170E+006   -1.11887E+006    3.34927E+006    3.35172E+006    2.56971E+003    2.31560E+003   -5.54774E+000    4.11370E+000    2.42347E+003
            6235    3.33947E+006    3.37694E+006    3.37694E+006    8.66387E+004   -9.61086E+003    3.38655E+006   -1.15132E+006    3.33635E+006    3.37694E+006    3.67103E+004    4.03175E+004   -1.12874E+001    7.93683E+000    4.80910E+004
            6236    3.34553E+006    3.36066E+006    3.36066E+006    3.11814E+004   -6.93409E+002    3.36135E+006   -1.13038E+006    3.34518E+006    3.36066E+006    2.04815E+004    1.00065E+004   -9.94190E+000    5.28467E+000    1.50522E+004
            6237    3.33526E+006    3.39422E+006    3.39422E+006    1.60699E+005   -3.42233E+004    3.42844E+006   -1.17357E+006    3.32241E+006    3.39422E+006    8.52010E+004    4.12744E+004   -5.64741E+000    1.53818E+001    9.49540E+004
            6238    3.33893E+006    3.37796E+006    3.37796E+006    8.58715E+004   -5.91946E+003    3.38388E+006   -1.15264E+006    3.33609E+006    3.37796E+006    6.97740E+004    1.01780E+004   -7.96275E+000    2.78772E+000    3.49067E+004
            6239    3.33287E+006    3.41651E+006    3.41651E+006    2.54411E+005   -6.42516E+004    3.48076E+006   -1.20222E+006    3.29834E+006    3.41651E+006    1.64073E+005    2.60864E+004    2.76196E+000    4.69623E+000    1.43619E+005
            6240    3.33068E+006    3.40270E+006    3.40270E+006    1.61153E+005   -1.04665E+004    3.41317E+006   -1.18446E+006    3.32071E+006    3.40270E+006    1.46113E+005    4.57368E+003    3.05628E+000    1.14490E+001    4.85282E+004
            6241    3.32257E+006    3.43105E+006    3.43105E+006    2.43165E+005   -1.15431E+004    3.44260E+006   -1.22089E+006    3.30050E+006    3.43105E+006    2.31803E+005   -1.81109E+002    1.41507E+001   -1.70759E+000    5.25823E+004
            6242    3.31510E+006    3.46383E+006    3.46383E+006    3.37557E+005   -1.23453E+004    3.47617E+006   -1.26301E+006    3.27317E+006    3.46383E+006    3.31111E+005   -5.90011E+003    2.24593E+001   -6.98567E+000    4.70495E+004
            6243    3.32976E+006    3.43838E+006    3.43838E+006    3.24495E+005   -7.17836E+004    3.51017E+006   -1.23036E+006    3.27608E+006    3.43838E+006    2.48401E+005    4.31111E+003    3.20006E+001    4.05608E+001    1.56091E+005
            6244    3.32290E+006    3.46298E+006    3.46298E+006    3.78552E+005   -5.56943E+004    3.51867E+006   -1.26194E+006    3.25814E+006    3.46298E+006    3.34482E+005   -1.16248E+004    3.79081E+001    4.13514E+001    1.31129E+005
            6245    3.33882E+006    3.46025E+006    3.46025E+006    4.40314E+005   -1.25231E+005    3.58548E+006   -1.25844E+006    3.22841E+006    3.46025E+006    3.32370E+005   -1.72868E+004   -1.46483E+000   -4.39145E+001    2.22251E+005
            6246    3.34565E+006    3.43997E+006    3.43997E+006    4.04404E+005   -1.47211E+005    3.58718E+006   -1.23239E+006    3.24097E+006    3.43997E+006    2.41174E+005    1.60185E+004    2.29894E+001   -4.64476E+001    2.51786E+005
            6247    3.34811E+006    3.42199E+006    3.42199E+006    3.56990E+005   -1.51138E+005    3.57313E+006   -1.20928E+006    3.25967E+006    3.42199E+006    7.96654E+004    1.26187E+005    1.69964E+001    1.39352E+001    2.52997E+005
            6248    3.34500E+006    3.43780E+006    3.43780E+006    3.94605E+005   -1.43714E+005    3.58151E+006   -1.22956E+006    3.24539E+006    3.43780E+006    3.85019E+004    2.12389E+005    3.02208E+001    4.74207E+000    2.54730E+005
            6249    3.34247E+006    3.45244E+006    3.45244E+006    4.30508E+005   -1.37711E+005    3.59015E+006   -1.24841E+006    3.23111E+006    3.45244E+006   -4.19365E+003    2.96990E+005    4.06390E+001    3.78526E+001    2.40916E+005
            6250    3.33590E+006    3.46993E+006    3.46993E+006    4.58429E+005   -1.15819E+005    3.58575E+006   -1.27085E+006    3.22188E+006    3.46993E+006   -3.37028E+004    3.76312E+005    2.98907E+001    3.41404E+001    2.01028E+005
            6251    3.31927E+006    3.47644E+006    3.47644E+006    4.08098E+005   -4.68223E+004    3.52326E+006   -1.27924E+006    3.24802E+006    3.47644E+006   -1.54727E+004    3.76748E+005   -1.37184E+001    2.56141E+001    1.15234E+005
            6252    3.31102E+006    3.48166E+006    3.48166E+006    3.84192E+005   -7.97655E+003    3.48964E+006   -1.28596E+006    3.25815E+006    3.48166E+006   -3.75909E+003    3.79974E+005    9.27851E+000    2.97526E+001    4.04496E+004
            6253    3.32570E+006    3.45181E+006    3.45181E+006    3.52325E+005   -6.13908E+004    3.51320E+006   -1.24758E+006    3.26705E+006    3.45181E+006   -5.79340E+003    2.96728E+005   -2.78481E+001   -2.87022E+000    1.41104E+005
            6254    3.31867E+006    3.44765E+006    3.44765E+006    2.92480E+005   -1.33519E+004    3.46100E+006   -1.24226E+006    3.28674E+006    3.44765E+006   -5.00667E+003    2.84135E+005    1.30701E+001    2.47826E+001    4.98258E+004
            6255    3.33187E+006    3.42893E+006    3.42893E+006    2.99610E+005   -7.39976E+004    3.50293E+006   -1.21818E+006    3.28425E+006    3.42893E+006    8.32538E+003    2.17287E+005   -1.81523E+001    1.40248E+001    1.54853E+005
            6256    3.32725E+006    3.41499E+006    3.41499E+006    2.00088E+005   -1.42323E+004    3.42922E+006   -1.20028E+006    3.31166E+006    3.41499E+006    2.56284E+002    1.85600E+005    8.90674E+000    1.08666E+001    5.38078E+004
            6257    3.33455E+006    3.41086E+006    3.41086E+006    2.40962E+005   -6.69812E+004    3.47784E+006   -1.19495E+006    3.30233E+006    3.41086E+006    4.12965E+004    1.32684E+005   -1.21271E+001    1.96828E+000    1.47035E+005
            6258    3.33530E+006    3.38831E+006    3.38831E+006    1.17794E+005   -8.21097E+003    3.39652E+006   -1.16596E+006    3.32994E+006    3.38831E+006    9.55315E+003    1.00030E+005    9.36891E+000   -5.88207E+000    4.38497E+004
            6259    3.34269E+006    3.36796E+006    3.36796E+006    5.66694E+004   -5.27102E+003    3.37323E+006   -1.13979E+006    3.34140E+006    3.36796E+006    1.02159E+004    4.11826E+004    1.30384E+000   -7.01855E+000    2.68220E+004
            6260    3.34735E+006    3.35619E+006    3.35619E+006    1.77364E+004    4.57738E-001    3.35619E+006   -1.12464E+006    3.34725E+006    3.35619E+006    9.12605E+003    8.61081E+003    3.92053E+000   -6.30979E+000    8.86423E+003
            6261    3.33534E+006    3.39415E+006    3.39415E+006    1.60992E+005   -3.47455E+004    3.42890E+006   -1.17347E+006    3.32238E+006    3.39415E+006    6.50802E+004    6.11664E+004    5.96398E+000   -9.98607E+000    9.78492E+004
            6262    3.34239E+006    3.36876E+006    3.36876E+006    5.88348E+004   -5.16918E+003    3.37393E+006   -1.14081E+006    3.34101E+006    3.36876E+006    4.40625E+004    9.60314E+003    2.33915E+000   -2.85843E+000    2.69679E+004
            6263    3.33454E+006    3.39056E+006    3.39056E+006    1.24020E+005   -8.06002E+003    3.39862E+006   -1.16884E+006    3.32865E+006    3.39056E+006    1.07258E+005    8.70254E+003    6.47735E-001   -9.88299E+000    4.39662E+004
            6264    3.32610E+006    3.41905E+006    3.41905E+006    2.11486E+005   -1.41016E+004    3.43315E+006   -1.20548E+006    3.30882E+006    3.41905E+006    1.98359E+005   -9.75218E+002   -1.19848E+001   -7.99689E+000    5.28096E+004
            6265    3.31700E+006    3.45439E+006    3.45439E+006    3.10306E+005   -1.19853E+004    3.46638E+006   -1.25090E+006    3.28149E+006    3.45439E+006    3.03303E+005   -4.98269E+003   -2.26739E+001   -1.19179E+001    4.69877E+004
            6266    3.30952E+006    3.48944E+006    3.48944E+006    4.05062E+005   -6.68650E+003    3.49613E+006   -1.29594E+006    3.25115E+006    3.48944E+006    4.01677E+005   -3.30164E+003   -2.13023E+001   -7.82458E+000    3.71787E+004
            6267    3.33442E+006    3.41177E+006    3.41177E+006    2.44055E+005   -6.74873E+004    3.47926E+006   -1.19611E+006    3.30144E+006    3.41177E+006    1.41224E+005    3.53439E+004   -5.23441E+000    5.42872E+000    1.46499E+005
            6268    3.33097E+006    3.43194E+006    3.43194E+006    3.06034E+005   -7.18573E+004    3.50380E+006   -1.22204E+006    3.28222E+006    3.43194E+006    2.30718E+005    3.45849E+003   -1.47778E+001    6.84036E+000    1.50959E+005
            6269    3.32397E+006    3.45709E+006    3.45709E+006    3.62428E+005   -5.64768E+004    3.51356E+006   -1.25435E+006    3.26379E+006    3.45709E+006    3.13794E+005   -7.84275E+003    3.52473E+000    1.27251E+001    1.34193E+005
            6270    3.31732E+006    3.48285E+006    3.48285E+006    4.20909E+005   -4.13676E+004    3.52421E+006   -1.28746E+006    3.24367E+006    3.48285E+006    3.95282E+005   -1.57401E+004   -2.08471E+001   -4.65668E+000    1.05784E+005
            6271    3.33227E+006    3.47774E+006    3.47774E+006    4.68240E+005   -1.03343E+005    3.58109E+006   -1.28088E+006    3.21919E+006    3.47774E+006    4.04851E+005   -3.99538E+004   -2.86183E+001   -1.02452E+001    1.79483E+005
            6272    3.33999E+006    3.45774E+006    3.45774E+006    4.37134E+005   -1.29227E+005    3.58696E+006   -1.25521E+006    3.22930E+006    3.45774E+006    3.23315E+005   -1.54071E+004   -3.29025E+001   -3.46084E+001    2.26954E+005
            6273    3.34397E+006    3.44039E+006    3.44039E+006    3.98567E+005   -1.40285E+005    3.58068E+006   -1.23289E+006    3.24413E+006    3.44039E+006    2.34738E+005    2.35437E+004   -9.96177E+000   -2.36441E+001    2.47870E+005
            6274    3.34813E+006    3.42238E+006    3.42238E+006    3.58365E+005   -1.51396E+005    3.57378E+006   -1.20978E+006    3.25911E+006    3.42238E+006    1.43731E+005    6.32373E+004   -1.56986E+001   -2.06758E+001    2.51683E+005
            6275    3.30674E+006    3.51025E+006    3.51025E+006    4.65088E+005   -7.26842E+003    3.51752E+006   -1.32269E+006    3.22953E+006    3.51025E+006   -5.40159E+003    4.63221E+005    8.70530E+000    3.40640E+001    2.96365E+004
            6276    3.31340E+006    3.49999E+006    3.49999E+006    4.60849E+005   -3.23653E+004    3.53236E+006   -1.30949E+006    3.22926E+006    3.49999E+006   -1.85279E+004    4.47011E+005   -4.24748E+000   -1.79423E+001    8.14453E+004
            6277    3.32780E+006    3.48988E+006    3.48988E+006    4.88421E+005   -8.87606E+004    3.57864E+006   -1.29651E+006    3.21228E+006    3.48988E+006   -4.83318E+004    4.47992E+005    2.00423E+001    4.17107E+001    1.47310E+005
            6278    3.30399E+006    3.53200E+006    3.53200E+006    5.24586E+005   -4.66664E+003    3.53667E+006   -1.35064E+006    3.20654E+006    3.53200E+006   -4.09899E+003    5.24018E+005    7.46315E+000    2.12957E+001    1.73237E+004
            6279    3.30968E+006    3.51825E+006    3.51825E+006    5.04221E+005   -2.36389E+004    3.54189E+006   -1.33294E+006    3.21292E+006    3.51825E+006   -1.91088E+004    4.99691E+005    1.20615E+001    2.66908E+001    4.86901E+004
            6280    3.32030E+006    3.50789E+006    3.50789E+006    5.14527E+005   -6.34514E+004    3.57134E+006   -1.31966E+006    3.20418E+006    3.50789E+006   -5.02787E+004    5.01354E+005    6.75246E+000    3.60421E+001    8.62553E+004
            6281    3.30308E+006    3.54322E+006    3.54322E+006    5.56148E+005   -4.18917E+003    3.54741E+006   -1.36506E+006    3.19352E+006    3.54322E+006   -4.12859E+003    5.56088E+005    3.62094E+000    1.22264E+001    5.82586E+003
            6282    3.30793E+006    3.52841E+006    3.52841E+006    5.29030E+005   -1.94831E+004    3.54790E+006   -1.34599E+006    3.20321E+006    3.52841E+006   -1.90448E+004    5.28591E+005    2.43069E+001   -2.27805E+001    1.54992E+004
            6283    3.31625E+006    3.51813E+006    3.51813E+006    5.30394E+005   -5.00156E+004    3.56814E+006   -1.33283E+006    3.19897E+006    3.51813E+006   -4.85916E+004    5.28970E+005   -3.33048E-001    6.08943E+000    2.87131E+004
            6284    3.30861E+006    3.49631E+006    3.49631E+006    4.25515E+005   -7.47939E+003    3.50379E+006   -1.30478E+006    3.24394E+006    3.49631E+006    4.22563E+005   -4.52708E+003    2.92127E+001   -7.88375E+000   -3.56317E+004
            6285    3.31642E+006    3.48777E+006    3.48777E+006    4.33632E+005   -3.99963E+004    3.52777E+006   -1.29380E+006    3.23902E+006    3.48777E+006    4.11227E+005   -1.75911E+004   -6.39804E+000    1.10882E+001   -1.00547E+005
            6286    3.33128E+006    3.48066E+006    3.48066E+006    4.73556E+005   -1.00252E+005    3.58092E+006   -1.28466E+006    3.21727E+006    3.48066E+006    4.14285E+005   -4.09814E+004    2.81805E+001   -1.94741E+001   -1.74633E+005
            6287    3.30516E+006    3.52246E+006    3.52246E+006    4.98777E+005   -6.08208E+003    3.52854E+006   -1.33839E+006    3.21669E+006    3.52246E+006    4.97672E+005   -4.97700E+003    2.52571E+001   -3.64297E+000   -2.35942E+004
            6288    3.31113E+006    3.51054E+006    3.51054E+006    4.85651E+005   -2.70235E+004    3.53756E+006   -1.32305E+006    3.22001E+006    3.51054E+006    4.77297E+005   -1.86700E+004    1.62573E+001   -1.11301E+001   -6.49065E+004
            6289    3.32338E+006    3.50005E+006    3.50005E+006    5.02505E+005   -7.37919E+004    3.57384E+006   -1.30959E+006    3.20807E+006    3.50005E+006    4.78421E+005   -4.97079E+004    4.99475E+001   -1.27175E+000   -1.15323E+005
            6290    3.30330E+006    3.53973E+006    3.53973E+006    5.46184E+005   -4.18794E+003    3.54392E+006   -1.36058E+006    3.19770E+006    3.53973E+006    5.45962E+005   -3.96619E+003    2.02926E+001   -2.44527E+000   -1.10453E+004
            6291    3.30855E+006    3.52496E+006    3.52496E+006    5.20952E+005   -2.11620E+004    3.54613E+006   -1.34158E+006    3.20634E+006    3.52496E+006    5.19219E+005   -1.94292E+004   -1.29844E+001   -2.28834E+001   -3.06005E+004
            6292    3.31742E+006    3.51498E+006    3.51498E+006    5.25063E+005   -5.37658E+004    3.56874E+006   -1.32876E+006    3.20084E+006    3.51498E+006    5.19821E+005   -4.85233E+004    1.48946E+001    1.26253E+001   -5.48366E+004
            6293    3.30309E+006    3.54450E+006    3.54450E+006    5.60078E+005   -4.49546E+003    3.54899E+006   -1.36669E+006    3.19182E+006    3.54450E+006    5.60074E+005   -4.49209E+003    4.53622E+000    2.12484E+000    1.37862E+003
            6294    3.30773E+006    3.52977E+006    3.52977E+006    5.32627E+005   -1.91415E+004    3.54891E+006   -1.34775E+006    3.20173E+006    3.52977E+006    5.32607E+005   -1.91215E+004    1.76340E+001   -3.35474E+001    3.32443E+003
            6295    3.31578E+006    3.51939E+006    3.51939E+006    5.32380E+005   -4.84208E+004    3.56781E+006   -1.33445E+006    3.19832E+006    3.51939E+006    5.32372E+005   -4.84125E+004    1.87028E+001    1.88821E+001    2.19380E+003
            6296    3.30346E+006    3.53712E+006    3.53712E+006    5.38574E+005   -4.07064E+003    3.54119E+006   -1.35721E+006    3.20088E+006    3.53712E+006    5.38239E+005   -3.73620E+003   -4.91447E+000   -2.17038E+000    1.34673E+004
            6297    3.30894E+006    3.52277E+006    3.52277E+006    5.15577E+005   -2.20750E+004    3.54484E+006   -1.33876E+006    3.20845E+006    3.52277E+006    5.12892E+005   -1.93900E+004   -1.89480E+001   -3.04756E+001    3.78991E+004
            6298    3.31767E+006    3.51397E+006    3.51397E+006    5.22913E+005   -5.45097E+004    3.56848E+006   -1.32746E+006    3.20168E+006    3.51397E+006    5.16923E+005   -4.85198E+004   -1.56090E+001    1.82245E+001    5.85053E+004
            6299    3.30586E+006    3.51715E+006    3.51715E+006    4.84243E+005   -6.73650E+003    3.52389E+006   -1.33155E+006    3.22230E+006    3.51715E+006    4.82845E+005   -5.33898E+003   -1.97694E+001   -3.40852E+000    2.61572E+004
            6300    3.31186E+006    3.50637E+006    3.50637E+006    4.75075E+005   -2.84038E+004    3.53478E+006   -1.31768E+006    3.22407E+006    3.50637E+006    4.64727E+005   -1.80559E+004    1.41799E+001   -1.89122E+001    7.14343E+004
            6301    3.32387E+006    3.49836E+006    3.49836E+006    4.99253E+005   -7.53657E+004    3.57372E+006   -1.30741E+006    3.20926E+006    3.49836E+006    4.72974E+005   -4.90874E+004   -2.09035E+001    4.23119E+000    1.20039E+005
            6302    3.32785E+006    3.48983E+006    3.48983E+006    4.88485E+005   -8.89472E+004    3.57878E+006   -1.29646E+006    3.21223E+006    3.48983E+006   -4.85881E+004    4.48126E+005    1.86619E+001   -3.82808E+001   -1.47227E+005
            6303    3.31329E+006    3.50022E+006    3.50022E+006    4.61095E+005   -3.19701E+004    3.53219E+006   -1.30978E+006    3.22920E+006    3.50022E+006   -1.83231E+004    4.47448E+005   -1.16448E+000    1.93347E+001   -8.08865E+004
            6304    3.30671E+006    3.51058E+006    3.51058E+006    4.66097E+005   -7.32940E+003    3.51791E+006   -1.32312E+006    3.22915E+006    3.51058E+006   -5.48889E+003    4.64256E+005    9.27224E+000   -3.28481E+001   -2.94612E+004
            6305    3.32025E+006    3.50800E+006    3.50800E+006    5.14676E+005   -6.32856E+004    3.57128E+006   -1.31980E+006    3.20413E+006    3.50800E+006   -5.02726E+004    5.01663E+005    1.16481E+000   -3.18166E+001   -8.57416E+004
            6306    3.30967E+006    3.51822E+006    3.51822E+006    5.04041E+005   -2.35477E+004    3.54177E+006   -1.33291E+006    3.21301E+006    3.51822E+006   -1.90093E+004    4.99503E+005    1.62403E+001   -2.78900E+001   -4.87219E+004
            6307    3.30395E+006    3.53218E+006    3.53218E+006    5.24960E+005   -4.54555E+003    3.53672E+006   -1.35086E+006    3.20640E+006    3.53218E+006   -3.98544E+003    5.24400E+005    7.37518E+000   -1.81487E+001   -1.72124E+004
            6308    3.31618E+006    3.51821E+006    3.51821E+006    5.30405E+005   -4.97866E+004    3.56799E+006   -1.33294E+006    3.19899E+006    3.51821E+006   -4.84318E+004    5.29051E+005   -3.43199E+000    1.40097E-001   -2.80033E+004
            6309    3.30789E+006    3.52841E+006    3.52841E+006    5.28861E+005   -1.93236E+004    3.54774E+006   -1.34598E+006    3.20330E+006    3.52841E+006   -1.88555E+004    5.28393E+005    2.71665E+001    2.29225E+001   -1.60118E+004
            6310    3.30309E+006    3.54322E+006    3.54322E+006    5.56166E+005   -4.22285E+003    3.54744E+006   -1.36505E+006    3.19351E+006    3.54322E+006   -4.16119E+003    5.56104E+005    2.93096E+000   -8.16639E+000   -5.87817E+003
            6311    3.34202E+006    3.36975E+006    3.36975E+006    6.20642E+004   -5.58616E+003    3.37533E+006   -1.14207E+006    3.34048E+006    3.36975E+006    5.75960E+003    5.07185E+004   -1.36868E+001   -9.56863E+000   -2.52749E+004
            6312    3.33484E+006    3.38954E+006    3.38954E+006    1.20381E+005   -7.30903E+003    3.39685E+006   -1.16754E+006    3.32933E+006    3.38954E+006    2.41509E+003    1.10657E+005   -1.73058E+001   -1.09377E+000   -3.38691E+004
            6313    3.32600E+006    3.41697E+006    3.41697E+006    1.98419E+005   -6.96270E+003    3.42394E+006   -1.20281E+006    3.31169E+006    3.41697E+006   -3.60214E+002    1.91817E+005   -1.20616E+001    1.02778E+001   -3.62276E+004
            6314    3.31716E+006    3.44967E+006    3.44967E+006    2.90306E+005   -5.48240E+003    3.45515E+006   -1.24483E+006    3.28730E+006    3.44967E+006   -1.63878E+003    2.86463E+005   -1.35063E+001    1.84883E+001   -3.34982E+004
            6315    3.31023E+006    3.48268E+006    3.48268E+006    3.83413E+005   -4.35596E+003    3.48704E+006   -1.28725E+006    3.25854E+006    3.48268E+006   -2.49180E+003    3.81549E+005   -5.70509E+000    2.35793E+001   -2.68214E+004
            6316    3.33601E+006    3.39021E+006    3.39021E+006    1.42782E+005   -2.78330E+004    3.41804E+006   -1.16839E+006    3.32617E+006    3.39021E+006    3.03634E+004    8.45859E+004    2.05378E+001    1.02708E+001   -8.08850E+004
            6317    3.33263E+006    3.40499E+006    3.40499E+006    1.96036E+005   -3.88869E+004    3.44388E+006   -1.18738E+006    3.31393E+006    3.40499E+006    1.74676E+004    1.39681E+005    3.21907E+001    1.01956E+001   -1.00315E+005
            6318    3.32744E+006    3.42520E+006    3.42520E+006    2.53803E+005   -3.89360E+004    3.46414E+006   -1.21336E+006    3.29828E+006    3.42520E+006    6.34462E+003    2.08523E+005    2.15202E+001    6.51257E+000   -1.05854E+005
            6319    3.32099E+006    3.44998E+006    3.44998E+006    3.17583E+005   -3.19472E+004    3.48193E+006   -1.24521E+006    3.27922E+006    3.44998E+006   -3.14561E+003    2.88781E+005    2.09750E+001    4.47297E+000   -9.61119E+004
            6320    3.31406E+006    3.47804E+006    3.47804E+006    3.86992E+005   -2.12073E+004    3.49925E+006   -1.28128E+006    3.25678E+006    3.47804E+006   -6.22037E+003    3.72005E+005    2.87420E+000    3.90716E+000   -7.67661E+004
            6321    3.33462E+006    3.40602E+006    3.40602E+006    2.18873E+005   -5.87173E+004    3.46474E+006   -1.18873E+006    3.30848E+006    3.40602E+006    7.32895E+004    8.68659E+004   -4.04428E+001   -1.99840E+001   -1.38629E+005
            6322    3.33474E+006    3.41695E+006    3.41695E+006    2.68604E+005   -7.72317E+004    3.49418E+006   -1.20277E+006    3.29403E+006    3.41695E+006    4.45199E+004    1.46852E+005   -6.08827E+001   -7.30996E+000   -1.65174E+005
            6323    3.33263E+006    3.43098E+006    3.43098E+006    3.11933E+005   -8.05001E+004    3.51148E+006   -1.22080E+006    3.28005E+006    3.43098E+006    1.38502E+004    2.17582E+005   -5.15701E+001    1.67794E+001   -1.67703E+005
            6324    3.32708E+006    3.45102E+006    3.45102E+006    3.56675E+005   -6.80188E+004    3.51904E+006   -1.24656E+006    3.26526E+006    3.45102E+006   -4.26561E+003    2.92922E+005   -4.55903E+001    3.74619E+001   -1.51694E+005
            6325    3.32039E+006    3.47428E+006    3.47428E+006    4.05841E+005   -5.07852E+004    3.52507E+006   -1.27645E+006    3.24862E+006    3.47428E+006   -1.53709E+004    3.70426E+005   -2.12793E+001    4.95717E+001   -1.22135E+005
            6326    3.33929E+006    3.42107E+006    3.42107E+006    3.11352E+005   -1.08148E+005    3.52922E+006   -1.20809E+006    3.27922E+006    3.42107E+006    1.31261E+005    7.19436E+004    3.54023E+001    1.99851E+001   -2.07643E+005
            6327    3.34267E+006    3.42439E+006    3.42439E+006    3.40153E+005   -1.27470E+005    3.55186E+006   -1.21236E+006    3.26786E+006    3.42439E+006    6.93623E+004    1.43320E+005    6.23786E+001    2.43520E+001   -2.30869E+005
            6328    3.34038E+006    3.43581E+006    3.43581E+006    3.68367E+005   -1.23064E+005    3.55888E+006   -1.22704E+006    3.25756E+006    3.43581E+006    2.62037E+004    2.19098E+005    5.39537E+001   -1.26743E+000   -2.25996E+005
            6329    3.33605E+006    3.45134E+006    3.45134E+006    4.00409E+005   -1.10807E+005    3.56215E+006   -1.24698E+006    3.24617E+006    3.45134E+006   -8.35727E+003    2.97959E+005    3.34944E+001   -1.77442E+001   -2.04641E+005
            6330    3.32832E+006    3.47197E+006    3.47197E+006    4.34227E+005   -8.57342E+004    3.55770E+006   -1.27349E+006    3.23505E+006    3.47197E+006   -2.66686E+004    3.75161E+005    2.30975E+000   -4.76842E+001   -1.64994E+005
            6331    3.34145E+006    3.46566E+006    3.46566E+006    4.66476E+005   -1.36069E+005    3.60173E+006   -1.26536E+006    3.21580E+006    3.46566E+006   -3.63602E+004    3.66768E+005   -1.56861E+001    8.11269E+001   -2.23913E+005
            6332    3.34866E+006    3.44901E+006    3.44901E+006    4.43448E+005   -1.60543E+005    3.60955E+006   -1.24397E+006    3.22267E+006    3.44901E+006   -5.45574E+002    2.83451E+005   -3.84612E+001    8.55972E+001   -2.66529E+005
            6333    3.35291E+006    3.43736E+006    3.43736E+006    4.24224E+005   -1.74611E+005    3.61197E+006   -1.22899E+006    3.22929E+006    3.43736E+006    4.76896E+004    2.01923E+005   -6.05560E+001    2.01098E+001   -2.89317E+005
            6334    3.35246E+006    3.43079E+006    3.43079E+006    4.02565E+005   -1.71718E+005    3.60251E+006   -1.22055E+006    3.23902E+006    3.43079E+006    1.02451E+005    1.28397E+005   -8.03291E+001   -3.70866E+000   -2.86848E+005
            6335    3.35137E+006    3.42727E+006    3.42727E+006    3.87445E+005   -1.66601E+005    3.59387E+006   -1.21604E+006    3.24593E+006    3.42727E+006    1.63222E+005    5.76228E+004   -2.48423E+001   -2.19020E+001   -2.71945E+005
            6336    3.34562E+006    3.44002E+006    3.44002E+006    4.04346E+005   -1.47043E+005    3.58706E+006   -1.23244E+006    3.24102E+006    3.44002E+006    2.41810E+005    1.54921E+004    1.15182E+001   -2.35079E+001   -2.51401E+005
            6337    3.33875E+006    3.46030E+006    3.46030E+006    4.40086E+005   -1.24892E+005    3.58519E+006   -1.25850E+006    3.22856E+006    3.46030E+006    3.32879E+005   -1.76857E+004    3.75101E+001   -3.17402E+001   -2.21532E+005
            6338    3.32304E+006    3.46260E+006    3.46260E+006    3.77886E+005   -5.61175E+004    3.51872E+006   -1.26146E+006    3.25837E+006    3.46260E+006    3.33200E+005   -1.14314E+004    1.66943E+001    1.29003E+001   -1.31898E+005
            6339    3.31517E+006    3.46317E+006    3.46317E+006    3.35657E+005   -1.22299E+004    3.47540E+006   -1.26220E+006    3.27373E+006    3.46317E+006    3.29122E+005   -5.69411E+003    2.23301E+001   -7.63890E+000   -4.72334E+004
            6340    3.32990E+006    3.43816E+006    3.43816E+006    3.24036E+005   -7.20788E+004    3.51024E+006   -1.23004E+006    3.27627E+006    3.43816E+006    2.47644E+005    4.31344E+003    3.77756E+000    1.57794E+001   -1.56283E+005
            6341    3.32264E+006    3.43068E+006    3.43068E+006    2.42258E+005   -1.16180E+004    3.44230E+006   -1.22044E+006    3.30072E+006    3.43068E+006    2.30834E+005   -1.93460E+002    1.12423E+001   -7.60474E+000   -5.26297E+004
            6342    3.33073E+006    3.40262E+006    3.40262E+006    1.61181E+005   -1.07515E+004    3.41337E+006   -1.18435E+006    3.32072E+006    3.40262E+006    1.46023E+005    4.40650E+003    2.66403E+000    3.01572E-001   -4.87483E+004
            6343    3.33888E+006    3.37801E+006    3.37801E+006    8.56773E+004   -5.54589E+003    3.38356E+006   -1.15271E+006    3.33608E+006    3.37801E+006    6.95266E+004    1.06048E+004   -4.91494E+000   -5.14426E+000   -3.48205E+004
            6344    3.34559E+006    3.36050E+006    3.36050E+006    3.07574E+004   -7.15669E+002    3.36121E+006   -1.13018E+006    3.34525E+006    3.36050E+006    2.04239E+004    9.61777E+003   -6.12931E+000   -1.05224E+000   -1.47799E+004
            6345    3.34926E+006    3.35171E+006    3.35171E+006    4.89653E+003    1.53272E+001    3.35169E+006   -1.11887E+006    3.34925E+006    3.35171E+006    2.59808E+003    2.31378E+003   -3.40622E+000   -2.62068E+000   -2.43646E+003
            6346    3.33290E+006    3.41645E+006    3.41645E+006    2.54252E+005   -6.42892E+004    3.48074E+006   -1.20214E+006    3.29840E+006    3.41645E+006    1.64045E+005    2.59178E+004    6.54650E+000   -8.85328E+000   -1.43518E+005
            6347    3.33522E+006    3.39446E+006    3.39446E+006    1.61529E+005   -3.44023E+004    3.42886E+006   -1.17386E+006    3.32223E+006    3.39446E+006    8.57199E+004    4.14069E+004   -3.97165E+000   -5.55828E-001   -9.54273E+004
            6348    3.33945E+006    3.37699E+006    3.37699E+006    8.70175E+004   -9.82952E+003    3.38682E+006   -1.15139E+006    3.33629E+006    3.37699E+006    3.70032E+004    4.01847E+004   -7.59624E+000   -6.05133E+000   -4.83974E+004
            6349    3.34649E+006    3.35833E+006    3.35833E+006    2.48051E+004   -9.71929E+002    3.35930E+006   -1.12739E+006    3.34626E+006    3.35833E+006    7.90644E+003    1.59267E+004   -2.47913E+000   -5.16958E+000   -1.22488E+004
            6350    3.33536E+006    3.38814E+006    3.38814E+006    1.17338E+005   -8.21895E+003    3.39636E+006   -1.16575E+006    3.33003E+006    3.38814E+006    9.55251E+003    9.95667E+004    1.02696E+001    5.78350E+000   -4.37665E+004
            6351    3.32718E+006    3.41520E+006    3.41520E+006    2.00638E+005   -1.41946E+004    3.42939E+006   -1.20055E+006    3.31152E+006    3.41520E+006    2.60003E+002    1.86183E+005    1.02291E+001   -1.16963E+001   -5.38180E+004
            6352    3.31848E+006    3.44850E+006    3.44850E+006    2.94875E+005   -1.33251E+004    3.46182E+006   -1.24335E+006    3.28605E+006    3.44850E+006   -5.13021E+003    2.86680E+005    1.45472E+001   -2.62773E+001   -4.95832E+004
            6353    3.31082E+006    3.48262E+006    3.48262E+006    3.86677E+005   -7.73949E+003    3.49036E+006   -1.28718E+006    3.25733E+006    3.48262E+006   -3.61260E+003    3.82550E+005    1.08827E+001   -3.01340E+001   -4.01333E+004
            6354    3.33455E+006    3.41097E+006    3.41097E+006    2.41460E+005   -6.71597E+004    3.47813E+006   -1.19509E+006    3.30219E+006    3.41097E+006    4.12501E+004    1.33050E+005   -1.21505E+001   -2.29353E+000   -1.47325E+005
            6355    3.33186E+006    3.42911E+006    3.42911E+006    3.00208E+005   -7.40955E+004    3.50320E+006   -1.21841E+006    3.28406E+006    3.42911E+006    7.85912E+003    2.18253E+005   -1.93919E+001   -1.57433E+001   -1.54788E+005
            6356    3.32558E+006    3.45215E+006    3.45215E+006    3.52919E+005   -6.10247E+004    3.51318E+006   -1.24802E+006    3.26687E+006    3.45215E+006   -6.09456E+003    2.97988E+005   -2.96143E+001    3.91061E+000   -1.40430E+005
            6357    3.31911E+006    3.47679E+006    3.47679E+006    4.08535E+005   -4.62666E+004    3.52306E+006   -1.27969E+006    3.24790E+006    3.47679E+006   -1.54556E+004    3.77724E+005   -1.42174E+001   -2.67107E+001   -1.14296E+005
            6358    3.33598E+006    3.46993E+006    3.46993E+006    4.58711E+005   -1.16116E+005    3.58605E+006   -1.27084E+006    3.22173E+006    3.46993E+006   -3.37030E+004    3.76298E+005    3.11582E+001   -3.58413E+001   -2.01448E+005
            6359    3.34249E+006    3.45254E+006    3.45254E+006    4.30907E+005   -1.37828E+005    3.59037E+006   -1.24854E+006    3.23093E+006    3.45254E+006   -3.98010E+003    2.97060E+005    4.74796E+001   -3.84745E+001   -2.41264E+005
            6360    3.34493E+006    3.43786E+006    3.43786E+006    3.94533E+005   -1.43461E+005    3.58132E+006   -1.22964E+006    3.24545E+006    3.43786E+006    3.88137E+004    2.12258E+005    3.49873E+001   -6.14469E+000   -2.54634E+005
            6361    3.34816E+006    3.42189E+006    3.42189E+006    3.56858E+005   -1.51305E+005    3.57319E+006   -1.20915E+006    3.25970E+006    3.42189E+006    7.90100E+004    1.26542E+005    2.08671E+001   -1.55664E+001   -2.52967E+005
            6362    3.34807E+006    3.42252E+006    3.42252E+006    3.58561E+005   -1.51193E+005    3.57371E+006   -1.20996E+006    3.25905E+006    3.42252E+006    1.43513E+005    6.38559E+004   -1.51562E+001    1.98347E+001   -2.51746E+005
            6363    3.34398E+006    3.44043E+006    3.44043E+006    3.98784E+005   -1.40365E+005    3.58080E+006   -1.23295E+006    3.24403E+006    3.44043E+006    2.35194E+005    2.32247E+004   -7.45484E+000    1.92234E+001   -2.47866E+005
            6364    3.33993E+006    3.45777E+006    3.45777E+006    4.36997E+005   -1.28992E+005    3.58676E+006   -1.25526E+006    3.22938E+006    3.45777E+006    3.23714E+005   -1.57090E+004   -3.64890E+001    3.30590E+001   -2.26459E+005
            6365    3.33223E+006    3.47761E+006    3.47761E+006    4.67734E+005   -1.03200E+005    3.58081E+006   -1.28072E+006    3.21942E+006    3.47761E+006    4.04395E+005   -3.98613E+004   -2.63691E+001    1.09594E+001   -1.79306E+005
            6366    3.31744E+006    3.48281E+006    3.48281E+006    4.21398E+005   -4.19559E+004    3.52476E+006   -1.28742E+006    3.24344E+006    3.48281E+006    3.95660E+005   -1.62175E+004   -2.26636E+001    3.72143E+000   -1.06130E+005
            6367    3.30969E+006    3.48893E+006    3.48893E+006    4.04078E+005   -7.15938E+003    3.49609E+006   -1.29528E+006    3.25146E+006    3.48893E+006    4.00602E+005   -3.68277E+003   -2.25441E+001    7.16386E+000   -3.76514E+004
            6368    3.32404E+006    3.45694E+006    3.45694E+006    3.62333E+005   -5.67772E+004    3.51372E+006   -1.25417E+006    3.26380E+006    3.45694E+006    3.13303E+005   -7.74736E+003    3.39066E+000   -1.21377E+001   -1.34703E+005
            6369    3.31693E+006    3.45467E+006    3.45467E+006    3.11076E+005   -1.19607E+004    3.46663E+006   -1.25126E+006    3.28126E+006    3.45467E+006    3.03965E+005   -4.84956E+003   -2.29009E+001    1.10411E+001   -4.73981E+004
            6370    3.33096E+006    3.43194E+006    3.43194E+006    3.06042E+005   -7.18395E+004    3.50378E+006   -1.22205E+006    3.28222E+006    3.43194E+006    2.30229E+005    3.97254E+003   -1.45617E+001   -5.49217E+000   -1.51329E+005
            6371    3.32590E+006    3.41976E+006    3.41976E+006    2.13529E+005   -1.41041E+004    3.43387E+006   -1.20640E+006    3.30830E+006    3.41976E+006    2.00425E+005   -9.99796E+002   -1.19264E+001    7.10782E+000   -5.30213E+004
            6372    3.33439E+006    3.41183E+006    3.41183E+006    2.44172E+005   -6.74236E+004    3.47925E+006   -1.19619E+006    3.30140E+006    3.41183E+006    1.41197E+005    3.55510E+004   -5.01277E+000   -6.20212E+000   -1.46570E+005
            6373    3.33437E+006    3.39104E+006    3.39104E+006    1.25354E+005   -8.01085E+003    3.39905E+006   -1.16946E+006    3.32836E+006    3.39104E+006    1.08587E+005    8.75578E+003    1.13347E+000    1.00334E+001   -4.42149E+004
            6374    3.34230E+006    3.36896E+006    3.36896E+006    5.92758E+004   -5.01630E+003    3.37398E+006   -1.14107E+006    3.34091E+006    3.36896E+006    4.45761E+004    9.68340E+003    2.57284E+000    2.88246E+000   -2.69999E+004
            6375    3.34735E+006    3.35618E+006    3.35618E+006    1.77241E+004    4.83412E-001    3.35618E+006   -1.12464E+006    3.34725E+006    3.35618E+006    9.29052E+003    8.43409E+003    4.10090E+000    6.55557E+000   -8.85147E+003
            6376    3.33531E+006    3.39421E+006    3.39421E+006    1.61148E+005   -3.47231E+004    3.42893E+006   -1.17354E+006    3.32234E+006    3.39421E+006    6.51834E+004    6.12416E+004    7.18138E+000    9.61726E+000   -9.79157E+004
            6377    3.34278E+006    3.36775E+006    3.36775E+006    5.61959E+004   -5.40486E+003    3.37315E+006   -1.13951E+006    3.34150E+006    3.36775E+006    1.01356E+004    4.06555E+004    1.44997E+000    7.39312E+000   -2.67544E+004
            6378    3.33115E+006    3.48704E+006    3.48704E+006    4.92483E+005   -1.00931E+005    3.58797E+006   -1.29287E+006    3.20898E+006    3.48704E+006   -5.24328E+004    4.43985E+005    1.81888E+001    1.18028E+002   -1.62564E+005
            6379    3.32079E+006    3.49345E+006    3.49345E+006    4.71372E+005   -6.15872E+004    3.55504E+006   -1.30108E+006    3.22246E+006    3.49345E+006   -3.38850E+004    4.43670E+005   -3.73874E+001   -4.32273E+001   -1.18308E+005
            6380    3.31407E+006    3.49801E+006    3.49801E+006    4.57159E+005   -3.43701E+004    3.53238E+006   -1.30693E+006    3.23053E+006    3.49801E+006   -1.83080E+004    4.41097E+005    1.00520E+001    5.03285E+001   -8.73897E+004
            6381    3.30900E+006    3.50413E+006    3.50413E+006    4.54606E+005   -1.43314E+004    3.51846E+006   -1.31480E+006    3.23298E+006    3.50413E+006   -7.94168E+003    4.48217E+005   -2.13013E+001    9.70910E-001   -5.43649E+004
            6382    3.30547E+006    3.51265E+006    3.51265E+006    4.67123E+005   -2.53384E+003    3.51518E+006   -1.32575E+006    3.22913E+006    3.51265E+006   -1.76598E+003    4.66355E+005    2.70157E+000    2.22111E+001   -1.89748E+004
            6383    3.32259E+006    3.50603E+006    3.50603E+006    5.17606E+005   -7.18306E+004    3.57786E+006   -1.31727E+006    3.20177E+006    3.50603E+006   -5.60626E+004    5.01838E+005    1.56071E+001    5.19724E+001   -9.51083E+004
            6384    3.31529E+006    3.51120E+006    3.51120E+006    5.04876E+005   -4.44414E+004    3.55564E+006   -1.32388E+006    3.21051E+006    3.51120E+006   -3.54189E+004    4.95854E+005   -7.12188E+001   -4.17251E+001   -6.98202E+004
            6385    3.31020E+006    3.51673E+006    3.51673E+006    5.01421E+005   -2.52094E+004    3.54194E+006   -1.33098E+006    3.21391E+006    3.51673E+006   -2.00354E+004    4.96247E+005    4.21795E+001    3.48889E+001   -5.19424E+004
            6386    3.30588E+006    3.52442E+006    3.52442E+006    5.08153E+005   -9.90788E+003    3.53433E+006   -1.34089E+006    3.21265E+006    3.52442E+006   -7.85465E+003    5.06100E+005   -4.58211E+001    1.64946E+000   -3.25496E+004
            6387    3.30326E+006    3.53415E+006    3.53415E+006    5.28123E+005   -2.18921E+003    3.53634E+006   -1.35336E+006    3.20539E+006    3.53415E+006   -1.94599E+003    5.27880E+005    1.09274E+001    1.48878E+001   -1.13543E+004
            6388    3.31796E+006    3.51660E+006    3.51660E+006    5.32296E+005   -5.62497E+004    3.57285E+006   -1.33088E+006    3.19735E+006    3.51660E+006   -5.47291E+004    5.30775E+005    1.88065E+001    3.79539E+001   -2.98772E+004
            6389    3.31264E+006    3.52110E+006    3.52110E+006    5.25034E+005   -3.63577E+004    3.55746E+006   -1.33659E+006    3.20298E+006    3.52110E+006   -3.54209E+004    5.24097E+005   -8.72675E+001   -4.44298E+000   -2.29132E+004
            6390    3.30808E+006    3.52733E+006    3.52733E+006    5.26217E+005   -1.97795E+004    3.54711E+006   -1.34459E+006    3.20434E+006    3.52733E+006   -1.92488E+004    5.25686E+005    6.09673E+001    1.20455E+001   -1.70133E+004
            6391    3.30460E+006    3.53534E+006    3.53534E+006    5.37633E+005   -8.18941E+003    3.54353E+006   -1.35493E+006    3.20082E+006    3.53534E+006   -7.97748E+003    5.37421E+005   -5.93619E+001   -5.65400E-001   -1.07532E+004
            6392    3.30234E+006    3.54580E+006    3.54580E+006    5.60832E+005   -1.65049E+003    3.54745E+006   -1.36833E+006    3.19188E+006    3.54580E+006   -1.62430E+003    5.60806E+005    1.45251E+001    4.63142E+000   -3.83821E+003
            6393    3.33142E+006    3.48055E+006    3.48055E+006    4.73717E+005   -1.00745E+005    3.58130E+006   -1.28451E+006    3.21714E+006    3.48055E+006    4.14178E+005   -4.12061E+004    2.87010E+001    1.99127E+001    1.75095E+005
            6394    3.31627E+006    3.48815E+006    3.48815E+006    4.34150E+005   -3.94705E+004    3.52762E+006   -1.29428E+006    3.23887E+006    3.48815E+006    4.12095E+005   -1.74156E+004   -6.67219E+000   -9.97250E+000    9.97961E+004
            6395    3.30850E+006    3.49695E+006    3.49695E+006    4.27259E+005   -7.38068E+003    3.50434E+006   -1.30561E+006    3.24333E+006    3.49695E+006    4.24360E+005   -4.48179E+003    2.90861E+001    8.96298E+000    3.53775E+004
            6396    3.32338E+006    3.50008E+006    3.50008E+006    5.02583E+005   -7.37863E+004    3.57387E+006   -1.30963E+006    3.20803E+006    3.50008E+006    4.78551E+005   -4.97538E+004    4.55084E+001   -1.90004E+000    1.15213E+005
            6397    3.31110E+006    3.51065E+006    3.51065E+006    4.85881E+005   -2.69379E+004    3.53759E+006   -1.32320E+006    3.21994E+006    3.51065E+006    4.77572E+005   -1.86295E+004    1.54776E+001    1.39711E+001    6.47430E+004
            6398    3.30511E+006    3.52292E+006    3.52292E+006    5.00058E+005   -6.05552E+003    3.52898E+006   -1.33897E+006    3.21619E+006    3.52292E+006    4.98978E+005   -4.97583E+003    2.38286E+001    3.78579E+000    2.33513E+004
            6399    3.31750E+006    3.51495E+006    3.51495E+006    5.25270E+005   -5.40481E+004    3.56900E+006   -1.32872E+006    3.20071E+006    3.51495E+006    5.20133E+005   -4.89107E+004    1.29087E+001   -1.57293E+001    5.43116E+004
            6400    3.30859E+006    3.52495E+006    3.52495E+006    5.21045E+005   -2.13156E+004    3.54626E+006   -1.34156E+006    3.20629E+006    3.52495E+006    5.19323E+005   -1.95933E+004   -1.32015E+001    2.59457E+001    3.05141E+004
            6401    3.30329E+006    3.53990E+006    3.53990E+006    5.46643E+005   -4.17193E+003    3.54407E+006   -1.36079E+006    3.19751E+006    3.53990E+006    5.46430E+005   -3.95820E+003    1.69512E+001    2.25858E+000    1.08482E+004
            6402    3.31573E+006    3.51937E+006    3.51937E+006    5.32143E+005   -4.82263E+004    3.56760E+006   -1.33443E+006    3.19844E+006    3.51937E+006    5.32127E+005   -4.82106E+004    1.02811E+001   -1.99380E+001   -3.01771E+003
            6403    3.30769E+006    3.52976E+006    3.52976E+006    5.32395E+005   -1.89698E+004    3.54873E+006   -1.34773E+006    3.20185E+006    3.52976E+006    5.32373E+005   -1.89481E+004    1.66182E+001    3.58172E+001   -3.45758E+003
            6404    3.30308E+006    3.54447E+006    3.54447E+006    5.59935E+005   -4.43469E+003    3.54890E+006   -1.36666E+006    3.19189E+006    3.54447E+006    5.59931E+005   -4.43091E+003    6.15140E-001   -2.81286E+000   -1.46156E+003
            6405    3.31779E+006    3.51384E+006    3.51384E+006    5.22961E+005   -5.49401E+004    3.56878E+006   -1.32729E+006    3.20161E+006    3.51384E+006    5.16732E+005   -4.87107E+004   -1.73754E+001   -1.78766E+001   -5.96755E+004
            6406    3.30897E+006    3.52261E+006    3.52261E+006    5.15230E+005   -2.21619E+004    3.54477E+006   -1.33856E+006    3.20858E+006    3.52261E+006    5.12538E+005   -1.94704E+004   -2.04422E+001    2.94440E+001   -3.79365E+004
            6407    3.30348E+006    3.53684E+006    3.53684E+006    5.37799E+005   -4.07846E+003    3.54092E+006   -1.35685E+006    3.20120E+006    3.53684E+006    5.37461E+005   -3.74077E+003   -8.76058E+000    2.48120E+000   -1.35230E+004
            6408    3.32396E+006    3.49813E+006    3.49813E+006    4.98908E+005   -7.56597E+004    3.57379E+006   -1.30713E+006    3.20937E+006    3.49813E+006    4.72350E+005   -4.91022E+004   -2.90117E+001   -1.38958E+000   -1.20639E+005
            6409    3.31194E+006    3.50635E+006    3.50635E+006    4.75367E+005   -2.87472E+004    3.53510E+006   -1.31766E+006    3.22393E+006    3.50635E+006    4.64957E+005   -1.83367E+004    1.44708E+001    1.69527E+001   -7.16918E+004
            6410    3.30593E+006    3.51665E+006    3.51665E+006    4.82884E+005   -6.80812E+003    3.52346E+006   -1.33091E+006    3.22281E+006    3.51665E+006    4.81465E+005   -5.38919E+003   -2.28158E+001    3.31483E+000   -2.63216E+004
            6411    3.30555E+006    3.51237E+006    3.51237E+006    4.66585E+005   -2.76904E+003    3.51514E+006   -1.32540E+006    3.22931E+006    3.51237E+006   -1.99770E+003    4.65814E+005   -8.98046E-001   -2.30665E+001    1.90115E+004
            6412    3.30901E+006    3.50411E+006    3.50411E+006    4.54595E+005   -1.43545E+004    3.51847E+006   -1.31478E+006    3.23298E+006    3.50411E+006   -7.91819E+003    4.48158E+005   -1.21293E+001   -3.04102E+000    5.45608E+004
            6413    3.31415E+006    3.49800E+006    3.49800E+006    4.57524E+005   -3.47611E+004    3.53276E+006   -1.30692E+006    3.23036E+006    3.49800E+006   -1.86332E+004    4.41396E+005   -5.01352E-001   -5.03169E+001    8.76323E+004
            6414    3.32092E+006    3.49349E+006    3.49349E+006    4.72043E+005   -6.21439E+004    3.55563E+006   -1.30113E+006    3.22213E+006    3.49349E+006   -3.43231E+004    4.44222E+005   -2.57197E+001    4.24815E+001    1.18691E+005
            6415    3.33113E+006    3.48716E+006    3.48716E+006    4.92747E+005   -1.00874E+005    3.58803E+006   -1.29301E+006    3.20888E+006    3.48716E+006   -5.25199E+004    4.44394E+005    9.72347E+000   -1.18554E+002    1.62375E+005
            6416    3.30321E+006    3.53421E+006    3.53421E+006    5.28108E+005   -1.97844E+003    3.53619E+006   -1.35345E+006    3.20541E+006    3.53421E+006   -1.73973E+003    5.27869E+005    1.06365E+001   -1.69633E+001    1.12463E+004
            6417    3.30587E+006    3.52447E+006    3.52447E+006    5.08266E+005   -9.87777E+003    3.53434E+006   -1.34095E+006    3.21260E+006    3.52447E+006   -7.86066E+003    5.06249E+005   -4.39884E+001   -2.70628E+000    3.22658E+004
            6418    3.31015E+006    3.51674E+006    3.51674E+006    5.01252E+005   -2.50100E+004    3.54175E+006   -1.33099E+006    3.21400E+006    3.51674E+006   -1.98535E+004    4.96096E+005    4.02528E+001   -3.65327E+001    5.18370E+004
            6419    3.31538E+006    3.51119E+006    3.51119E+006    5.05163E+005   -4.47718E+004    3.55596E+006   -1.32386E+006    3.21035E+006    3.51119E+006   -3.57829E+004    4.96174E+005   -6.83664E+001    4.13866E+001    6.97316E+004
            6420    3.32273E+006    3.50593E+006    3.50593E+006    5.17916E+005   -7.23963E+004    3.57832E+006   -1.31715E+006    3.20155E+006    3.50593E+006   -5.65450E+004    5.02064E+005    1.38915E+001   -6.03739E+001    9.54253E+004
            6421    3.30237E+006    3.54577E+006    3.54577E+006    5.60869E+005   -1.78563E+003    3.54755E+006   -1.36828E+006    3.19185E+006    3.54577E+006   -1.75978E+003    5.60843E+005    1.60173E+001   -6.54508E+000    3.81332E+003
            6422    3.30453E+006    3.53541E+006    3.53541E+006    5.37623E+005   -7.96282E+003    3.54337E+006   -1.35502E+006    3.20085E+006    3.53541E+006   -7.74980E+003    5.37410E+005   -6.27429E+001   -7.99963E-001    1.07784E+004
            6423    3.30807E+006    3.52736E+006    3.52736E+006    5.26306E+005   -1.97671E+004    3.54713E+006   -1.34463E+006    3.20431E+006    3.52736E+006   -1.92382E+004    5.25778E+005    6.49476E+001   -1.51545E+001    1.69857E+004
            6424    3.31255E+006    3.52115E+006    3.52115E+006    5.24798E+005   -3.60053E+004    3.55715E+006   -1.33665E+006    3.20312E+006    3.52115E+006   -3.50817E+004    5.23875E+005   -9.05845E+001    5.67818E+000    2.27397E+004
            6425    3.31784E+006    3.51662E+006    3.51662E+006    5.31900E+005   -5.58075E+004    3.57242E+006   -1.33090E+006    3.19757E+006    3.51662E+006   -5.42686E+004    5.30361E+005    2.08026E+001   -4.16234E+001    3.00341E+004
            6426    3.35138E+006    3.42719E+006    3.42719E+006    3.87199E+005   -1.66585E+005    3.59378E+006   -1.21594E+006    3.24604E+006    3.42719E+006    1.62851E+005    5.77634E+004   -2.14674E+001    2.29286E+001    2.71861E+005
            6427    3.35250E+006    3.43070E+006    3.43070E+006    4.02371E+005   -1.71810E+005    3.60250E+006   -1.22042E+006    3.23909E+006    3.43070E+006    1.02124E+005    1.28437E+005   -7.00760E+001    6.45273E+000    2.86789E+005
            6428    3.35289E+006    3.43739E+006    3.43739E+006    4.24243E+005   -1.74541E+005    3.61193E+006   -1.22903E+006    3.22929E+006    3.43739E+006    4.70185E+004    2.02683E+005   -5.49087E+001   -1.98760E+001    2.89098E+005
            6429    3.34861E+006    3.44902E+006    3.44902E+006    4.43277E+005   -1.60346E+005    3.60937E+006   -1.24398E+006    3.22278E+006    3.44902E+006   -1.27667E+003    2.84207E+005   -3.65293E+001   -8.01513E+001    2.65922E+005
            6430    3.34128E+006    3.46584E+006    3.46584E+006    4.66413E+005   -1.35475E+005    3.60132E+006   -1.26559E+006    3.21591E+006    3.46584E+006   -3.64991E+004    3.67437E+005   -1.70001E+001   -8.15591E+001    2.23106E+005
            6431    3.32839E+006    3.47185E+006    3.47185E+006    4.34187E+005   -8.60166E+004    3.55786E+006   -1.27334E+006    3.23503E+006    3.47185E+006   -2.66432E+004    3.74813E+005    9.12077E+000    4.26695E+001    1.65412E+005
            6432    3.32055E+006    3.47410E+006    3.47410E+006    4.05990E+005   -5.14546E+004    3.52555E+006   -1.27621E+006    3.24852E+006    3.47410E+006   -1.55241E+004    3.70060E+005   -2.67324E+001   -4.68574E+001    1.23066E+005
            6433    3.31419E+006    3.47786E+006    3.47786E+006    3.87067E+005   -2.17843E+004    3.49965E+006   -1.28105E+006    3.25673E+006    3.47786E+006   -6.53652E+003    3.71819E+005    8.29485E+000   -6.42715E+000    7.74697E+004
            6434    3.31021E+006    3.48268E+006    3.48268E+006    3.83328E+005   -4.25459E+003    3.48693E+006   -1.28725E+006    3.25857E+006    3.48268E+006   -2.36419E+003    3.81438E+005   -7.47741E+000   -2.32144E+001    2.70021E+004
            6435    3.33616E+006    3.45096E+006    3.45096E+006    3.99661E+005   -1.11143E+005    3.56210E+006   -1.24649E+006    3.24643E+006    3.45096E+006   -7.81904E+003    2.96337E+005    3.36464E+001    1.53378E+001    2.05189E+005
            6436    3.32723E+006    3.45076E+006    3.45076E+006    3.56473E+005   -6.85584E+004    3.51932E+006   -1.24622E+006    3.26531E+006    3.45076E+006   -4.01317E+003    2.91927E+005   -4.59360E+001   -3.46962E+001    1.52537E+005
            6437    3.32101E+006    3.45000E+006    3.45000E+006    3.17832E+005   -3.21416E+004    3.48214E+006   -1.24523E+006    3.27914E+006    3.45000E+006   -2.91381E+003    2.88604E+005    2.27829E+001   -6.70429E+000    9.68230E+004
            6438    3.31722E+006    3.44964E+006    3.44964E+006    2.90615E+005   -5.85500E+003    3.45550E+006   -1.24480E+006    3.28721E+006    3.44964E+006   -1.93508E+003    2.86695E+005   -1.39954E+001   -1.79739E+001    3.38640E+004
            6439    3.34054E+006    3.43542E+006    3.43542E+006    3.67801E+005   -1.23610E+005    3.55903E+006   -1.22654E+006    3.25773E+006    3.43542E+006    2.73665E+004    2.16824E+005    5.17324E+001   -1.01478E+000    2.26711E+005
            6440    3.33280E+006    3.43069E+006    3.43069E+006    3.11776E+005   -8.11614E+004    3.51185E+006   -1.22043E+006    3.28008E+006    3.43069E+006    1.46304E+004    2.15984E+005   -4.82953E+001   -1.51286E+001    1.68713E+005
            6441    3.32744E+006    3.42548E+006    3.42548E+006    2.55152E+005   -3.94871E+004    3.46496E+006   -1.21371E+006    3.29790E+006    3.42548E+006    6.21302E+003    2.09452E+005    2.11600E+001   -7.42122E+000    1.06661E+005
            6442    3.32583E+006    3.41759E+006    3.41759E+006    2.00273E+005   -7.06342E+003    3.42465E+006   -1.20360E+006    3.31125E+006    3.41759E+006   -3.00278E+002    1.93510E+005   -1.17030E+001   -9.64149E+000    3.68308E+004
            6443    3.34271E+006    3.42420E+006    3.42420E+006    3.39726E+005   -1.27569E+005    3.55177E+006   -1.21212E+006    3.26801E+006    3.42420E+006    6.99549E+004    1.42201E+005    5.86877E+001   -2.38703E+001    2.30838E+005
            6444    3.33479E+006    3.41698E+006    3.41698E+006    2.69021E+005   -7.75736E+004    3.49455E+006   -1.20281E+006    3.29390E+006    3.41698E+006    4.49120E+004    1.46535E+005   -5.72374E+001    8.66624E+000    1.65681E+005
            6445    3.33256E+006    3.40540E+006    3.40540E+006    1.97629E+005   -3.93059E+004    3.44470E+006   -1.18791E+006    3.31353E+006    3.40540E+006    1.80186E+004    1.40304E+005    3.00408E+001   -1.06386E+001    1.01470E+005
            6446    3.33451E+006    3.39045E+006    3.39045E+006    1.22715E+005   -7.02941E+003    3.39748E+006   -1.16871E+006    3.32882E+006    3.39045E+006    2.66029E+003    1.13025E+005   -1.58889E+001    7.25538E-001    3.41071E+004
            6447    3.33933E+006    3.42103E+006    3.42103E+006    3.11458E+005   -1.08357E+005    3.52939E+006   -1.20804E+006    3.27917E+006    3.42103E+006    1.31407E+005    7.16930E+004    3.41195E+001   -2.01230E+001    2.07773E+005
            6448    3.33460E+006    3.40590E+006    3.40590E+006    2.18021E+005   -5.82399E+004    3.46414E+006   -1.18856E+006    3.30870E+006    3.40590E+006    7.26006E+004    8.71809E+004   -3.70263E+001    2.04384E+001    1.37938E+005
            6449    3.33600E+006    3.39025E+006    3.39025E+006    1.42894E+005   -2.78404E+004    3.41809E+006   -1.16843E+006    3.32615E+006    3.39025E+006    3.01282E+004    8.49258E+004    2.03478E+001   -1.09186E+001    8.08511E+004
            6450    3.34190E+006    3.37010E+006    3.37010E+006    6.36243E+004   -6.14387E+003    3.37624E+006   -1.14253E+006    3.34026E+006    3.37010E+006    5.29110E+003    5.21893E+004   -1.34071E+001    9.65325E+000    2.58271E+004
            6451    3.34633E+006    3.35871E+006    3.35871E+006    2.58535E+004   -9.29974E+002    3.35964E+006   -1.12788E+006    3.34609E+006    3.35871E+006    8.39719E+003    1.65264E+004   -2.36577E+000    4.58567E+000    1.27600E+004
            6452    3.34926E+006    3.35170E+006    3.35170E+006    4.86783E+003    1.82244E+001    3.35168E+006   -1.11886E+006    3.34925E+006    3.35170E+006    2.56959E+003    2.31647E+003   -3.58368E+000    2.61779E+000    2.42150E+003
            6453    3.33947E+006    3.37693E+006    3.37693E+006    8.66216E+004   -9.62440E+003    3.38655E+006   -1.15131E+006    3.33634E+006    3.37693E+006    3.66916E+004    4.03056E+004   -7.58662E+000    6.25617E+000    4.80891E+004
            6454    3.34552E+006    3.36065E+006    3.36065E+006    3.11836E+004   -6.95501E+002    3.36135E+006   -1.13038E+006    3.34518E+006    3.36065E+006    2.04819E+004    1.00062E+004   -6.33646E+000    1.02690E+000    1.50544E+004
            6455    3.33527E+006    3.39425E+006    3.39425E+006    1.60717E+005   -3.42041E+004    3.42845E+006   -1.17359E+006    3.32242E+006    3.39425E+006    8.52217E+004    4.12911E+004   -3.26735E+000    9.34561E-001    9.49530E+004
            6456    3.33893E+006    3.37795E+006    3.37795E+006    8.58623E+004   -5.92150E+003    3.38387E+006   -1.15263E+006    3.33608E+006    3.37795E+006    6.97664E+004    1.01744E+004   -4.69828E+000    5.36378E+000    3.49037E+004
            6457    3.33290E+006    3.41650E+006    3.41650E+006    2.54379E+005   -6.42866E+004    3.48078E+006   -1.20220E+006    3.29836E+006    3.41650E+006    1.64040E+005    2.60522E+004    7.70786E+000    9.67147E+000    1.43620E+005
            6458    3.33068E+006    3.40271E+006    3.40271E+006    1.61155E+005   -1.04549E+004    3.41317E+006   -1.18447E+006    3.32071E+006    3.40271E+006    1.46115E+005    4.58565E+003    3.26751E+000   -3.71371E-001    4.85273E+004
            6459    3.32254E+006    3.43104E+006    3.43104E+006    2.43180E+005   -1.15117E+004    3.44256E+006   -1.22090E+006    3.30047E+006    3.43104E+006    2.31805E+005   -1.36551E+002    1.24610E+001    8.60976E+000    5.26097E+004
            6460    3.31505E+006    3.46384E+006    3.46384E+006    3.37591E+005   -1.22622E+004    3.47610E+006   -1.26306E+006    3.27313E+006    3.46384E+006    3.31131E+005   -5.80201E+003    2.35024E+001    9.29540E+000    4.70996E+004
            6461    3.32982E+006    3.43842E+006    3.43842E+006    3.24475E+005   -7.18003E+004    3.51022E+006   -1.23037E+006    3.27613E+006    3.43842E+006    2.48405E+005    4.26997E+003    4.16254E+000   -1.72088E+001    1.56071E+005
            6462    3.32293E+006    3.46295E+006    3.46295E+006    3.78504E+005   -5.57648E+004    3.51871E+006   -1.26190E+006    3.25817E+006    3.46295E+006    3.34459E+005   -1.17198E+004    1.67157E+001   -1.54500E+001    1.31101E+005
            6463    3.33884E+006    3.46027E+006    3.46027E+006    4.40321E+005   -1.25218E+005    3.58549E+006   -1.25846E+006    3.22843E+006    3.46027E+006    3.32363E+005   -1.72597E+004    3.80679E+001    3.53585E+001    2.22260E+005
            6464    3.34567E+006    3.44000E+006    3.44000E+006    4.04436E+005   -1.47207E+005    3.58720E+006   -1.23241E+006    3.24097E+006    3.44000E+006    2.41186E+005    1.60425E+004    1.40931E+001    2.87876E+001    2.51803E+005
            6465    3.34814E+006    3.42203E+006    3.42203E+006    3.56991E+005   -1.51122E+005    3.57316E+006   -1.20930E+006    3.25970E+006    3.42203E+006    7.96700E+004    1.26198E+005   -1.64645E+001   -2.57609E+000    2.52989E+005
            6466    3.34499E+006    3.43776E+006    3.43776E+006    3.94571E+005   -1.43742E+005    3.58150E+006   -1.22953E+006    3.24538E+006    3.43776E+006    3.84628E+004    2.12367E+005   -2.25192E+001    1.50755E+001    2.54725E+005
            6467    3.34250E+006    3.45246E+006    3.45246E+006    4.30495E+005   -1.37721E+005    3.59018E+006   -1.24841E+006    3.23114E+006    3.45246E+006   -4.20760E+003    2.96982E+005   -2.94611E+001   -5.85377E+000    2.40912E+005
            6468    3.33587E+006    3.46989E+006    3.46989E+006    4.58420E+005   -1.15831E+005    3.58572E+006   -1.27083E+006    3.22184E+006    3.46989E+006   -3.37297E+004    3.76319E+005   -1.80460E+001    2.32470E+000    2.01012E+005
            6469    3.31926E+006    3.47647E+006    3.47647E+006    4.08140E+005   -4.67870E+004    3.52326E+006   -1.27927E+006    3.24801E+006    3.47647E+006   -1.54233E+004    3.76776E+005    1.60412E+001    7.47626E+000    1.15258E+005
            6470    3.31104E+006    3.48165E+006    3.48165E+006    3.84164E+005   -8.01515E+003    3.48967E+006   -1.28593E+006    3.25817E+006    3.48165E+006   -3.80510E+003    3.79953E+005   -3.45036E+000    1.10528E+001    4.04150E+004
            6471    3.32569E+006    3.45180E+006    3.45180E+006    3.52315E+005   -6.13845E+004    3.51319E+006   -1.24758E+006    3.26705E+006    3.45180E+006   -5.76813E+003    2.96699E+005    2.39178E+001    2.68360E+001    1.41121E+005
            6472    3.31871E+006    3.44766E+006    3.44766E+006    2.92459E+005   -1.33962E+004    3.46106E+006   -1.24224E+006    3.28678E+006    3.44766E+006   -5.05953E+003    2.84122E+005   -7.60031E+000    8.28988E+000    4.98028E+004
            6473    3.33186E+006    3.42897E+006    3.42897E+006    2.99661E+005   -7.39481E+004    3.50292E+006   -1.21823E+006    3.28424E+006    3.42897E+006    8.38644E+003    2.17327E+005    1.33973E+001    3.40575E+000    1.54861E+005
            6474    3.32729E+006    3.41499E+006    3.41499E+006    2.00046E+005   -1.42875E+004    3.42928E+006   -1.20025E+006    3.31171E+006    3.41499E+006    1.92281E+002    1.85567E+005   -2.99573E+000    4.07269E+000    5.37945E+004
            6475    3.33456E+006    3.41084E+006    3.41084E+006    2.40943E+005   -6.70094E+004    3.47785E+006   -1.19493E+006    3.30234E+006    3.41084E+006    4.12822E+004    1.32652E+005    9.34593E+000   -2.89727E-001    1.47043E+005
            6476    3.33531E+006    3.38832E+006    3.38832E+006    1.17789E+005   -8.20718E+003    3.39653E+006   -1.16597E+006    3.32995E+006    3.38832E+006    9.55241E+003    1.00029E+005   -3.00229E+000    2.06619E+000    4.38433E+004
            6477    3.34269E+006    3.36795E+006    3.36795E+006    5.66638E+004   -5.27742E+003    3.37323E+006   -1.13978E+006    3.34140E+006    3.36795E+006    1.02094E+004    4.11769E+004    3.00314E+000   -6.85483E+000    2.68222E+004
            6478    3.34735E+006    3.35618E+006    3.35618E+006    1.77328E+004   -5.20506E+000    3.35619E+006   -1.12464E+006    3.34725E+006    3.35618E+006    9.12171E+003    8.60592E+003    7.35096E-002   -1.38207E+000    8.86527E+003
            6479    3.33534E+006    3.39417E+006    3.39417E+006    1.61004E+005   -3.47306E+004    3.42890E+006   -1.17348E+006    3.32238E+006    3.39417E+006    6.50932E+004    6.11802E+004   -2.56107E+000    3.18087E-001    9.78478E+004
            6480    3.34239E+006    3.36875E+006    3.36875E+006    5.88291E+004   -5.17639E+003    3.37393E+006   -1.14080E+006    3.34101E+006    3.36875E+006    4.40562E+004    9.59650E+003    3.71906E+000   -4.04114E+000    2.69686E+004
            6481    3.33454E+006    3.39057E+006    3.39057E+006    1.24022E+005   -8.04497E+003    3.39861E+006   -1.16885E+006    3.32865E+006    3.39057E+006    1.07262E+005    8.71502E+003   -3.69175E+000    1.24248E+000    4.39607E+004
            6482    3.32613E+006    3.41905E+006    3.41905E+006    2.11451E+005   -1.41438E+004    3.43319E+006   -1.20545E+006    3.30886E+006    3.41905E+006    1.98332E+005   -1.02466E+003   -5.70616E+000    6.40413E-001    5.27967E+004
            6483    3.31703E+006    3.45440E+006    3.45440E+006    3.10290E+005   -1.20231E+004    3.46642E+006   -1.25089E+006    3.28152E+006    3.45440E+006    3.03293E+005   -5.02697E+003   -6.57947E+000    4.96603E+000    4.69680E+004
            6484    3.30953E+006    3.48943E+006    3.48943E+006    4.05041E+005   -6.71204E+003    3.49614E+006   -1.29592E+006    3.25115E+006    3.48943E+006    4.01661E+005   -3.33162E+003   -8.49120E+000    1.10832E+000    3.71547E+004
            6485    3.33443E+006    3.41175E+006    3.41175E+006    2.44030E+005   -6.75196E+004    3.47927E+006   -1.19609E+006    3.30145E+006    3.41175E+006    1.41188E+005    3.53214E+004   -2.01170E+000   -1.01430E+001    1.46505E+005
            6486    3.33096E+006    3.43197E+006    3.43197E+006    3.06080E+005   -7.18161E+004    3.50379E+006   -1.22208E+006    3.28221E+006    3.43197E+006    2.30754E+005    3.50997E+003   -4.86814E+000   -1.25298E+001    1.50968E+005
            6487    3.32396E+006    3.45707E+006    3.45707E+006    3.62412E+005   -5.64779E+004    3.51355E+006   -1.25433E+006    3.26378E+006    3.45707E+006    3.13763E+005   -7.82971E+003   -2.40067E+001   -2.09413E+001    1.34207E+005
            6488    3.31732E+006    3.48287E+006    3.48287E+006    4.20939E+005   -4.13549E+004    3.52422E+006   -1.28748E+006    3.24366E+006    3.48287E+006    3.95302E+005   -1.57184E+004   -4.31922E+000   -9.84417E+000    1.05803E+005
            6489    3.33223E+006    3.47770E+006    3.47770E+006    4.68240E+005   -1.03351E+005    3.58105E+006   -1.28086E+006    3.21915E+006    3.47770E+006    4.04860E+005   -3.99706E+004    2.45330E+000   -4.55098E+000    1.79473E+005
            6490    3.34003E+006    3.45777E+006    3.45777E+006    4.37132E+005   -1.29231E+005    3.58700E+006   -1.25522E+006    3.22934E+006    3.45777E+006    3.23315E+005   -1.54140E+004    3.62992E+000    2.02139E+001    2.26952E+005
            6491    3.34396E+006    3.44035E+006    3.44035E+006    3.98537E+005   -1.40317E+005    3.58067E+006   -1.23286E+006    3.24412E+006    3.44035E+006    2.34716E+005    2.35039E+004   -1.13091E+001    1.19868E+001    2.47867E+005
            6492    3.34817E+006    3.42243E+006    3.42243E+006    3.58372E+005   -1.51376E+005    3.57381E+006   -1.20981E+006    3.25915E+006    3.42243E+006    1.43746E+005    6.32493E+004   -1.29041E+000    1.42352E+001    2.51676E+005
            6493    3.30675E+006    3.51024E+006    3.51024E+006    4.65079E+005   -7.29899E+003    3.51754E+006   -1.32267E+006    3.22954E+006    3.51024E+006   -5.43663E+003    4.63217E+005   -4.14753E+000    7.53997E+000    2.96019E+004
            6494    3.31339E+006    3.49997E+006    3.49997E+006    4.60831E+005   -3.23729E+004    3.53234E+006   -1.30948E+006    3.22925E+006    3.49997E+006   -1.85262E+004    4.46984E+005    1.66078E+001    4.57747E+001    8.14711E+004
            6495    3.32782E+006    3.48989E+006    3.48989E+006    4.88418E+005   -8.87681E+004    3.57866E+006   -1.29651E+006    3.21230E+006    3.48989E+006   -4.83429E+004    4.47993E+005   -6.30827E+000   -1.06515E+001    1.47305E+005
            6496    3.30401E+006    3.53199E+006    3.53199E+006    5.24572E+005   -4.70776E+003    3.53670E+006   -1.35062E+006    3.20654E+006    3.53199E+006   -4.14180E+003    5.24006E+005   -3.79453E+000    8.50128E+000    1.72982E+004
            6497    3.30966E+006    3.51823E+006    3.51823E+006    5.04223E+005   -2.36400E+004    3.54187E+006   -1.33294E+006    3.21290E+006    3.51823E+006   -1.91068E+004    4.99690E+005    1.39193E+001   -3.87897E+000    4.87068E+004
            6498    3.32030E+006    3.50791E+006    3.50791E+006    5.14556E+005   -6.34408E+004    3.57135E+006   -1.31968E+006    3.20417E+006    3.50791E+006   -5.02735E+004    5.01389E+005    8.28440E+000   -1.18320E+001    8.62398E+004
            6499    3.30311E+006    3.54321E+006    3.54321E+006    5.56136E+005   -4.24475E+003    3.54746E+006   -1.36503E+006    3.19353E+006    3.54321E+006   -4.18433E+003    5.56075E+005   -3.37196E+000    1.23386E+000    5.81838E+003
            6500    3.30788E+006    3.52835E+006    3.52835E+006    5.29009E+005   -1.94984E+004    3.54785E+006   -1.34595E+006    3.20317E+006    3.52835E+006   -1.90597E+004    5.28570E+005    1.32994E+001    3.20106E+001    1.55051E+004
            6501    3.31630E+006    3.51819E+006    3.51819E+006    5.30428E+005   -5.00053E+004    3.56820E+006   -1.33287E+006    3.19901E+006    3.51819E+006   -4.85814E+004    5.29004E+005    1.77533E+001    1.29468E+000    2.87134E+004
            6502    3.30862E+006    3.49630E+006    3.49630E+006    4.25505E+005   -7.49422E+003    3.50380E+006   -1.30477E+006    3.24395E+006    3.49630E+006    4.22558E+005   -4.54710E+003    7.49888E+000    3.46494E+000   -3.56008E+004
            6503    3.31642E+006    3.48777E+006    3.48777E+006    4.33634E+005   -3.99976E+004    3.52777E+006   -1.29380E+006    3.23901E+006    3.48777E+006    4.11217E+005   -1.75807E+004    3.42635E+001   -1.54828E+001   -1.00573E+005
            6504    3.33127E+006    3.48064E+006    3.48064E+006    4.73543E+005   -1.00261E+005    3.58090E+006   -1.28464E+006    3.21726E+006    3.48064E+006    4.14282E+005   -4.09995E+004    3.21325E+000    9.52177E+000   -1.74621E+005
            6505    3.30516E+006    3.52245E+006    3.52245E+006    4.98771E+005   -6.09971E+003    3.52855E+006   -1.33837E+006    3.21669E+006    3.52245E+006    4.97669E+005   -4.99780E+003    8.83827E+000   -4.52581E-002   -2.35607E+004
            6506    3.31112E+006    3.51053E+006    3.51053E+006    4.85644E+005   -2.70354E+004    3.53756E+006   -1.32304E+006    3.22001E+006    3.51053E+006    4.77284E+005   -1.86756E+004    8.72249E+000   -2.89980E+000   -6.49306E+004
            6507    3.32339E+006    3.50008E+006    3.50008E+006    5.02525E+005   -7.37689E+004    3.57384E+006   -1.30961E+006    3.20807E+006    3.50008E+006    4.78447E+005   -4.96910E+004   -2.12317E+001   -1.11876E+001   -1.15309E+005
            6508    3.30331E+006    3.53972E+006    3.53972E+006    5.46177E+005   -4.21080E+003    3.54393E+006   -1.36056E+006    3.19770E+006    3.53972E+006    5.45956E+005   -3.98971E+003    3.71615E+000    3.57104E-001   -1.10289E+004
            6509    3.30854E+006    3.52494E+006    3.52494E+006    5.20944E+005   -2.11806E+004    3.54612E+006   -1.34157E+006    3.20632E+006    3.52494E+006    5.19210E+005   -1.94463E+004    3.09813E+001   -2.24916E+000   -3.06137E+004
            6510    3.31741E+006    3.51498E+006    3.51498E+006    5.25085E+005   -5.37506E+004    3.56873E+006   -1.32877E+006    3.20082E+006    3.51498E+006    5.19844E+005   -4.85098E+004    3.11333E+000   -2.81613E+001   -5.48281E+004
            6511    3.30309E+006    3.54448E+006    3.54448E+006    5.60079E+005   -4.51143E+003    3.54900E+006   -1.36668E+006    3.19181E+006    3.54448E+006    5.60076E+005   -4.50802E+003    3.19073E+000   -3.56542E+000    1.38674E+003
            6512    3.30771E+006    3.52972E+006    3.52972E+006    5.32598E+005   -1.91809E+004    3.54890E+006   -1.34771E+006    3.20171E+006    3.52972E+006    5.32578E+005   -1.91609E+004   -1.11202E+001    4.04493E+000    3.31870E+003
            6513    3.31580E+006    3.51945E+006    3.51945E+006    5.32419E+005   -4.83747E+004    3.56783E+006   -1.33450E+006    3.19834E+006    3.51945E+006    5.32410E+005   -4.83663E+004   -1.13459E+001   -3.99052E+001    2.19911E+003
            6514    3.30346E+006    3.53710E+006    3.53710E+006    5.38564E+005   -4.09498E+003    3.54120E+006   -1.35719E+006    3.20088E+006    3.53710E+006    5.38230E+005   -3.76072E+003   -3.52940E+000   -4.86174E-001    1.34638E+004
            6515    3.30893E+006    3.52275E+006    3.52275E+006    5.15575E+005   -2.20958E+004    3.54484E+006   -1.33874E+006    3.20844E+006    3.52275E+006    5.12890E+005   -1.94105E+004    1.23940E+001    6.41443E-001    3.79028E+004
            6516    3.31765E+006    3.51398E+006    3.51398E+006    5.22943E+005   -5.44873E+004    3.56846E+006   -1.32748E+006    3.20166E+006    3.51398E+006    5.16954E+005   -4.84983E+004    8.51119E+000   -3.69530E+001    5.85009E+004
            6517    3.30587E+006    3.51715E+006    3.51715E+006    4.84240E+005   -6.76066E+003    3.52391E+006   -1.33154E+006    3.22230E+006    3.51715E+006    4.82844E+005   -5.36501E+003   -3.98333E+000   -1.06928E-001    2.61404E+004
            6518    3.31186E+006    3.50633E+006    3.50633E+006    4.75043E+005   -2.84379E+004    3.53477E+006   -1.31765E+006    3.22407E+006    3.50633E+006    4.64691E+005   -1.80863E+004   -2.93814E+001   -4.42990E+000    7.14469E+004
            6519    3.32390E+006    3.49840E+006    3.49840E+006    4.99275E+005   -7.53377E+004    3.57374E+006   -1.30745E+006    3.20929E+006    3.49840E+006    4.72998E+005   -4.90608E+004    4.11562E+000   -2.08616E+001    1.20036E+005
            6520    3.32787E+006    3.48986E+006    3.48986E+006    4.88492E+005   -8.89492E+004    3.57881E+006   -1.29647E+006    3.21225E+006    3.48986E+006   -4.85935E+004    4.48136E+005   -3.89162E+000    9.24164E+000   -1.47223E+005
            6521    3.31328E+006    3.50020E+006    3.50020E+006    4.61076E+005   -3.19801E+004    3.53218E+006   -1.30976E+006    3.22919E+006    3.50020E+006   -1.83243E+004    4.47420E+005    1.73614E+001   -4.56034E+001   -8.09109E+004
            6522    3.30674E+006    3.51057E+006    3.51057E+006    4.66086E+005   -7.36840E+003    3.51794E+006   -1.32310E+006    3.22916E+006    3.51057E+006   -5.53213E+003    4.64250E+005   -4.60044E+000   -7.23210E+000   -2.94282E+004
            6523    3.32026E+006    3.50803E+006    3.50803E+006    5.14706E+005   -6.32750E+004    3.57130E+006   -1.31982E+006    3.20413E+006    3.50803E+006   -5.02664E+004    5.01697E+005    1.28144E+001    1.04172E+001   -8.57292E+004
            6524    3.30964E+006    3.51820E+006    3.51820E+006    5.04040E+005   -2.35518E+004    3.54175E+006   -1.33289E+006    3.21299E+006    3.51820E+006   -1.90110E+004    4.99499E+005    1.43553E+001    7.74536E+000   -4.87346E+004
            6525    3.30397E+006    3.53216E+006    3.53216E+006    5.24942E+005   -4.59739E+003    3.53676E+006   -1.35084E+006    3.20641E+006    3.53216E+006   -4.03862E+003    5.24384E+005   -4.49143E+000   -7.92807E+000   -1.71924E+004
            6526    3.31624E+006    3.51829E+006    3.51829E+006    5.30449E+005   -4.97700E+004    3.56806E+006   -1.33299E+006    3.19904E+006    3.51829E+006   -4.84150E+004    5.29094E+005    2.02100E+001   -3.98487E+000   -2.80057E+004
            6527    3.30784E+006    3.52835E+006    3.52835E+006    5.28839E+005   -1.93425E+004    3.54769E+006   -1.34595E+006    3.20325E+006    3.52835E+006   -1.88743E+004    5.28370E+005    1.25626E+001   -2.83069E+001   -1.60141E+004
            6528    3.30312E+006    3.54321E+006    3.54321E+006    5.56153E+005   -4.28166E+003    3.54749E+006   -1.36503E+006    3.19352E+006    3.54321E+006   -4.22003E+003    5.56092E+005   -3.28442E+000   -3.81305E-001   -5.87664E+003
            6529    3.34203E+006    3.36975E+006    3.36975E+006    6.20596E+004   -5.59485E+003    3.37534E+006   -1.14207E+006    3.34049E+006    3.36975E+006    5.75262E+003    5.07122E+004    4.27371E+000    2.51398E+000   -2.52773E+004
            6530    3.33488E+006    3.38954E+006    3.38954E+006    1.20350E+005   -7.36577E+003    3.39690E+006   -1.16751E+006    3.32937E+006    3.38954E+006    2.35483E+003    1.10629E+005    8.17393E+000    3.48859E+000   -3.38671E+004
            6531    3.32606E+006    3.41697E+006    3.41697E+006    1.98378E+005   -7.03943E+003    3.42401E+006   -1.20277E+006    3.31175E+006    3.41697E+006   -4.45734E+002    1.91784E+005    7.14739E+000    3.20014E+000   -3.62075E+004
            6532    3.31721E+006    3.44967E+006    3.44967E+006    2.90278E+005   -5.53421E+003    3.45521E+006   -1.24480E+006    3.28734E+006    3.44967E+006   -1.69923E+003    2.86443E+005    9.69923E+000    4.66014E+000   -3.34623E+004
            6533    3.31024E+006    3.48267E+006    3.48267E+006    3.83399E+005   -4.37883E+003    3.48705E+006   -1.28723E+006    3.25856E+006    3.48267E+006   -2.52080E+003    3.81541E+005    2.90914E+000    4.46247E+000   -2.67778E+004
            6534    3.33601E+006    3.39021E+006    3.39021E+006    1.42788E+005   -2.78235E+004    3.41804E+006   -1.16839E+006    3.32617E+006    3.39021E+006    3.03783E+004    8.45864E+004   -2.01604E+001   -1.05191E+001   -8.08855E+004
            6535    3.33261E+006    3.40500E+006    3.40500E+006    1.96064E+005   -3.88365E+004    3.44384E+006   -1.18741E+006    3.31390E+006    3.40500E+006    1.75265E+004    1.39701E+005   -3.22608E+001   -2.12017E+000   -1.00314E+005
            6536    3.32741E+006    3.42521E+006    3.42521E+006    2.53837E+005   -3.88912E+004    3.46410E+006   -1.21339E+006    3.29825E+006    3.42521E+006    6.41181E+003    2.08534E+005   -2.94579E+001    9.89461E+000   -1.05873E+005
            6537    3.32097E+006    3.44998E+006    3.44998E+006    3.17595E+005   -3.19347E+004    3.48191E+006   -1.24521E+006    3.27920E+006    3.44998E+006   -3.10793E+003    2.88768E+005   -3.00896E+001    2.01631E+001   -9.61500E+004
            6538    3.31405E+006    3.47804E+006    3.47804E+006    3.86997E+005   -2.12052E+004    3.49924E+006   -1.28128E+006    3.25677E+006    3.47804E+006   -6.19839E+003    3.71990E+005   -1.29010E+001    2.59638E+001   -7.68154E+004
            6539    3.33463E+006    3.40602E+006    3.40602E+006    2.18862E+005   -5.87222E+004    3.46474E+006   -1.18872E+006    3.30848E+006    3.40602E+006    7.32774E+004    8.68624E+004    2.28838E+001    1.50041E+001   -1.38626E+005
            6540    3.33476E+006    3.41693E+006    3.41693E+006    2.68566E+005   -7.72709E+004    3.49420E+006   -1.20274E+006    3.29405E+006    3.41693E+006    4.44714E+004    1.46824E+005    4.08738E+001    1.01812E+001   -1.65172E+005
            6541    3.33265E+006    3.43097E+006    3.43097E+006    3.11900E+005   -8.05251E+004    3.51149E+006   -1.22078E+006    3.28007E+006    3.43097E+006    1.37994E+004    2.17575E+005    3.68891E+001    3.28732E-002   -1.67685E+005
            6542    3.32709E+006    3.45103E+006    3.45103E+006    3.56666E+005   -6.80056E+004    3.51903E+006   -1.24656E+006    3.26528E+006    3.45103E+006   -4.28752E+003    2.92948E+005    3.10284E+001   -1.28714E+001   -1.51655E+005
            6543    3.32038E+006    3.47428E+006    3.47428E+006    4.05833E+005   -5.07715E+004    3.52505E+006   -1.27645E+006    3.24862E+006    3.47428E+006   -1.53889E+004    3.70451E+005    7.20095E+000   -2.24473E+001   -1.22082E+005
            6544    3.33932E+006    3.42109E+006    3.42109E+006    3.11349E+005   -1.08160E+005    3.52925E+006   -1.20809E+006    3.27925E+006    3.42109E+006    1.31258E+005    7.19311E+004   -2.32027E+001   -1.46959E+001   -2.07647E+005
            6545    3.34270E+006    3.42444E+006    3.42444E+006    3.40185E+005   -1.27453E+005    3.55189E+006   -1.21239E+006    3.26789E+006    3.42444E+006    6.93920E+004    1.43339E+005   -5.37617E+001   -7.41414E+000   -2.30877E+005
            6546    3.34042E+006    3.43586E+006    3.43586E+006    3.68383E+005   -1.23068E+005    3.55892E+006   -1.22706E+006    3.25760E+006    3.43586E+006    2.62288E+004    2.19086E+005   -5.35071E+001    2.01849E+001   -2.26015E+005
            6547    3.33608E+006    3.45134E+006    3.45134E+006    4.00404E+005   -1.10848E+005    3.56219E+006   -1.24697E+006    3.24618E+006    3.45134E+006   -8.35990E+003    2.97916E+005   -3.84935E+001    4.09118E+001   -2.04679E+005
            6548    3.32835E+006    3.47198E+006    3.47198E+006    4.34224E+005   -8.57668E+004    3.55774E+006   -1.27348E+006    3.23507E+006    3.47198E+006   -2.66643E+004    3.75121E+005   -1.47683E+001    6.92177E+001   -1.65044E+005
            6549    3.34143E+006    3.46564E+006    3.46564E+006    4.66471E+005   -1.36058E+005    3.60170E+006   -1.26535E+006    3.21578E+006    3.46564E+006   -3.63721E+004    3.66785E+005    1.53911E+000   -4.73240E+001   -2.23889E+005
            6550    3.34864E+006    3.44903E+006    3.44903E+006    4.43466E+005   -1.60496E+005    3.60952E+006   -1.24400E+006    3.22267E+006    3.44903E+006   -5.24833E+002    2.83495E+005    2.75707E+001   -5.40100E+001   -2.66506E+005
            6551    3.35288E+006    3.43731E+006    3.43731E+006    4.24185E+005   -1.74630E+005    3.61194E+006   -1.22896E+006    3.22927E+006    3.43731E+006    4.76597E+004    2.01895E+005    5.57326E+001    4.31849E+000   -2.89306E+005
            6552    3.35243E+006    3.43074E+006    3.43074E+006    4.02534E+005   -1.71731E+005    3.60247E+006   -1.22051E+006    3.23899E+006    3.43074E+006    1.02422E+005    1.28381E+005    7.90519E+001    1.75141E+001   -2.86839E+005
            6553    3.35137E+006    3.42726E+006    3.42726E+006    3.87431E+005   -1.66606E+005    3.59386E+006   -1.21603E+006    3.24593E+006    3.42726E+006    1.63215E+005    5.76095E+004    3.39899E+001    2.76997E+001   -2.71939E+005
            6554    3.34564E+006    3.44003E+006    3.44003E+006    4.04326E+005   -1.47052E+005    3.58708E+006   -1.23243E+006    3.24105E+006    3.44003E+006    2.41800E+005    1.54739E+004    9.86788E+000    2.00828E+001   -2.51393E+005
            6555    3.33876E+006    3.46030E+006    3.46030E+006    4.40080E+005   -1.24906E+005    3.58520E+006   -1.25849E+006    3.22857E+006    3.46030E+006    3.32881E+005   -1.77081E+004   -5.76297E+000    2.28796E+001   -2.21526E+005
            6556    3.32303E+006    3.46262E+006    3.46262E+006    3.77911E+005   -5.60842E+004    3.51871E+006   -1.26148E+006    3.25836E+006    3.46262E+006    3.33211E+005   -1.13842E+004    7.52623E+000   -1.24794E+001   -1.31915E+005
            6557    3.31521E+006    3.46316E+006    3.46316E+006    3.35633E+005   -1.22735E+004    3.47544E+006   -1.26217E+006    3.27376E+006    3.46316E+006    3.29104E+005   -5.74511E+003    8.47538E+000    3.16912E+000   -4.72086E+004
            6558    3.32990E+006    3.43815E+006    3.43815E+006    3.24034E+005   -7.20830E+004    3.51024E+006   -1.23003E+006    3.27626E+006    3.43815E+006    2.47629E+005    4.32237E+003    1.34245E+001   -1.62461E+001   -1.56294E+005
            6559    3.32267E+006    3.43069E+006    3.43069E+006    2.42245E+005   -1.16325E+004    3.44233E+006   -1.22044E+006    3.30074E+006    3.43069E+006    2.30826E+005   -2.13501E+002    7.04296E+000    3.88099E+000   -5.26178E+004
            6560    3.33074E+006    3.40261E+006    3.40261E+006    1.61173E+005   -1.07618E+004    3.41337E+006   -1.18434E+006    3.32073E+006    3.40261E+006    1.46014E+005    4.39690E+003    1.36258E+000   -3.19949E+000   -4.87495E+004
            6561    3.33889E+006    3.37802E+006    3.37802E+006    8.56779E+004   -5.54635E+003    3.38356E+006   -1.15272E+006    3.33608E+006    3.37802E+006    6.95263E+004    1.06052E+004   -9.59108E-001    1.20575E+000   -3.48216E+004
            6562    3.34558E+006    3.36049E+006    3.36049E+006    3.07536E+004   -7.14405E+002    3.36121E+006   -1.13018E+006    3.34525E+006    3.36049E+006    2.04212E+004    9.61795E+003   -4.52213E+000   -2.14059E+000   -1.47777E+004
            6563    3.34925E+006    3.35170E+006    3.35170E+006    4.89596E+003    1.29913E+001    3.35169E+006   -1.11887E+006    3.34924E+006    3.35170E+006    2.59706E+003    2.31189E+003   -1.16973E+000   -6.79965E-001   -2.43732E+003
            6564    3.33291E+006    3.41647E+006    3.41647E+006    2.54266E+005   -6.42748E+004    3.48074E+006   -1.20215E+006    3.29840E+006    3.41647E+006    1.64059E+005    2.59321E+004    7.20357E-001    3.18039E+000   -1.43518E+005
            6565    3.33523E+006    3.39446E+006    3.39446E+006    1.61512E+005   -3.44164E+004    3.42887E+006   -1.17385E+006    3.32224E+006    3.39446E+006    8.57007E+004    4.13944E+004   -2.10615E+000   -5.08159E+000   -9.54263E+004
            6566    3.33945E+006    3.37700E+006    3.37700E+006    8.70233E+004   -9.82213E+003    3.38682E+006   -1.15140E+006    3.33629E+006    3.37700E+006    3.70130E+004    4.01881E+004   -1.33568E+000   -1.34216E-001   -4.83967E+004
            6567    3.34648E+006    3.35832E+006    3.35832E+006    2.48042E+004   -9.77464E+002    3.35930E+006   -1.12738E+006    3.34626E+006    3.35832E+006    7.90238E+003    1.59244E+004   -2.46229E+000   -3.12575E+000   -1.22510E+004
            6568    3.33537E+006    3.38816E+006    3.38816E+006    1.17331E+005   -8.21611E+003    3.39637E+006   -1.16576E+006    3.33005E+006    3.38816E+006    9.55050E+003    9.95648E+004   -3.00958E+000   -2.23577E+000   -4.37596E+004
            6569    3.32723E+006    3.41520E+006    3.41520E+006    2.00593E+005   -1.42550E+004    3.42945E+006   -1.20051E+006    3.31157E+006    3.41520E+006    1.90309E+002    1.86148E+005   -3.28038E+000   -4.49230E+000   -5.38041E+004
            6570    3.31852E+006    3.44851E+006    3.44851E+006    2.94850E+005   -1.33752E+004    3.46188E+006   -1.24333E+006    3.28609E+006    3.44851E+006   -5.18958E+003    2.86665E+005   -7.99897E+000   -8.42862E+000   -4.95582E+004
            6571    3.31084E+006    3.48261E+006    3.48261E+006    3.86647E+005   -7.78262E+003    3.49039E+006   -1.28716E+006    3.25736E+006    3.48261E+006   -3.66334E+003    3.82528E+005   -3.95440E+000   -1.10137E+001   -4.00974E+004
            6572    3.33456E+006    3.41095E+006    3.41095E+006    2.41442E+005   -6.71882E+004    3.47814E+006   -1.19507E+006    3.30219E+006    3.41095E+006    4.12367E+004    1.33017E+005    1.08001E+001   -4.09009E-001   -1.47334E+005
            6573    3.33184E+006    3.42915E+006    3.42915E+006    3.00261E+005   -7.40419E+004    3.50319E+006   -1.21846E+006    3.28404E+006    3.42915E+006    7.92524E+003    2.18294E+005    1.59276E+001   -3.44655E+000   -1.54796E+005
            6574    3.32557E+006    3.45214E+006    3.45214E+006    3.52911E+005   -6.10145E+004    3.51316E+006   -1.24801E+006    3.26686E+006    3.45214E+006   -6.06391E+003    2.97961E+005    2.70309E+001   -2.85889E+001   -1.40449E+005
            6575    3.31910E+006    3.47682E+006    3.47682E+006    4.08577E+005   -4.62304E+004    3.52305E+006   -1.27972E+006    3.24789E+006    3.47682E+006   -1.54051E+004    3.77752E+005    1.84570E+001   -6.70452E+000   -1.14321E+005
            6576    3.33595E+006    3.46988E+006    3.46988E+006    4.58701E+005   -1.16128E+005    3.58601E+006   -1.27082E+006    3.22169E+006    3.46988E+006   -3.37311E+004    3.76304E+005   -1.64685E+001   -6.88096E-001   -2.01432E+005
            6577    3.34252E+006    3.45256E+006    3.45256E+006    4.30894E+005   -1.37839E+005    3.59040E+006   -1.24854E+006    3.23096E+006    3.45256E+006   -3.99544E+003    2.97050E+005   -3.22725E+001    5.15881E+000   -2.41261E+005
            6578    3.34492E+006    3.43782E+006    3.43782E+006    3.94497E+005   -1.43490E+005    3.58131E+006   -1.22961E+006    3.24544E+006    3.43782E+006    3.87718E+004    2.12235E+005   -2.33699E+001   -1.52118E+001   -2.54628E+005
            6579    3.34819E+006    3.42193E+006    3.42193E+006    3.56857E+005   -1.51289E+005    3.57322E+006   -1.20916E+006    3.25974E+006    3.42193E+006    7.90148E+004    1.26553E+005   -1.75172E+001    1.95314E+000   -2.52959E+005
            6580    3.34810E+006    3.42257E+006    3.42257E+006    3.58570E+005   -1.51173E+005    3.57374E+006   -1.20999E+006    3.25908E+006    3.42257E+006    1.43528E+005    6.38691E+004   -2.68472E-001   -1.53659E+001   -2.51740E+005
            6581    3.34397E+006    3.44039E+006    3.44039E+006    3.98751E+005   -1.40398E+005    3.58079E+006   -1.23292E+006    3.24402E+006    3.44039E+006    2.35170E+005    2.31834E+004   -1.30515E+001   -1.04787E+001   -2.47863E+005
            6582    3.33996E+006    3.45780E+006    3.45780E+006    4.36997E+005   -1.28991E+005    3.58679E+006   -1.25527E+006    3.22942E+006    3.45780E+006    3.23718E+005   -1.57114E+004    6.20767E+000   -1.97432E+001   -2.26456E+005
            6583    3.33220E+006    3.47757E+006    3.47757E+006    4.67731E+005   -1.03209E+005    3.58078E+006   -1.28070E+006    3.21938E+006    3.47757E+006    4.04402E+005   -3.98801E+004   -1.36510E+000    3.87082E+000   -1.79294E+005
            6584    3.31745E+006    3.48283E+006    3.48283E+006    4.21430E+005   -4.19418E+004    3.52477E+006   -1.28744E+006    3.24344E+006    3.48283E+006    3.95682E+005   -1.61939E+004   -4.81238E+000    8.67704E+000   -1.06150E+005
            6585    3.30969E+006    3.48892E+006    3.48892E+006    4.04059E+005   -7.17985E+003    3.49609E+006   -1.29526E+006    3.25147E+006    3.48892E+006    4.00587E+005   -3.70798E+003   -9.34214E+000   -6.07327E-001   -3.76260E+004
            6586    3.32403E+006    3.45692E+006    3.45692E+006    3.62312E+005   -5.67851E+004    3.51371E+006   -1.25415E+006    3.26380E+006    3.45692E+006    3.13268E+005   -7.74093E+003   -2.44674E+001    1.89015E+001   -1.34718E+005
            6587    3.31696E+006    3.45467E+006    3.45467E+006    3.11064E+005   -1.19898E+004    3.46666E+006   -1.25125E+006    3.28128E+006    3.45467E+006    3.03959E+005   -4.88509E+003   -6.99000E+000   -4.50583E+000   -4.73785E+004
            6588    3.33095E+006    3.43198E+006    3.43198E+006    3.06088E+005   -7.17988E+004    3.50378E+006   -1.22209E+006    3.28220E+006    3.43198E+006    2.30267E+005    4.02248E+003   -4.74794E+000    1.06246E+001   -1.51337E+005
            6589    3.32593E+006    3.41976E+006    3.41976E+006    2.13496E+005   -1.41439E+004    3.43390E+006   -1.20637E+006    3.30833E+006    3.41976E+006    2.00398E+005   -1.04635E+003   -5.51793E+000   -2.82442E-001   -5.30092E+004
            6590    3.33440E+006    3.41181E+006    3.41181E+006    2.44144E+005   -6.74568E+004    3.47927E+006   -1.19617E+006    3.30141E+006    3.41181E+006    1.41161E+005    3.55270E+004   -1.02695E+000    9.99565E+000   -1.46575E+005
            6591    3.33437E+006    3.39105E+006    3.39105E+006    1.25356E+005   -7.99609E+003    3.39904E+006   -1.16947E+006    3.32836E+006    3.39105E+006    1.08592E+005    8.76838E+003   -3.69784E+000   -1.54376E+000   -4.42101E+004
            6592    3.34230E+006    3.36896E+006    3.36896E+006    5.92704E+004   -5.02344E+003    3.37398E+006   -1.14107E+006    3.34091E+006    3.36896E+006    4.45700E+004    9.67699E+003    4.08174E+000    3.99750E+000   -2.70008E+004
            6593    3.34735E+006    3.35617E+006    3.35617E+006    1.77204E+004   -5.60476E+000    3.35618E+006   -1.12463E+006    3.34725E+006    3.35617E+006    9.28612E+003    8.42865E+003    1.50877E-001    1.37534E+000   -8.85261E+003
            6594    3.33532E+006    3.39423E+006    3.39423E+006    1.61160E+005   -3.47078E+004    3.42893E+006   -1.17356E+006    3.32234E+006    3.39423E+006    6.51970E+004    6.12552E+004   -2.35842E+000   -5.60151E-001   -9.79140E+004
            6595    3.34278E+006    3.36774E+006    3.36774E+006    5.61902E+004   -5.41131E+003    3.37315E+006   -1.13951E+006    3.34150E+006    3.36774E+006    1.01293E+004    4.06496E+004    3.39423E+000    6.98124E+000   -2.67547E+004
            6596    3.33117E+006    3.48708E+006    3.48708E+006    4.92509E+005   -1.00911E+005    3.58800E+006   -1.29289E+006    3.20900E+006    3.48708E+006   -5.24301E+004    4.44028E+005   -3.51635E+001   -8.88864E+001   -1.62539E+005
            6597    3.32079E+006    3.49343E+006    3.49343E+006    4.71363E+005   -6.16045E+004    3.55504E+006   -1.30106E+006    3.22245E+006    3.49343E+006   -3.38792E+004    4.43638E+005    1.42701E+001    6.12973E+001   -1.18355E+005
            6598    3.31405E+006    3.49800E+006    3.49800E+006    4.57157E+005   -3.43578E+004    3.53236E+006   -1.30693E+006    3.23052E+006    3.49800E+006   -1.83144E+004    4.41114E+005   -2.42399E+001   -2.58914E+001   -8.73395E+004
            6599    3.30901E+006    3.50412E+006    3.50412E+006    4.54606E+005   -1.43474E+004    3.51847E+006   -1.31479E+006    3.23298E+006    3.50412E+006   -7.94722E+003    4.48205E+005    1.13915E+001    2.70039E+001   -5.44100E+004
            6600    3.30545E+006    3.51264E+006    3.51264E+006    4.67128E+005   -2.50785E+003    3.51515E+006   -1.32575E+006    3.22911E+006    3.51264E+006   -1.74299E+003    4.66363E+005   -6.78376E+000    3.82853E+000   -1.89373E+004
            6601    3.32263E+006    3.50605E+006    3.50605E+006    5.17611E+005   -7.18759E+004    3.57792E+006   -1.31726E+006    3.20180E+006    3.50605E+006   -5.61138E+004    5.01849E+005   -3.59466E+001   -3.21645E+001   -9.50952E+004
            6602    3.31525E+006    3.51119E+006    3.51119E+006    5.04891E+005   -4.43998E+004    3.55559E+006   -1.32389E+006    3.21047E+006    3.51119E+006   -3.53692E+004    4.95861E+005    3.76079E+001    5.32272E+001   -6.98487E+004
            6603    3.31017E+006    3.51669E+006    3.51669E+006    5.01406E+005   -2.52209E+004    3.54192E+006   -1.33096E+006    3.21389E+006    3.51669E+006   -2.00534E+004    4.96239E+005   -5.71962E+001   -1.88159E+001   -5.19100E+004
            6604    3.30590E+006    3.52443E+006    3.52443E+006    5.08157E+005   -9.92715E+003    3.53435E+006   -1.34089E+006    3.21266E+006    3.52443E+006   -7.87046E+003    5.06100E+005    3.67006E+001    1.79230E+001   -3.25777E+004
            6605    3.30320E+006    3.53413E+006    3.53413E+006    5.28139E+005   -2.13454E+003    3.53626E+006   -1.35338E+006    3.20534E+006    3.53413E+006   -1.89225E+003    5.27897E+005   -1.73712E+001    2.93721E+000   -1.13324E+004
            6606    3.31806E+006    3.51666E+006    3.51666E+006    5.32297E+005   -5.63194E+004    3.57297E+006   -1.33088E+006    3.19741E+006    3.51666E+006   -5.47994E+004    5.30777E+005   -4.13627E+001   -3.29395E+001   -2.98734E+004
            6607    3.31257E+006    3.52109E+006    3.52109E+006    5.25054E+005   -3.62922E+004    3.55738E+006   -1.33662E+006    3.20293E+006    3.52109E+006   -3.53547E+004    5.24116E+005    4.74293E+001    7.66412E+000   -2.29215E+004
            6608    3.30804E+006    3.52727E+006    3.52727E+006    5.26200E+005   -1.97984E+004    3.54707E+006   -1.34456E+006    3.20431E+006    3.52727E+006   -1.92683E+004    5.25670E+005   -7.63350E+001   -6.78673E+000   -1.70040E+004
            6609    3.30463E+006    3.53535E+006    3.53535E+006    5.37638E+005   -8.21479E+003    3.54357E+006   -1.35493E+006    3.20084E+006    3.53535E+006   -8.00254E+003    5.37426E+005    5.15322E+001    6.54104E+000   -1.07617E+004
            6610    3.30226E+006    3.54577E+006    3.54577E+006    5.60853E+005   -1.58036E+003    3.54735E+006   -1.36835E+006    3.19182E+006    3.54577E+006   -1.55425E+003    5.60827E+005   -2.29658E+001    7.60316E-001   -3.83205E+003
            6611    3.33141E+006    3.48053E+006    3.48053E+006    4.73710E+005   -1.00755E+005    3.58128E+006   -1.28449E+006    3.21713E+006    3.48053E+006    4.14180E+005   -4.12248E+004    2.32288E+000   -9.92777E+000    1.75084E+005
            6612    3.31626E+006    3.48814E+006    3.48814E+006    4.34153E+005   -3.94690E+004    3.52761E+006   -1.29428E+006    3.23886E+006    3.48814E+006    4.12087E+005   -1.74024E+004    3.38745E+001    1.74392E+001    9.98212E+004
            6613    3.30851E+006    3.49695E+006    3.49695E+006    4.27245E+005   -7.40612E+003    3.50436E+006   -1.30560E+006    3.24335E+006    3.49695E+006    4.24352E+005   -4.51243E+003    7.52851E+000   -4.30859E+000    3.53465E+004
            6614    3.32339E+006    3.50011E+006    3.50011E+006    5.02603E+005   -7.37640E+004    3.57387E+006   -1.30965E+006    3.20804E+006    3.50011E+006    4.78576E+005   -4.97368E+004   -1.92185E+001    1.41529E+001    1.15201E+005
            6615    3.31110E+006    3.51064E+006    3.51064E+006    4.85872E+005   -2.69509E+004    3.53759E+006   -1.32319E+006    3.21993E+006    3.51064E+006    4.77558E+005   -1.86370E+004    7.30842E+000    3.60011E+000    6.47645E+004
            6616    3.30512E+006    3.52291E+006    3.52291E+006    5.00050E+005   -6.08070E+003    3.52899E+006   -1.33896E+006    3.21620E+006    3.52291E+006    4.98973E+005   -5.00383E+003    7.86891E+000   -1.80677E-001    2.33212E+004
            6617    3.31748E+006    3.51496E+006    3.51496E+006    5.25300E+005   -5.40268E+004    3.56899E+006   -1.32875E+006    3.20070E+006    3.51496E+006    5.20165E+005   -4.88911E+004    1.70693E+000    3.20434E+001    5.43035E+004
            6618    3.30858E+006    3.52492E+006    3.52492E+006    5.21034E+005   -2.13397E+004    3.54626E+006   -1.34154E+006    3.20627E+006    3.52492E+006    5.19310E+005   -1.96163E+004    2.78653E+001    1.52442E+000    3.05251E+004
            6619    3.30329E+006    3.53989E+006    3.53989E+006    5.46637E+005   -4.19376E+003    3.54408E+006   -1.36078E+006    3.19751E+006    3.53989E+006    5.46424E+005   -3.98054E+003    2.98849E+000   -2.14862E-001    1.08351E+004
            6620    3.31575E+006    3.51944E+006    3.51944E+006    5.32180E+005   -4.81824E+004    3.56762E+006   -1.33448E+006    3.19847E+006    3.51944E+006    5.32164E+005   -4.81667E+004   -7.68171E+000    4.07184E+001   -3.02143E+003
            6621    3.30767E+006    3.52970E+006    3.52970E+006    5.32366E+005   -1.90081E+004    3.54871E+006   -1.34769E+006    3.20182E+006    3.52970E+006    5.32344E+005   -1.89864E+004   -1.42810E+001   -4.44738E+000   -3.45457E+003
            6622    3.30308E+006    3.54446E+006    3.54446E+006    5.59935E+005   -4.45485E+003    3.54891E+006   -1.36665E+006    3.19188E+006    3.54446E+006    5.59931E+005   -4.45104E+003    1.86072E+000    3.78686E+000   -1.46638E+003
            6623    3.31777E+006    3.51384E+006    3.51384E+006    5.22994E+005   -5.49163E+004    3.56876E+006   -1.32731E+006    3.20158E+006    3.51384E+006    5.16766E+005   -4.86884E+004    6.52329E+000    3.69648E+001   -5.96688E+004
            6624    3.30897E+006    3.52260E+006    3.52260E+006    5.15227E+005   -2.21836E+004    3.54478E+006   -1.33855E+006    3.20857E+006    3.52260E+006    5.12535E+005   -1.94912E+004    9.37938E+000   -6.58622E-001   -3.79428E+004
            6625    3.30348E+006    3.53683E+006    3.53683E+006    5.37790E+005   -4.09880E+003    3.54092E+006   -1.35684E+006    3.20119E+006    3.53683E+006    5.37453E+005   -3.76152E+003   -4.86807E+000    4.50812E-001   -1.35150E+004
            6626    3.32398E+006    3.49818E+006    3.49818E+006    4.98926E+005   -7.56334E+004    3.57381E+006   -1.30716E+006    3.20940E+006    3.49818E+006    4.72370E+005   -4.90774E+004    8.01657E+000    1.86324E+001   -1.20635E+005
            6627    3.31193E+006    3.50631E+006    3.50631E+006    4.75336E+005   -2.87808E+004    3.53509E+006   -1.31762E+006    3.22392E+006    3.50631E+006    4.64921E+005   -1.83658E+004   -3.26230E+001    3.91518E+000   -7.17071E+004
            6628    3.30593E+006    3.51664E+006    3.51664E+006    4.82883E+005   -6.82586E+003    3.52347E+006   -1.33090E+006    3.22281E+006    3.51664E+006    4.81466E+005   -5.40915E+003   -4.84381E+000    5.37939E-001   -2.63015E+004
            6629    3.30553E+006    3.51236E+006    3.51236E+006    4.66587E+005   -2.75553E+003    3.51512E+006   -1.32540E+006    3.22929E+006    3.51236E+006   -1.98716E+003    4.65818E+005   -2.82397E+000   -4.61017E+000    1.89747E+004
            6630    3.30901E+006    3.50410E+006    3.50410E+006    4.54592E+005   -1.43680E+004    3.51847E+006   -1.31478E+006    3.23298E+006    3.50410E+006   -7.92123E+003    4.48145E+005    2.73474E+000   -2.66075E+001    5.46051E+004
            6631    3.31414E+006    3.49799E+006    3.49799E+006    4.57524E+005   -3.47447E+004    3.53274E+006   -1.30692E+006    3.23035E+006    3.49799E+006   -1.86355E+004    4.41415E+005   -1.34899E+001    2.44856E+001    8.75816E+004
            6632    3.32092E+006    3.49347E+006    3.49347E+006    4.72035E+005   -6.21679E+004    3.55564E+006   -1.30111E+006    3.22212E+006    3.49347E+006   -3.43239E+004    4.44191E+005    5.32211E+000   -6.21741E+001    1.18740E+005
            6633    3.33114E+006    3.48720E+006    3.48720E+006    4.92777E+005   -1.00849E+005    3.58804E+006   -1.29304E+006    3.20889E+006    3.48720E+006   -5.25137E+004    4.44441E+005   -2.54450E+001    8.81526E+001    1.62348E+005
            6634    3.30315E+006    3.53419E+006    3.53419E+006    5.28123E+005   -1.92553E+003    3.53612E+006   -1.35346E+006    3.20537E+006    3.53419E+006   -1.68782E+003    5.27885E+005   -1.69489E+001   -3.34222E+000    1.12223E+004
            6635    3.30589E+006    3.52447E+006    3.52447E+006    5.08270E+005   -9.89650E+003    3.53437E+006   -1.34095E+006    3.21261E+006    3.52447E+006   -7.87566E+003    5.06249E+005    3.53485E+001   -1.92765E+001    3.22962E+004
            6636    3.31012E+006    3.51671E+006    3.51671E+006    5.01239E+005   -2.50205E+004    3.54173E+006   -1.33097E+006    3.21398E+006    3.51671E+006   -1.98710E+004    4.96090E+005   -5.43797E+001    1.81000E+001    5.18021E+004
            6637    3.31534E+006    3.51117E+006    3.51117E+006    5.05172E+005   -4.47327E+004    3.55591E+006   -1.32387E+006    3.21032E+006    3.51117E+006   -3.57349E+004    4.96174E+005    3.52857E+001   -5.48254E+001    6.97635E+004
            6638    3.32279E+006    3.50596E+006    3.50596E+006    5.17918E+005   -7.24449E+004    3.57841E+006   -1.31714E+006    3.20160E+006    3.50596E+006   -5.66005E+004    5.02073E+005   -3.14183E+001    3.79756E+001    9.54093E+004
            6639    3.30229E+006    3.54574E+006    3.54574E+006    5.60891E+005   -1.71255E+003    3.54745E+006   -1.36831E+006    3.19179E+006    3.54574E+006   -1.68679E+003    5.60865E+005   -2.45477E+001   -1.75679E+000    3.80649E+003
            6640    3.30457E+006    3.53543E+006    3.53543E+006    5.37629E+005   -7.98776E+003    3.54342E+006   -1.35502E+006    3.20087E+006    3.53543E+006   -7.77438E+003    5.37415E+005    5.51176E+001   -8.18648E+000    1.07878E+004
            6641    3.30804E+006    3.52731E+006    3.52731E+006    5.26285E+005   -1.97898E+004    3.54710E+006   -1.34460E+006    3.20427E+006    3.52731E+006   -1.92617E+004    5.25757E+005   -7.94921E+001    7.41004E+000    1.69747E+004
            6642    3.31248E+006    3.52113E+006    3.52113E+006    5.24825E+005   -3.59314E+004    3.55706E+006   -1.33667E+006    3.20307E+006    3.52113E+006   -3.50070E+004    5.23901E+005    4.98874E+001   -1.10818E+001    2.27489E+004
            6643    3.31794E+006    3.51667E+006    3.51667E+006    5.31907E+005   -5.58841E+004    3.57256E+006   -1.33090E+006    3.19764E+006    3.51667E+006   -5.43459E+004    5.30369E+005   -4.15801E+001    3.42662E+001    3.00298E+004
            6644    3.35137E+006    3.42718E+006    3.42718E+006    3.87185E+005   -1.66589E+005    3.59377E+006   -1.21593E+006    3.24604E+006    3.42718E+006    1.62846E+005    5.77499E+004    3.23555E+001   -2.68315E+001    2.71855E+005
            6645    3.35246E+006    3.43064E+006    3.43064E+006    4.02340E+005   -1.71824E+005    3.60246E+006   -1.22039E+006    3.23906E+006    3.43064E+006    1.02096E+005    1.28420E+005    7.24439E+001   -1.89928E+001    2.86780E+005
            6646    3.35286E+006    3.43734E+006    3.43734E+006    4.24202E+005   -1.74558E+005    3.61190E+006   -1.22900E+006    3.22927E+006    3.43734E+006    4.69906E+004    2.02653E+005    5.31687E+001   -3.79967E+000    2.89086E+005
            6647    3.34859E+006    3.44903E+006    3.44903E+006    4.43294E+005   -1.60301E+005    3.60933E+006   -1.24401E+006    3.22277E+006    3.44903E+006   -1.25743E+003    2.84250E+005    2.82796E+001    4.90430E+001    2.65901E+005
            6648    3.34126E+006    3.46582E+006    3.46582E+006    4.66403E+005   -1.35462E+005    3.60128E+006   -1.26559E+006    3.21589E+006    3.46582E+006   -3.65081E+004    3.67449E+005    5.24483E+000    4.73136E+001    2.23081E+005
            6649    3.32843E+006    3.47186E+006    3.47186E+006    4.34179E+005   -8.60561E+004    3.55792E+006   -1.27333E+006    3.23506E+006    3.47186E+006   -2.66463E+004    3.74769E+005   -1.92271E+001   -6.56389E+001    1.65462E+005
            6650    3.32054E+006    3.47410E+006    3.47410E+006    4.05983E+005   -5.14387E+004    3.52553E+006   -1.27621E+006    3.24852E+006    3.47410E+006   -1.55395E+004    3.70084E+005    1.34278E+001    1.95355E+001    1.23014E+005
            6651    3.31418E+006    3.47786E+006    3.47786E+006    3.87073E+005   -2.17791E+004    3.49964E+006   -1.28105E+006    3.25672E+006    3.47786E+006   -6.51257E+003    3.71806E+005   -1.75865E+001   -2.44232E+001    7.75158E+004
            6652    3.31023E+006    3.48268E+006    3.48268E+006    3.83312E+005   -4.28578E+003    3.48696E+006   -1.28723E+006    3.25859E+006    3.48268E+006   -2.40114E+003    3.81428E+005    4.93805E+000   -5.74959E+000    2.69617E+004
            6653    3.33619E+006    3.45097E+006    3.45097E+006    3.99660E+005   -1.11185E+005    3.56215E+006   -1.24648E+006    3.24645E+006    3.45097E+006   -7.82356E+003    2.96299E+005   -3.66293E+001   -3.88664E+001    2.05227E+005
            6654    3.32723E+006    3.45077E+006    3.45077E+006    3.56464E+005   -6.85437E+004    3.51931E+006   -1.24623E+006    3.26532E+006    3.45077E+006   -4.03185E+003    2.91952E+005    3.21885E+001    1.02416E+001    1.52500E+005
            6655    3.32099E+006    3.44999E+006    3.44999E+006    3.17844E+005   -3.21293E+004    3.48212E+006   -1.24524E+006    3.27912E+006    3.44999E+006   -2.87795E+003    2.88592E+005   -3.04700E+001   -1.83708E+001    9.68583E+004
            6656    3.31726E+006    3.44965E+006    3.44965E+006    2.90587E+005   -5.90691E+003    3.45555E+006   -1.24478E+006    3.28725E+006    3.44965E+006   -1.99495E+003    2.86675E+005    1.00183E+001   -5.38724E+000    3.38315E+004
            6657    3.34059E+006    3.43546E+006    3.43546E+006    3.67813E+005   -1.23617E+005    3.55908E+006   -1.22655E+006    3.25777E+006    3.43546E+006    2.73857E+004    2.16810E+005   -4.93061E+001   -1.76204E+001    2.26728E+005
            6658    3.33282E+006    3.43068E+006    3.43068E+006    3.11744E+005   -8.11833E+004    3.51186E+006   -1.22041E+006    3.28010E+006    3.43068E+006    1.45845E+004    2.15977E+005    3.47649E+001   -8.17606E-001    1.68696E+005
            6659    3.32742E+006    3.42549E+006    3.42549E+006    2.55183E+005   -3.94454E+004    3.46493E+006   -1.21374E+006    3.29788E+006    3.42549E+006    6.27515E+003    2.09462E+005   -2.77788E+001   -9.12833E+000    1.06678E+005
            6660    3.32589E+006    3.41759E+006    3.41759E+006    2.00235E+005   -7.13538E+003    3.42472E+006   -1.20356E+006    3.31130E+006    3.41759E+006   -3.80150E+002    1.93480E+005    6.78627E+000   -4.00779E+000    3.68131E+004
            6661    3.34274E+006    3.42426E+006    3.42426E+006    3.39759E+005   -1.27554E+005    3.55181E+006   -1.21215E+006    3.26804E+006    3.42426E+006    6.99819E+004    1.42223E+005   -4.81602E+001    7.55617E+000    2.30848E+005
            6662    3.33481E+006    3.41696E+006    3.41696E+006    2.68985E+005   -7.76107E+004    3.49457E+006   -1.20278E+006    3.29392E+006    3.41696E+006    4.48680E+004    1.46506E+005    3.83257E+001   -1.06751E+001    1.65679E+005
            6663    3.33254E+006    3.40541E+006    3.40541E+006    1.97655E+005   -3.92595E+004    3.44467E+006   -1.18794E+006    3.31351E+006    3.40541E+006    1.80710E+004    1.40324E+005   -2.90226E+001    2.46214E+000    1.01467E+005
            6664    3.33454E+006    3.39045E+006    3.39045E+006    1.22689E+005   -7.07788E+003    3.39753E+006   -1.16869E+006    3.32886E+006    3.39045E+006    2.60980E+003    1.13001E+005    6.88686E+000   -3.54529E+000    3.41070E+004
            6665    3.33937E+006    3.42106E+006    3.42106E+006    3.11451E+005   -1.08371E+005    3.52943E+006   -1.20805E+006    3.27921E+006    3.42106E+006    1.31401E+005    7.16795E+004   -1.98912E+001    1.57965E+001    2.07776E+005
            6666    3.33460E+006    3.40589E+006    3.40589E+006    2.18014E+005   -5.82420E+004    3.46413E+006   -1.18855E+006    3.30871E+006    3.40589E+006    7.25932E+004    8.71791E+004    2.05747E+001   -1.46479E+001    1.37935E+005
            6667    3.33600E+006    3.39025E+006    3.39025E+006    1.42895E+005   -2.78349E+004    3.41808E+006   -1.16844E+006    3.32615E+006    3.39025E+006    3.01362E+004    8.49243E+004   -1.86442E+001    1.10779E+001    8.08503E+004
            6668    3.34191E+006    3.37010E+006    3.37010E+006    6.36252E+004   -6.14560E+003    3.37625E+006   -1.14253E+006    3.34027E+006    3.37010E+006    5.29325E+003    5.21863E+004    3.95259E+000   -2.97060E+000    2.58312E+004
            6669    3.34632E+006    3.35870E+006    3.35870E+006    2.58545E+004   -9.34073E+002    3.35964E+006   -1.12787E+006    3.34608E+006    3.35870E+006    8.39538E+003    1.65251E+004   -2.57152E+000    3.35270E+000    1.27626E+004
            6670    3.34926E+006    3.35169E+006    3.35169E+006    4.86670E+003    1.51875E+001    3.35168E+006   -1.11886E+006    3.34925E+006    3.35169E+006    2.56767E+003    2.31421E+003   -1.13875E+000    5.62284E-001    2.42244E+003
            6671    3.33947E+006    3.37693E+006    3.37693E+006    8.66267E+004   -9.61699E+003    3.38655E+006   -1.15131E+006    3.33635E+006    3.37693E+006    3.67004E+004    4.03094E+004   -7.49765E-001    1.42083E-001    4.80880E+004
            6672    3.34552E+006    3.36065E+006    3.36065E+006    3.11797E+004   -6.94313E+002    3.36134E+006   -1.13038E+006    3.34518E+006    3.36065E+006    2.04792E+004    1.00062E+004   -4.62358E+000    2.29406E+000    1.50522E+004
            6673    3.33528E+006    3.39424E+006    3.39424E+006    1.60700E+005   -3.42190E+004    3.42846E+006   -1.17357E+006    3.32243E+006    3.39424E+006    8.52026E+004    4.12780E+004   -2.04170E+000    5.18710E+000    9.49525E+004
            6674    3.33893E+006    3.37795E+006    3.37795E+006    8.58626E+004   -5.92097E+003    3.38388E+006   -1.15263E+006    3.33609E+006    3.37795E+006    6.97655E+004    1.01761E+004   -7.28124E-001   -1.12713E+000    3.49046E+004
            6675    3.33290E+006    3.41652E+006    3.41652E+006    2.54394E+005   -6.42715E+004    3.48079E+006   -1.20221E+006    3.29837E+006    3.41652E+006    1.64055E+005    2.60677E+004    1.41117E+000   -3.03982E+000    1.43620E+005
            6676    3.33069E+006    3.40271E+006    3.40271E+006    1.61146E+005   -1.04654E+004    3.41318E+006   -1.18446E+006    3.32072E+006    3.40271E+006    1.46105E+005    4.57568E+003    1.79960E+000    3.56800E+000    4.85281E+004
            6677    3.32257E+006    3.43106E+006    3.43106E+006    2.43165E+005   -1.15305E+004    3.44259E+006   -1.22090E+006    3.30050E+006    3.43106E+006    2.31796E+005   -1.61504E+002    7.48514E+000   -4.17152E+000    5.25963E+004
            6678    3.31508E+006    3.46383E+006    3.46383E+006    3.37564E+005   -1.23117E+004    3.47615E+006   -1.26303E+006    3.27316E+006    3.46383E+006    3.31112E+005   -5.85958E+003    8.53738E+000   -3.86823E+000    4.70725E+004
            6679    3.32980E+006    3.43841E+006    3.43841E+006    3.24477E+005   -7.18018E+004    3.51021E+006   -1.23036E+006    3.27612E+006    3.43841E+006    2.48392E+005    4.28320E+003    1.42590E+001    1.81818E+001    1.56083E+005
            6680    3.32292E+006    3.46297E+006    3.46297E+006    3.78529E+005   -5.57287E+004    3.51870E+006   -1.26192E+006    3.25816E+006    3.46297E+006    3.34469E+005   -1.16689E+004    8.39844E+000    1.56810E+001    1.31118E+005
            6681    3.33885E+006    3.46027E+006    3.46027E+006    4.40314E+005   -1.25232E+005    3.58550E+006   -1.25845E+006    3.22844E+006    3.46027E+006    3.32365E+005   -1.72833E+004   -5.80367E+000   -2.40373E+001    2.22255E+005
            6682    3.34569E+006    3.44000E+006    3.44000E+006    4.04414E+005   -1.47216E+005    3.58722E+006   -1.23240E+006    3.24100E+006    3.44000E+006    2.41175E+005    1.60228E+004    9.39152E+000   -2.26442E+001    2.51794E+005
            6683    3.34815E+006    3.42203E+006    3.42203E+006    3.56984E+005   -1.51138E+005    3.57316E+006   -1.20929E+006    3.25971E+006    3.42203E+006    7.96599E+004    1.26186E+005    6.84957E+000    7.05570E+000    2.52994E+005
            6684    3.34501E+006    3.43778E+006    3.43778E+006    3.94582E+005   -1.43736E+005    3.58152E+006   -1.22954E+006    3.24540E+006    3.43778E+006    3.84736E+004    2.12372E+005    1.32719E+001   -4.96709E+000    2.54728E+005
            6685    3.34249E+006    3.45246E+006    3.45246E+006    4.30496E+005   -1.37723E+005    3.59018E+006   -1.24841E+006    3.23114E+006    3.45246E+006   -4.20836E+003    2.96981E+005    2.25602E+001    1.63174E+001    2.40914E+005
            6686    3.33589E+006    3.46991E+006    3.46991E+006    4.58422E+005   -1.15829E+005    3.58574E+006   -1.27083E+006    3.22186E+006    3.46991E+006   -3.37221E+004    3.76315E+005    1.71355E+001    7.77109E+000    2.01019E+005
            6687    3.31926E+006    3.47646E+006    3.47646E+006    4.08117E+005   -4.68055E+004    3.52326E+006   -1.27926E+006    3.24802E+006    3.47646E+006   -1.54484E+004    3.76759E+005   -1.04849E+001    9.90265E+000    1.15247E+005
            6688    3.31103E+006    3.48165E+006    3.48165E+006    3.84174E+005   -7.99821E+003    3.48965E+006   -1.28594E+006    3.25817E+006    3.48165E+006   -3.78478E+003    3.79960E+005    3.47826E+000    7.13714E+000    4.04307E+004
            6689    3.32570E+006    3.45181E+006    3.45181E+006    3.52317E+005   -6.13898E+004    3.51320E+006   -1.24758E+006    3.26706E+006    3.45181E+006   -5.78143E+003    2.96709E+005   -1.86174E+001   -1.05902E+001    1.41114E+005
            6690    3.31870E+006    3.44766E+006    3.44766E+006    2.92463E+005   -1.33774E+004    3.46104E+006   -1.24225E+006    3.28677E+006    3.44766E+006   -5.03675E+003    2.84122E+005    7.02829E+000    5.50559E+000    4.98129E+004
            6691    3.33188E+006    3.42896E+006    3.42896E+006    2.99633E+005   -7.39745E+004    3.50293E+006   -1.21821E+006    3.28426E+006    3.42896E+006    8.35620E+003    2.17303E+005   -9.05091E+000    4.87671E+000    1.54858E+005
            6692    3.32728E+006    3.41500E+006    3.41500E+006    2.00059E+005   -1.42653E+004    3.42926E+006   -1.20026E+006    3.31170E+006    3.41500E+006    2.18860E+002    1.85575E+005    2.47266E+000    3.09958E+000    5.38008E+004
            6693    3.33456E+006    3.41086E+006    3.41086E+006    2.40949E+005   -6.69990E+004    3.47786E+006   -1.19494E+006    3.30235E+006    3.41086E+006    4.12871E+004    1.32663E+005   -6.32608E+000    1.49284E+000    1.47040E+005
            6694    3.33532E+006    3.38832E+006    3.38832E+006    1.17785E+005   -8.21360E+003    3.39653E+006   -1.16596E+006    3.32996E+006    3.38832E+006    9.54858E+003    1.00023E+005    2.82056E+000   -2.90511E+000    4.38465E+004
            6695    3.34269E+006    3.36796E+006    3.36796E+006    5.66633E+004   -5.27622E+003    3.37323E+006   -1.13978E+006    3.34140E+006    3.36796E+006    1.02109E+004    4.11761E+004   -1.73520E+000    1.29956E+000    2.68219E+004
            6696    3.34735E+006    3.35618E+006    3.35618E+006    1.77338E+004   -3.03558E+000    3.35618E+006   -1.12464E+006    3.34724E+006    3.35618E+006    9.12314E+003    8.60766E+003    1.38608E+000   -1.94253E+000    8.86469E+003
            6697    3.33535E+006    3.39416E+006    3.39416E+006    1.60995E+005   -3.47416E+004    3.42890E+006   -1.17347E+006    3.32239E+006    3.39416E+006    6.50831E+004    6.11699E+004    3.27507E+000   -4.10866E+000    9.78485E+004
            6698    3.34239E+006    3.36875E+006    3.36875E+006    5.88285E+004   -5.17461E+003    3.37393E+006   -1.14080E+006    3.34101E+006    3.36875E+006    4.40556E+004    9.59828E+003   -1.95347E+000    1.36485E+000    2.69680E+004
            6699    3.33455E+006    3.39056E+006    3.39056E+006    1.24015E+005   -8.05608E+003    3.39862E+006   -1.16884E+006    3.32865E+006    3.39056E+006    1.07253E+005    8.70557E+003    1.38013E+000   -2.70009E+000    4.39633E+004
            6700    3.32612E+006    3.41905E+006    3.41905E+006    2.11461E+005   -1.41264E+004    3.43318E+006   -1.20546E+006    3.30885E+006    3.41905E+006    1.98338E+005   -1.00355E+003   -2.57140E+000   -2.09834E+000    5.28028E+004
            6701    3.31701E+006    3.45439E+006    3.45439E+006    3.10293E+005   -1.20061E+004    3.46640E+006   -1.25089E+006    3.28151E+006    3.45439E+006    3.03294E+005   -5.00700E+003   -5.57858E+000   -6.21382E+000    4.69768E+004
            6702    3.30952E+006    3.48943E+006    3.48943E+006    4.05050E+005   -6.70042E+003    3.49613E+006   -1.29593E+006    3.25114E+006    3.48943E+006    4.01667E+005   -3.31790E+003   -4.81941E+000   -2.64954E+000    3.71660E+004
            6703    3.33443E+006    3.41177E+006    3.41177E+006    2.44038E+005   -6.75072E+004    3.47927E+006   -1.19610E+006    3.30145E+006    3.41177E+006    1.41201E+005    3.53303E+004   -2.13414E+000    4.44715E+000    1.46503E+005
            6704    3.33097E+006    3.43196E+006    3.43196E+006    3.06055E+005   -7.18389E+004    3.50380E+006   -1.22206E+006    3.28223E+006    3.43196E+006    2.30732E+005    3.48362E+003   -4.32435E+000    6.30382E+000    1.50965E+005
            6705    3.32396E+006    3.45708E+006    3.45708E+006    3.62417E+005   -5.64809E+004    3.51356E+006   -1.25434E+006    3.26379E+006    3.45708E+006    3.13775E+005   -7.83856E+003    9.43931E+000    1.40374E+001    1.34202E+005
            6706    3.31732E+006    3.48285E+006    3.48285E+006    4.20922E+005   -4.13641E+004    3.52421E+006   -1.28747E+006    3.24366E+006    3.48285E+006    3.95289E+005   -1.57317E+004   -7.82478E+000    3.22777E+000    1.05795E+005
            6707    3.33225E+006    3.47772E+006    3.47772E+006    4.68240E+005   -1.03349E+005    3.58107E+006   -1.28087E+006    3.21917E+006    3.47772E+006    4.04856E+005   -3.99651E+004   -9.06432E+000   -5.09497E+000    1.79477E+005
            6708    3.34002E+006    3.45776E+006    3.45776E+006    4.37130E+005   -1.29233E+005    3.58699E+006   -1.25522E+006    3.22932E+006    3.45776E+006    3.23312E+005   -1.54159E+004   -1.14525E+001   -2.24723E+001    2.26953E+005
            6709    3.34398E+006    3.44038E+006    3.44038E+006    3.98547E+005   -1.40308E+005    3.58068E+006   -1.23287E+006    3.24414E+006    3.44038E+006    2.34722E+005    2.35165E+004    1.35098E+000   -9.58354E+000    2.47869E+005
            6710    3.34817E+006    3.42242E+006    3.42242E+006    3.58362E+005   -1.51393E+005    3.57381E+006   -1.20980E+006    3.25915E+006    3.42242E+006    1.43732E+005    6.32360E+004   -5.35049E+000   -8.70559E+000    2.51680E+005
            6711    3.30674E+006    3.51024E+006    3.51024E+006    4.65083E+005   -7.28404E+003    3.51752E+006   -1.32268E+006    3.22952E+006    3.51024E+006   -5.41964E+003    4.63218E+005    5.83194E+000    9.23490E+000    2.96177E+004
            6712    3.31339E+006    3.49997E+006    3.49997E+006    4.60839E+005   -3.23710E+004    3.53234E+006   -1.30948E+006    3.22925E+006    3.49997E+006   -1.85290E+004    4.46997E+005   -1.06080E+001   -2.75749E+001    8.14582E+004
            6713    3.32781E+006    3.48988E+006    3.48988E+006    4.88419E+005   -8.87656E+004    3.57865E+006   -1.29651E+006    3.21229E+006    3.48988E+006   -4.83400E+004    4.47994E+005    1.40179E+001    1.98377E+001    1.47305E+005
            6714    3.30398E+006    3.53198E+006    3.53198E+006    5.24582E+005   -4.68567E+003    3.53667E+006   -1.35063E+006    3.20652E+006    3.53198E+006   -4.11894E+003    5.24015E+005    7.13815E+000    4.36745E+000    1.73099E+004
            6715    3.30965E+006    3.51822E+006    3.51822E+006    5.04221E+005   -2.36413E+004    3.54186E+006   -1.33293E+006    3.21290E+006    3.51822E+006   -1.91098E+004    4.99690E+005   -8.73853E+000    1.56998E+001    4.86978E+004
            6716    3.32029E+006    3.50789E+006    3.50789E+006    5.14544E+005   -6.34453E+004    3.57134E+006   -1.31966E+006    3.20416E+006    3.50789E+006   -5.02762E+004    5.01375E+005    1.00115E+001    1.68547E+001    8.62450E+004
            6717    3.30308E+006    3.54320E+006    3.54320E+006    5.56147E+005   -4.21299E+003    3.54741E+006   -1.36504E+006    3.19350E+006    3.54320E+006   -4.15250E+003    5.56086E+005    9.16063E+000    3.56064E+000    5.82191E+003
            6718    3.30788E+006    3.52836E+006    3.52836E+006    5.29019E+005   -1.94926E+004    3.54785E+006   -1.34596E+006    3.20316E+006    3.52836E+006   -1.90542E+004    5.28581E+005   -9.91407E+000   -2.66286E+001    1.55018E+004
            6719    3.31626E+006    3.51815E+006    3.51815E+006    5.30416E+005   -5.00101E+004    3.56816E+006   -1.33285E+006    3.19898E+006    3.51815E+006   -4.85863E+004    5.28992E+005    8.07723E+000    2.01550E+000    2.87119E+004
            6720    3.30861E+006    3.49630E+006    3.49630E+006    4.25508E+005   -7.48779E+003    3.50379E+006   -1.30477E+006    3.24395E+006    3.49630E+006    4.22558E+005   -4.53830E+003    8.29694E+000   -4.02231E+000   -3.56149E+004
            6721    3.31642E+006    3.48777E+006    3.48777E+006    4.33632E+005   -3.99983E+004    3.52777E+006   -1.29380E+006    3.23901E+006    3.48777E+006    4.11220E+005   -1.75869E+004   -1.78802E+001    1.07297E+001   -1.00561E+005
            6722    3.33128E+006    3.48065E+006    3.48065E+006    4.73548E+005   -1.00259E+005    3.58091E+006   -1.28465E+006    3.21727E+006    3.48065E+006    4.14284E+005   -4.09942E+004    6.56089E+000   -1.10489E+001   -1.74626E+005
            6723    3.30515E+006    3.52245E+006    3.52245E+006    4.98775E+005   -6.09079E+003    3.52854E+006   -1.33838E+006    3.21668E+006    3.52245E+006    4.97671E+005   -4.98742E+003    5.72423E+000   -1.83523E+000   -2.35762E+004
            6724    3.31112E+006    3.51052E+006    3.51052E+006    4.85646E+005   -2.70306E+004    3.53755E+006   -1.32305E+006    3.22000E+006    3.51052E+006    4.77290E+005   -1.86741E+004    6.07682E+000   -2.08424E+000   -6.49182E+004
            6725    3.32338E+006    3.50006E+006    3.50006E+006    5.02516E+005   -7.37807E+004    3.57384E+006   -1.30960E+006    3.20806E+006    3.50006E+006    4.78436E+005   -4.97008E+004    2.84843E+001    2.08577E+000   -1.15314E+005
            6726    3.30329E+006    3.53971E+006    3.53971E+006    5.46183E+005   -4.19726E+003    3.54391E+006   -1.36057E+006    3.19768E+006    3.53971E+006    5.45962E+005   -3.97586E+003    6.12468E+000   -4.01932E+000   -1.10364E+004
            6727    3.30853E+006    3.52494E+006    3.52494E+006    5.20948E+005   -2.11725E+004    3.54611E+006   -1.34157E+006    3.20631E+006    3.52494E+006    5.19214E+005   -1.94390E+004   -2.09391E+001   -2.13035E+000   -3.06067E+004
            6728    3.31740E+006    3.51497E+006    3.51497E+006    5.25078E+005   -5.37580E+004    3.56873E+006   -1.32876E+006    3.20082E+006    3.51497E+006    5.19836E+005   -4.85168E+004    2.46000E+000    1.10438E+001   -5.48304E+004
            6729    3.30307E+006    3.54448E+006    3.54448E+006    5.60082E+005   -4.50061E+003    3.54898E+006   -1.36669E+006    3.19180E+006    3.54448E+006    5.60079E+005   -4.49722E+003    5.21519E-001   -1.20366E+000    1.38307E+003
            6730    3.30770E+006    3.52973E+006    3.52973E+006    5.32613E+005   -1.91622E+004    3.54889E+006   -1.34773E+006    3.20169E+006    3.52973E+006    5.32593E+005   -1.91422E+004    1.45240E+001   -8.93936E+000    3.32191E+003
            6731    3.31578E+006    3.51941E+006    3.51941E+006    5.32403E+005   -4.83978E+004    3.56781E+006   -1.33447E+006    3.19832E+006    3.51941E+006    5.32395E+005   -4.83895E+004    1.30346E+001    1.91647E+001    2.19739E+003
            6732    3.30345E+006    3.53709E+006    3.53709E+006    5.38572E+005   -4.08049E+003    3.54117E+006   -1.35719E+006    3.20086E+006    3.53709E+006    5.38238E+005   -3.74616E+003   -2.97039E-001   -3.61516E+000    1.34653E+004
            6733    3.30892E+006    3.52274E+006    3.52274E+006    5.15576E+005   -2.20871E+004    3.54483E+006   -1.33874E+006    3.20843E+006    3.52274E+006    5.12890E+005   -1.94019E+004   -1.53688E+001   -5.56313E+000    3.79011E+004
            6734    3.31765E+006    3.51396E+006    3.51396E+006    5.22932E+005   -5.44982E+004    3.56846E+006   -1.32747E+006    3.20166E+006    3.51396E+006    5.16943E+005   -4.85088E+004   -9.06943E+000    1.53052E+001    5.85029E+004
            6735    3.30585E+006    3.51714E+006    3.51714E+006    4.84242E+005   -6.74761E+003    3.52389E+006   -1.33154E+006    3.22229E+006    3.51714E+006    4.82846E+005   -5.35107E+003   -5.34084E+000   -3.15620E+000    2.61483E+004
            6736    3.31185E+006    3.50634E+006    3.50634E+006    4.75058E+005   -2.84240E+004    3.53476E+006   -1.31766E+006    3.22406E+006    3.50634E+006    4.64708E+005   -1.80742E+004    1.91706E+001   -1.25471E+000    7.14409E+004
            6737    3.32388E+006    3.49837E+006    3.49837E+006    4.99266E+005   -7.53516E+004    3.57373E+006   -1.30743E+006    3.20927E+006    3.49837E+006    4.72989E+005   -4.90746E+004   -8.64891E+000    3.93322E+000    1.20037E+005
            6738    3.32786E+006    3.48984E+006    3.48984E+006    4.88489E+005   -8.89490E+004    3.57879E+006   -1.29646E+006    3.21223E+006    3.48984E+006   -4.85929E+004    4.48133E+005    1.44076E+001   -1.80199E+001   -1.47223E+005
            6739    3.31328E+006    3.50020E+006    3.50020E+006    4.61084E+005   -3.19776E+004    3.53218E+006   -1.30977E+006    3.22919E+006    3.50020E+006   -1.83262E+004    4.47433E+005   -1.10430E+001    2.81962E+001   -8.08987E+004
            6740    3.30672E+006    3.51057E+006    3.51057E+006    4.66091E+005   -7.34896E+003    3.51792E+006   -1.32310E+006    3.22914E+006    3.51057E+006   -5.51073E+003    4.64253E+005    6.73494E+000   -8.69382E+000   -2.94434E+004
            6741    3.32024E+006    3.50801E+006    3.50801E+006    5.14694E+005   -6.32793E+004    3.57128E+006   -1.31981E+006    3.20412E+006    3.50801E+006   -5.02692E+004    5.01684E+005    8.72684E+000   -1.45335E+001   -8.57334E+004
            6742    3.30964E+006    3.51819E+006    3.51819E+006    5.04039E+005   -2.35522E+004    3.54174E+006   -1.33289E+006    3.21298E+006    3.51819E+006   -1.90127E+004    4.99500E+005   -9.81448E+000   -1.79336E+001   -4.87277E+004
            6743    3.30394E+006    3.53215E+006    3.53215E+006    5.24955E+005   -4.56928E+003    3.53672E+006   -1.35085E+006    3.20638E+006    3.53215E+006   -4.00990E+003    5.24395E+005    8.43701E+000   -3.43122E+000   -1.72015E+004
            6744    3.31620E+006    3.51824E+006    3.51824E+006    5.30432E+005   -4.97777E+004    3.56802E+006   -1.33296E+006    3.19900E+006    3.51824E+006   -4.84230E+004    5.29077E+005    7.10734E+000    1.70465E+000   -2.80039E+004
            6745    3.30784E+006    3.52836E+006    3.52836E+006    5.28850E+005   -1.93352E+004    3.54769E+006   -1.34596E+006    3.20325E+006    3.52836E+006   -1.88670E+004    5.28382E+005   -9.66621E+000    2.48348E+001   -1.60129E+004
            6746    3.30309E+006    3.54319E+006    3.54319E+006    5.56165E+005   -4.24790E+003    3.54744E+006   -1.36504E+006    3.19349E+006    3.54319E+006   -4.18625E+003    5.56103E+005    9.43048E+000   -2.48069E+000   -5.87735E+003
            6747    3.34203E+006    3.36974E+006    3.36974E+006    6.20571E+004   -5.59526E+003    3.37534E+006   -1.14207E+006    3.34049E+006    3.36974E+006    5.75194E+003    5.07099E+004   -4.16348E+000   -3.66596E+000   -2.52766E+004
            6748    3.33486E+006    3.38954E+006    3.38954E+006    1.20359E+005   -7.34290E+003    3.39688E+006   -1.16752E+006    3.32936E+006    3.38954E+006    2.38020E+003    1.10636E+005   -7.87655E+000   -1.47881E+000   -3.38691E+004
            6749    3.32604E+006    3.41697E+006    3.41697E+006    1.98392E+005   -7.00297E+003    3.42398E+006   -1.20279E+006    3.31172E+006    3.41697E+006   -4.04574E+002    1.91794E+005   -8.30752E+000    3.78460E+000   -3.62180E+004
            6750    3.31719E+006    3.44967E+006    3.44967E+006    2.90287E+005   -5.50879E+003    3.45518E+006   -1.24482E+006    3.28732E+006    3.44967E+006   -1.66936E+003    2.86447E+005   -1.09461E+001    7.01921E+000   -3.34806E+004
            6751    3.31023E+006    3.48267E+006    3.48267E+006    3.83403E+005   -4.36762E+003    3.48704E+006   -1.28724E+006    3.25855E+006    3.48267E+006   -2.50645E+003    3.81541E+005   -4.60385E+000    9.56932E+000   -2.68001E+004
            6752    3.33601E+006    3.39022E+006    3.39022E+006    1.42782E+005   -2.78284E+004    3.41804E+006   -1.16839E+006    3.32618E+006    3.39022E+006    3.03708E+004    8.45833E+004    1.13322E+001    8.39379E+000   -8.08843E+004
            6753    3.33263E+006    3.40500E+006    3.40500E+006    1.96046E+005   -3.88617E+004    3.44386E+006   -1.18740E+006    3.31392E+006    3.40500E+006    1.74971E+004    1.39687E+005    2.30466E+001    3.75219E+000   -1.00314E+005
            6754    3.32743E+006    3.42521E+006    3.42521E+006    2.53816E+005   -3.89154E+004    3.46412E+006   -1.21337E+006    3.29827E+006    3.42521E+006    6.37755E+003    2.08523E+005    2.38558E+001   -2.77141E+000   -1.05864E+005
            6755    3.32098E+006    3.44998E+006    3.44998E+006    3.17585E+005   -3.19423E+004    3.48192E+006   -1.24521E+006    3.27922E+006    3.44998E+006   -3.12720E+003    2.88770E+005    2.55234E+001   -8.96741E+000   -9.61318E+004
            6756    3.31405E+006    3.47804E+006    3.47804E+006    3.86991E+005   -2.12069E+004    3.49924E+006   -1.28127E+006    3.25677E+006    3.47804E+006   -6.20970E+003    3.71994E+005    8.96467E+000   -1.34345E+001   -7.67915E+004
            6757    3.33463E+006    3.40603E+006    3.40603E+006    2.18865E+005   -5.87230E+004    3.46475E+006   -1.18872E+006    3.30849E+006    3.40603E+006    7.32812E+004    8.68604E+004   -2.02760E+001   -1.30523E+001   -1.38628E+005
            6758    3.33476E+006    3.41695E+006    3.41695E+006    2.68581E+005   -7.72554E+004    3.49420E+006   -1.20276E+006    3.29405E+006    3.41695E+006    4.44931E+004    1.46833E+005   -3.87660E+001   -3.66507E+000   -1.65174E+005
            6759    3.33266E+006    3.43098E+006    3.43098E+006    3.11913E+005   -8.05163E+004    3.51150E+006   -1.22079E+006    3.28007E+006    3.43098E+006    1.38215E+004    2.17575E+005   -3.88937E+001    8.74438E+000   -1.67694E+005
            6760    3.32709E+006    3.45103E+006    3.45103E+006    3.56668E+005   -6.80157E+004    3.51904E+006   -1.24656E+006    3.26528E+006    3.45103E+006   -4.28005E+003    2.92932E+005   -3.46740E+001    2.43114E+001   -1.51675E+005
            6761    3.32038E+006    3.47428E+006    3.47428E+006    4.05835E+005   -5.07805E+004    3.52506E+006   -1.27644E+006    3.24862E+006    3.47428E+006   -1.53823E+004    3.70436E+005   -1.27846E+001    3.50086E+001   -1.22108E+005
            6762    3.33932E+006    3.42109E+006    3.42109E+006    3.11346E+005   -1.08160E+005    3.52925E+006   -1.20809E+006    3.27925E+006    3.42109E+006    1.31254E+005    7.19323E+004    2.21453E+001    1.48381E+001   -2.07645E+005
            6763    3.34270E+006    3.42442E+006    3.42442E+006    3.40165E+005   -1.27467E+005    3.55189E+006   -1.21237E+006    3.26789E+006    3.42442E+006    6.93725E+004    1.43325E+005    4.89151E+001    1.08734E+001   -2.30874E+005
            6764    3.34042E+006    3.43584E+006    3.43584E+006    3.68371E+005   -1.23071E+005    3.55891E+006   -1.22705E+006    3.25759E+006    3.43584E+006    2.62131E+004    2.19086E+005    4.80872E+001   -1.02079E+001   -2.26006E+005
            6765    3.33607E+006    3.45135E+006    3.45135E+006    4.00403E+005   -1.10831E+005    3.56218E+006   -1.24697E+006    3.24618E+006    3.45135E+006   -8.36084E+003    2.97933E+005    3.15264E+001   -2.81819E+001   -2.04661E+005
            6766    3.32834E+006    3.47197E+006    3.47197E+006    4.34223E+005   -8.57536E+004    3.55772E+006   -1.27348E+006    3.23506E+006    3.47197E+006   -2.66684E+004    3.75138E+005    6.72012E+000   -5.52622E+001   -1.65021E+005
            6767    3.34144E+006    3.46565E+006    3.46565E+006    4.66472E+005   -1.36066E+005    3.60171E+006   -1.26535E+006    3.21579E+006    3.46565E+006   -3.63702E+004    3.66777E+005   -6.13133E+000    5.36509E+001   -2.23900E+005
            6768    3.34866E+006    3.44902E+006    3.44902E+006    4.43454E+005   -1.60523E+005    3.60955E+006   -1.24399E+006    3.22268E+006    3.44902E+006   -5.39808E+002    2.83471E+005   -2.61089E+001    6.22039E+001   -2.66517E+005
            6769    3.35291E+006    3.43735E+006    3.43735E+006    4.24201E+005   -1.74625E+005    3.61197E+006   -1.22897E+006    3.22929E+006    3.43735E+006    4.76699E+004    2.01906E+005   -5.06454E+001    5.36546E+000   -2.89311E+005
            6770    3.35247E+006    3.43078E+006    3.43078E+006    4.02545E+005   -1.71729E+005    3.60251E+006   -1.22053E+006    3.23902E+006    3.43078E+006    1.02432E+005    1.28384E+005   -6.95745E+001   -7.48394E+000   -2.86844E+005
            6771    3.35139E+006    3.42728E+006    3.42728E+006    3.87434E+005   -1.66608E+005    3.59388E+006   -1.21603E+006    3.24595E+006    3.42728E+006    1.63216E+005    5.76101E+004   -2.34923E+001   -2.06332E+001   -2.71942E+005
            6772    3.34565E+006    3.44003E+006    3.44003E+006    4.04331E+005   -1.47054E+005    3.58709E+006   -1.23244E+006    3.24105E+006    3.44003E+006    2.41801E+005    1.54758E+004    1.01485E-001   -1.41331E+001   -2.51397E+005
            6773    3.33876E+006    3.46030E+006    3.46030E+006    4.40079E+005   -1.24905E+005    3.58521E+006   -1.25849E+006    3.22857E+006    3.46030E+006    3.32878E+005   -1.77030E+004    1.47791E+001   -1.87521E+001   -2.21529E+005
            6774    3.32304E+006    3.46262E+006    3.46262E+006    3.77896E+005   -5.61019E+004    3.51872E+006   -1.26147E+006    3.25837E+006    3.46262E+006    3.33202E+005   -1.14080E+004    7.18262E+000    8.54149E+000   -1.31907E+005
            6775    3.31519E+006    3.46317E+006    3.46317E+006    3.35641E+005   -1.22541E+004    3.47542E+006   -1.26218E+006    3.27375E+006    3.46317E+006    3.29109E+005   -5.72236E+003    5.26561E+000   -3.11959E+000   -4.72197E+004
            6776    3.32991E+006    3.43816E+006    3.43816E+006    3.24033E+005   -7.20835E+004    3.51025E+006   -1.23004E+006    3.27627E+006    3.43816E+006    2.47633E+005    4.31671E+003   -3.34231E+000    1.35948E+001   -1.56290E+005
            6777    3.32266E+006    3.43069E+006    3.43069E+006    2.42247E+005   -1.16272E+004    3.44232E+006   -1.22044E+006    3.30074E+006    3.43069E+006    2.30825E+005   -2.05594E+002    1.58851E+000   -4.48007E+000   -5.26232E+004
            6778    3.33074E+006    3.40262E+006    3.40262E+006    1.61173E+005   -1.07578E+004    3.41338E+006   -1.18434E+006    3.32073E+006    3.40262E+006    1.46014E+005    4.40103E+003    1.59525E+000    1.91654E+000   -4.87492E+004
            6779    3.33889E+006    3.37802E+006    3.37802E+006    8.56749E+004   -5.54715E+003    3.38356E+006   -1.15272E+006    3.33608E+006    3.37802E+006    6.95234E+004    1.06043E+004   -1.91352E+000   -2.07270E+000   -3.48210E+004
            6780    3.34558E+006    3.36049E+006    3.36049E+006    3.07539E+004   -7.15697E+002    3.36121E+006   -1.13018E+006    3.34525E+006    3.36049E+006    2.04210E+004    9.61726E+003    2.60023E-001    8.46134E-001   -1.47785E+004
            6781    3.34925E+006    3.35170E+006    3.35170E+006    4.89610E+003    1.41072E+001    3.35168E+006   -1.11887E+006    3.34924E+006    3.35170E+006    2.59758E+003    2.31263E+003   -1.12789E+000   -8.01082E-001   -2.43683E+003
            6782    3.33292E+006    3.41647E+006    3.41647E+006    2.54256E+005   -6.42851E+004    3.48075E+006   -1.20215E+006    3.29841E+006    3.41647E+006    1.64048E+005    2.59225E+004    2.22534E+000   -3.95180E+000   -1.43518E+005
            6783    3.33523E+006    3.39446E+006    3.39446E+006    1.61517E+005   -3.44120E+004    3.42887E+006   -1.17386E+006    3.32224E+006    3.39446E+006    8.57070E+004    4.13980E+004    3.25129E-001    2.97931E+000   -9.54265E+004
            6784    3.33945E+006    3.37700E+006    3.37700E+006    8.70185E+004   -9.82686E+003    3.38682E+006   -1.15140E+006    3.33629E+006    3.37700E+006    3.70068E+004    4.01848E+004   -2.89859E+000   -2.23697E+000   -4.83966E+004
            6785    3.34648E+006    3.35832E+006    3.35832E+006    2.48029E+004   -9.75817E+002    3.35930E+006   -1.12738E+006    3.34626E+006    3.35832E+006    7.90360E+003    1.59235E+004    5.25700E-001    3.58722E-001   -1.22497E+004
            6786    3.33538E+006    3.38816E+006    3.38816E+006    1.17328E+005   -8.22231E+003    3.39638E+006   -1.16575E+006    3.33005E+006    3.38816E+006    9.54712E+003    9.95581E+004    3.13374E+000    2.93444E+000   -4.37630E+004
            6787    3.32722E+006    3.41520E+006    3.41520E+006    2.00607E+005   -1.42305E+004    3.42943E+006   -1.20053E+006    3.31156E+006    3.41520E+006    2.19426E+002    1.86157E+005    3.04472E+000   -3.19932E+000   -5.38107E+004
            6788    3.31851E+006    3.44851E+006    3.44851E+006    2.94855E+005   -1.33537E+004    3.46186E+006   -1.24334E+006    3.28608E+006    3.44851E+006   -5.16385E+003    2.86666E+005    7.69416E+000   -5.85665E+000   -4.95693E+004
            6789    3.31083E+006    3.48261E+006    3.48261E+006    3.86658E+005   -7.76359E+003    3.49037E+006   -1.28717E+006    3.25734E+006    3.48261E+006   -3.64082E+003    3.82535E+005    4.19565E+000   -7.23091E+000   -4.01138E+004
            6790    3.33456E+006    3.41097E+006    3.41097E+006    2.41447E+005   -6.71778E+004    3.47815E+006   -1.19508E+006    3.30220E+006    3.41097E+006    4.12414E+004    1.33028E+005   -6.67805E+000   -1.45740E+000   -1.47330E+005
            6791    3.33186E+006    3.42914E+006    3.42914E+006    3.00232E+005   -7.40701E+004    3.50321E+006   -1.21843E+006    3.28406E+006    3.42914E+006    7.89281E+003    2.18269E+005   -1.02139E+001   -5.43861E+000   -1.54793E+005
            6792    3.32558E+006    3.45215E+006    3.45215E+006    3.52912E+005   -6.10217E+004    3.51317E+006   -1.24801E+006    3.26687E+006    3.45215E+006   -6.07966E+003    2.97970E+005   -2.02209E+001    1.16402E+001   -1.40441E+005
            6793    3.31911E+006    3.47681E+006    3.47681E+006    4.08554E+005   -4.62496E+004    3.52306E+006   -1.27970E+006    3.24789E+006    3.47681E+006   -1.54309E+004    3.77735E+005   -1.15936E+001   -1.04944E+001   -1.14310E+005
            6794    3.33597E+006    3.46990E+006    3.46990E+006    4.58704E+005   -1.16126E+005    3.58603E+006   -1.27083E+006    3.22171E+006    3.46990E+006   -3.37227E+004    3.76300E+005    1.74323E+001   -9.06921E+000   -2.01438E+005
            6795    3.34252E+006    3.45256E+006    3.45256E+006    4.30895E+005   -1.37841E+005    3.59040E+006   -1.24854E+006    3.23096E+006    3.45256E+006   -3.99570E+003    2.97050E+005    2.63491E+001   -1.58004E+001   -2.41263E+005
            6796    3.34494E+006    3.43785E+006    3.43785E+006    3.94509E+005   -1.43484E+005    3.58133E+006   -1.22962E+006    3.24546E+006    3.43785E+006    3.87838E+004    2.12241E+005    1.47850E+001    4.34109E+000   -2.54632E+005
            6797    3.34819E+006    3.42192E+006    3.42192E+006    3.56850E+005   -1.51305E+005    3.57322E+006   -1.20915E+006    3.25974E+006    3.42192E+006    7.90044E+004    1.26541E+005    8.60339E+000   -7.22020E+000   -2.52964E+005
            6798    3.34811E+006    3.42256E+006    3.42256E+006    3.58559E+005   -1.51190E+005    3.57375E+006   -1.20998E+006    3.25908E+006    3.42256E+006    1.43514E+005    6.38548E+004   -5.76423E+000    8.73942E+000   -2.51744E+005
            6799    3.34399E+006    3.44042E+006    3.44042E+006    3.98763E+005   -1.40389E+005    3.58081E+006   -1.23293E+006    3.24404E+006    3.44042E+006    2.35177E+005    2.31962E+004    3.02484E+000    7.38053E+000   -2.47865E+005
            6800    3.33995E+006    3.45779E+006    3.45779E+006    4.36993E+005   -1.28997E+005    3.58678E+006   -1.25526E+006    3.22941E+006    3.45779E+006    3.23713E+005   -1.57161E+004   -1.44189E+001    2.04451E+001   -2.26458E+005
            6801    3.33221E+006    3.47759E+006    3.47759E+006    4.67732E+005   -1.03208E+005    3.58080E+006   -1.28070E+006    3.21940E+006    3.47759E+006    4.04399E+005   -3.98746E+004   -6.66849E+000    3.63629E+000   -1.79299E+005
            6802    3.31744E+006    3.48281E+006    3.48281E+006    4.21412E+005   -4.19513E+004    3.52476E+006   -1.28742E+006    3.24344E+006    3.48281E+006    3.95668E+005   -1.62077E+004   -8.30892E+000   -2.36048E+000   -1.06141E+005
            6803    3.30969E+006    3.48892E+006    3.48892E+006    4.04066E+005   -7.17092E+003    3.49609E+006   -1.29527E+006    3.25146E+006    3.48892E+006    4.00592E+005   -3.69681E+003   -5.06566E+000    1.96242E+000   -3.76379E+004
            6804    3.32404E+006    3.45693E+006    3.45693E+006    3.62320E+005   -5.67848E+004    3.51372E+006   -1.25416E+006    3.26380E+006    3.45693E+006    3.13281E+005   -7.74652E+003    9.48336E+000   -1.26255E+001   -1.34712E+005
            6805    3.31694E+006    3.45467E+006    3.45467E+006    3.11065E+005   -1.19772E+004    3.46665E+006   -1.25125E+006    3.28127E+006    3.45467E+006    3.03957E+005   -4.86949E+003   -5.61568E+000    5.55688E+000   -4.73873E+004
            6806    3.33096E+006    3.43197E+006    3.43197E+006    3.06062E+005   -7.18217E+004    3.50379E+006   -1.22207E+006    3.28222E+006    3.43197E+006    2.30244E+005    3.99650E+003   -4.16058E+000   -5.28749E+000   -1.51334E+005
            6807    3.32592E+006    3.41976E+006    3.41976E+006    2.13505E+005   -1.41276E+004    3.43389E+006   -1.20638E+006    3.30832E+006    3.41976E+006    2.00404E+005   -1.02660E+003   -2.80094E+000    1.61383E+000   -5.30150E+004
            6808    3.33441E+006    3.41183E+006    3.41183E+006    2.44154E+005   -6.74442E+004    3.47927E+006   -1.19618E+006    3.30141E+006    3.41183E+006    1.41173E+005    3.55362E+004   -2.49130E+000   -4.83831E+000   -1.46573E+005
            6809    3.33437E+006    3.39104E+006    3.39104E+006    1.25349E+005   -8.00714E+003    3.39905E+006   -1.16946E+006    3.32837E+006    3.39104E+006    1.08583E+005    8.75877E+003    1.65187E+000    2.76324E+000   -4.42125E+004
            6810    3.34230E+006    3.36896E+006    3.36896E+006    5.92698E+004   -5.02176E+003    3.37398E+006   -1.14107E+006    3.34091E+006    3.36896E+006    4.45695E+004    9.67849E+003   -1.97941E+000   -1.44095E+000   -2.70001E+004
            6811    3.34735E+006    3.35617E+006    3.35617E+006    1.77215E+004   -3.24499E+000    3.35617E+006   -1.12463E+006    3.34724E+006    3.35617E+006    9.28765E+003    8.43057E+003    1.48758E+000    1.99023E+000   -8.85199E+003
            6812    3.33532E+006    3.39422E+006    3.39422E+006    1.61150E+005   -3.47191E+004    3.42894E+006   -1.17355E+006    3.32235E+006    3.39422E+006    6.51867E+004    6.12446E+004    3.74262E+000    4.02336E+000   -9.79149E+004
            6813    3.34278E+006    3.36774E+006    3.36774E+006    5.61893E+004   -5.41017E+003    3.37315E+006   -1.13951E+006    3.34150E+006    3.36774E+006    1.01308E+004    4.06484E+004   -1.79811E+000   -1.39541E+000   -2.67543E+004
            6814    3.33115E+006    3.48706E+006    3.48706E+006    4.92495E+005   -1.00922E+005    3.58798E+006   -1.29288E+006    3.20899E+006    3.48706E+006   -5.24340E+004    4.44007E+005    2.30699E+001    9.30065E+001   -1.62550E+005
            6815    3.32079E+006    3.49344E+006    3.49344E+006    4.71367E+005   -6.15978E+004    3.55503E+006   -1.30107E+006    3.22245E+006    3.49344E+006   -3.38836E+004    4.43653E+005   -2.24200E+001   -4.92945E+001   -1.18333E+005
            6816    3.31405E+006    3.49800E+006    3.49800E+006    4.57157E+005   -3.43644E+004    3.53236E+006   -1.30693E+006    3.23052E+006    3.49800E+006   -1.83120E+004    4.41104E+005    1.60437E+001    3.69499E+001   -8.73636E+004
            6817    3.30900E+006    3.50411E+006    3.50411E+006    4.54605E+005   -1.43404E+004    3.51845E+006   -1.31479E+006    3.23297E+006    3.50411E+006   -7.94529E+003    4.48210E+005   -1.60566E+001   -1.55996E+001   -5.43878E+004
            6818    3.30545E+006    3.51264E+006    3.51264E+006    4.67124E+005   -2.52093E+003    3.51516E+006   -1.32575E+006    3.22911E+006    3.51264E+006   -1.75453E+003    4.66357E+005    5.27424E+000    9.37341E+000   -1.89564E+004
            6819    3.32260E+006    3.50603E+006    3.50603E+006    5.17609E+005   -7.18542E+004    3.57788E+006   -1.31726E+006    3.20177E+006    3.50603E+006   -5.60897E+004    5.01844E+005    1.68597E+001    3.40490E+001   -9.51003E+004
            6820    3.31526E+006    3.51119E+006    3.51119E+006    5.04885E+005   -4.44215E+004    3.55561E+006   -1.32388E+006    3.21048E+006    3.51119E+006   -3.53948E+004    4.95858E+005   -4.57448E+001   -4.53009E+001   -6.98350E+004
            6821    3.31017E+006    3.51670E+006    3.51670E+006    5.01414E+005   -2.52141E+004    3.54191E+006   -1.33097E+006    3.21389E+006    3.51670E+006   -2.00435E+004    4.96243E+005    4.63511E+001    2.63987E+001   -5.19253E+004
            6822    3.30588E+006    3.52441E+006    3.52441E+006    5.08156E+005   -9.91899E+003    3.53433E+006   -1.34088E+006    3.21264E+006    3.52441E+006   -7.86404E+003    5.06101E+005   -4.31241E+001   -1.03870E+001   -3.25637E+004
            6823    3.30322E+006    3.53412E+006    3.53412E+006    5.28131E+005   -2.16289E+003    3.53629E+006   -1.35336E+006    3.20535E+006    3.53412E+006   -1.92012E+003    5.27888E+005    1.64399E+001    6.14446E+000   -1.13436E+004
            6824    3.31799E+006    3.51661E+006    3.51661E+006    5.32296E+005   -5.62854E+004    3.57290E+006   -1.33087E+006    3.19736E+006    3.51661E+006   -5.47652E+004    5.30776E+005    1.78634E+001    3.36697E+001   -2.98746E+004
            6825    3.31259E+006    3.52108E+006    3.52108E+006    5.25046E+005   -3.63255E+004    3.55741E+006   -1.33660E+006    3.20294E+006    3.52108E+006   -3.53883E+004    5.24109E+005   -5.54196E+001   -5.28351E+000   -2.29175E+004
            6826    3.30804E+006    3.52728E+006    3.52728E+006    5.26209E+005   -1.97870E+004    3.54707E+006   -1.34457E+006    3.20430E+006    3.52728E+006   -1.92567E+004    5.25678E+005    6.39009E+001    8.85817E+000   -1.70083E+004
            6827    3.30460E+006    3.53533E+006    3.53533E+006    5.37637E+005   -8.20419E+003    3.54354E+006   -1.35492E+006    3.20081E+006    3.53533E+006   -7.99210E+003    5.37425E+005   -5.93959E+001   -4.21185E+000   -1.07575E+004
            6828    3.30228E+006    3.54577E+006    3.54577E+006    5.60843E+005   -1.61702E+003    3.54739E+006   -1.36833E+006    3.19183E+006    3.54577E+006   -1.59086E+003    5.60817E+005    2.27259E+001    2.03265E+000   -3.83522E+003
            6829    3.33141E+006    3.48054E+006    3.48054E+006    4.73713E+005   -1.00752E+005    3.58129E+006   -1.28450E+006    3.21714E+006    3.48054E+006    4.14179E+005   -4.12185E+004    6.77196E+000    1.38379E+001    1.75088E+005
            6830    3.31626E+006    3.48814E+006    3.48814E+006    4.34150E+005   -3.94715E+004    3.52761E+006   -1.29427E+006    3.23886E+006    3.48814E+006    4.12089E+005   -1.74105E+004   -1.77524E+001   -1.23346E+001    9.98092E+004
            6831    3.30850E+006    3.49695E+006    3.49695E+006    4.27250E+005   -7.39419E+003    3.50434E+006   -1.30560E+006    3.24334E+006    3.49695E+006    4.24354E+005   -4.49812E+003    7.92144E+000    5.23651E+000    3.53606E+004
            6832    3.32338E+006    3.50009E+006    3.50009E+006    5.02595E+005   -7.37750E+004    3.57387E+006   -1.30964E+006    3.20803E+006    3.50009E+006    4.78566E+005   -4.97461E+004    2.55223E+001   -2.23709E+000    1.15205E+005
            6833    3.31109E+006    3.51064E+006    3.51064E+006    4.85876E+005   -2.69460E+004    3.53758E+006   -1.32319E+006    3.21992E+006    3.51064E+006    4.77565E+005   -1.86350E+004    6.37114E+000    1.39368E+000    6.47535E+004
            6834    3.30511E+006    3.52291E+006    3.52291E+006    5.00054E+005   -6.06771E+003    3.52897E+006   -1.33896E+006    3.21618E+006    3.52291E+006    4.98976E+005   -4.98953E+003    5.61933E+000    2.51147E+000    2.33351E+004
            6835    3.31748E+006    3.51495E+006    3.51495E+006    5.25289E+005   -5.40369E+004    3.56899E+006   -1.32873E+006    3.20070E+006    3.51495E+006    5.20153E+005   -4.89008E+004    2.40006E+000   -1.29689E+001    5.43057E+004
            6836    3.30857E+006    3.52492E+006    3.52492E+006    5.21039E+005   -2.13291E+004    3.54624E+006   -1.34154E+006    3.20626E+006    3.52492E+006    5.19317E+005   -1.96063E+004   -1.97661E+001    2.93258E+000    3.05193E+004
            6837    3.30327E+006    3.53988E+006    3.53988E+006    5.46644E+005   -4.18035E+003    3.54406E+006   -1.36078E+006    3.19749E+006    3.53988E+006    5.46430E+005   -3.96690E+003    4.96822E+000    4.21960E+000    1.08411E+004
            6838    3.31573E+006    3.51939E+006    3.51939E+006    5.32165E+005   -4.82046E+004    3.56760E+006   -1.33445E+006    3.19845E+006    3.51939E+006    5.32149E+005   -4.81889E+004    8.07527E+000   -1.89453E+001   -3.02014E+003
            6839    3.30766E+006    3.52971E+006    3.52971E+006    5.32381E+005   -1.89899E+004    3.54870E+006   -1.34770E+006    3.20181E+006    3.52971E+006    5.32360E+005   -1.89683E+004    1.53928E+001    9.01498E+000   -3.45635E+003
            6840    3.30306E+006    3.54445E+006    3.54445E+006    5.59939E+005   -4.44169E+003    3.54889E+006   -1.36665E+006    3.19187E+006    3.54445E+006    5.59935E+005   -4.43789E+003   -3.97010E-001    1.31691E+000   -1.46424E+003
            6841    3.31777E+006    3.51383E+006    3.51383E+006    5.22981E+005   -5.49280E+004    3.56876E+006   -1.32730E+006    3.20158E+006    3.51383E+006    5.16753E+005   -4.86995E+004   -8.98580E+000   -1.61331E+001   -5.96716E+004
            6842    3.30895E+006    3.52259E+006    3.52259E+006    5.15228E+005   -2.21744E+004    3.54476E+006   -1.33855E+006    3.20856E+006    3.52259E+006    5.12536E+005   -1.94824E+004   -1.44495E+001    5.78200E+000   -3.79396E+004
            6843    3.30347E+006    3.53682E+006    3.53682E+006    5.37797E+005   -4.08645E+003    3.54091E+006   -1.35684E+006    3.20118E+006    3.53682E+006    5.37460E+005   -3.74899E+003   -1.21379E+000    3.45989E+000   -1.35186E+004
            6844    3.32397E+006    3.49815E+006    3.49815E+006    4.98918E+005   -7.56471E+004    3.57379E+006   -1.30714E+006    3.20938E+006    3.49815E+006    4.72362E+005   -4.90910E+004   -1.36600E+001   -3.81450E+000   -1.20636E+005
            6845    3.31193E+006    3.50632E+006    3.50632E+006    4.75351E+005   -2.87668E+004    3.53508E+006   -1.31763E+006    3.22391E+006    3.50632E+006    4.64938E+005   -1.83540E+004    2.04243E+001    2.03625E+000   -7.16997E+004
            6846    3.30592E+006    3.51664E+006    3.51664E+006    4.82884E+005   -6.81632E+003    3.52345E+006   -1.33090E+006    3.22280E+006    3.51664E+006    4.81466E+005   -5.39856E+003   -6.30521E+000    2.40922E+000   -2.63109E+004
            6847    3.30553E+006    3.51236E+006    3.51236E+006    4.66584E+005   -2.76240E+003    3.51512E+006   -1.32539E+006    3.22929E+006    3.51236E+006   -1.99252E+003    4.65814E+005    1.41069E+000   -9.47627E+000    1.89935E+004
            6848    3.30900E+006    3.50410E+006    3.50410E+006    4.54592E+005   -1.43621E+004    3.51846E+006   -1.31478E+006    3.23297E+006    3.50410E+006   -7.92045E+003    4.48150E+005   -7.13073E+000    1.44199E+001    5.45832E+004
            6849    3.31414E+006    3.49799E+006    3.49799E+006    4.57523E+005   -3.47536E+004    3.53274E+006   -1.30692E+006    3.23035E+006    3.49799E+006   -1.86354E+004    4.41404E+005    6.20874E+000   -3.63523E+001    8.76060E+004
            6850    3.32092E+006    3.49347E+006    3.49347E+006    4.72038E+005   -6.21579E+004    3.55563E+006   -1.30112E+006    3.22212E+006    3.49347E+006   -3.43252E+004    4.44205E+005   -1.32422E+001    4.95628E+001    1.18716E+005
            6851    3.33113E+006    3.48717E+006    3.48717E+006    4.92761E+005   -1.00863E+005    3.58804E+006   -1.29302E+006    3.20888E+006    3.48717E+006   -5.25193E+004    4.44418E+005    1.48052E+001   -9.28640E+001    1.62360E+005
            6852    3.30316E+006    3.53419E+006    3.53419E+006    5.28115E+005   -1.95303E+003    3.53614E+006   -1.35345E+006    3.20538E+006    3.53419E+006   -1.71481E+003    5.27877E+005    1.61489E+001   -6.93460E+000    1.12346E+004
            6853    3.30587E+006    3.52446E+006    3.52446E+006    5.08268E+005   -9.88867E+003    3.53435E+006   -1.34095E+006    3.21260E+006    3.52446E+006   -7.86970E+003    5.06249E+005   -4.15069E+001    1.05863E+001    3.22810E+004
            6854    3.31012E+006    3.51671E+006    3.51671E+006    5.01246E+005   -2.50142E+004    3.54172E+006   -1.33098E+006    3.21397E+006    3.51671E+006   -1.98614E+004    4.96093E+005    4.38212E+001   -2.66904E+001    5.18186E+004
            6855    3.31535E+006    3.51117E+006    3.51117E+006    5.05169E+005   -4.47533E+004    3.55592E+006   -1.32386E+006    3.21032E+006    3.51117E+006   -3.57599E+004    4.96175E+005   -4.26915E+001    4.59744E+001    6.97480E+004
            6856    3.32275E+006    3.50593E+006    3.50593E+006    5.17917E+005   -7.24216E+004    3.57835E+006   -1.31714E+006    3.20156E+006    3.50593E+006   -5.65743E+004    5.02070E+005    1.25234E+001   -4.02748E+001    9.54155E+004
            6857    3.30232E+006    3.54574E+006    3.54574E+006    5.60880E+005   -1.75065E+003    3.54749E+006   -1.36829E+006    3.19180E+006    3.54574E+006   -1.72484E+003    5.60854E+005    2.44042E+001   -2.45040E+000    3.81000E+003
            6858    3.30454E+006    3.53541E+006    3.53541E+006    5.37627E+005   -7.97750E+003    3.54339E+006   -1.35502E+006    3.20084E+006    3.53541E+006   -7.76430E+003    5.37414E+005   -6.28388E+001    4.61239E+000    1.07831E+004
            6859    3.30803E+006    3.52731E+006    3.52731E+006    5.26296E+005   -1.97764E+004    3.54709E+006   -1.34461E+006    3.20427E+006    3.52731E+006   -1.92480E+004    5.25768E+005    6.68872E+001   -1.07701E+001    1.69797E+004
            6860    3.31250E+006    3.52113E+006    3.52113E+006    5.24814E+005   -3.59687E+004    3.55710E+006   -1.33666E+006    3.20308E+006    3.52113E+006   -3.50447E+004    5.23890E+005   -5.71652E+001    7.52509E+000    2.27444E+004
            6861    3.31788E+006    3.51663E+006    3.51663E+006    5.31903E+005   -5.58468E+004    3.57247E+006   -1.33089E+006    3.19759E+006    3.51663E+006   -5.43084E+004    5.30365E+005    1.78310E+001   -3.57602E+001    3.00310E+004
            6862    3.35139E+006    3.42720E+006    3.42720E+006    3.87188E+005   -1.66592E+005    3.59379E+006   -1.21593E+006    3.24605E+006    3.42720E+006    1.62845E+005    5.77508E+004   -2.06938E+001    2.02363E+001    2.71858E+005
            6863    3.35250E+006    3.43068E+006    3.43068E+006    4.02351E+005   -1.71821E+005    3.60250E+006   -1.22040E+006    3.23909E+006    3.43068E+006    1.02106E+005    1.28424E+005   -6.23692E+001    9.29424E+000    2.86784E+005
            6864    3.35289E+006    3.43738E+006    3.43738E+006    4.24219E+005   -1.74554E+005    3.61193E+006   -1.22901E+006    3.22930E+006    3.43738E+006    4.69997E+004    2.02665E+005   -4.70792E+001   -5.74789E+000    2.89092E+005
            6865    3.34861E+006    3.44903E+006    3.44903E+006    4.43282E+005   -1.60328E+005    3.60936E+006   -1.24400E+006    3.22279E+006    3.44903E+006   -1.27193E+003    2.84227E+005   -2.56312E+001   -5.75224E+001    2.65912E+005
            6866    3.34127E+006    3.46583E+006    3.46583E+006    4.66407E+005   -1.35471E+005    3.60131E+006   -1.26559E+006    3.21590E+006    3.46583E+006   -3.65077E+004    3.67443E+005   -8.63916E+000   -5.40626E+001    2.23092E+005
            6867    3.32841E+006    3.47185E+006    3.47185E+006    4.34181E+005   -8.60397E+004    3.55789E+006   -1.27333E+006    3.23505E+006    3.47185E+006   -2.66472E+004    3.74788E+005    1.19352E+001    5.15712E+001    1.65438E+005
            6868    3.32054E+006    3.47410E+006    3.47410E+006    4.05984E+005   -5.14489E+004    3.52555E+006   -1.27621E+006    3.24852E+006    3.47410E+006   -1.55344E+004    3.70070E+005   -1.81557E+001   -3.27970E+001    1.23039E+005
            6869    3.31419E+006    3.47786E+006    3.47786E+006    3.87067E+005   -2.17824E+004    3.49964E+006   -1.28105E+006    3.25672E+006    3.47786E+006   -6.52489E+003    3.71809E+005    1.39062E+001    1.15653E+001    7.74933E+004
            6870    3.31021E+006    3.48267E+006    3.48267E+006    3.83317E+005   -4.27047E+003    3.48694E+006   -1.28724E+006    3.25858E+006    3.48267E+006   -2.38287E+003    3.81429E+005   -6.48017E+000   -8.73956E+000    2.69824E+004
            6871    3.33618E+006    3.45097E+006    3.45097E+006    3.99657E+005   -1.11168E+005    3.56213E+006   -1.24649E+006    3.24645E+006    3.45097E+006   -7.82396E+003    2.96313E+005    3.07300E+001    2.62229E+001    2.05209E+005
            6872    3.32723E+006    3.45077E+006    3.45077E+006    3.56465E+005   -6.85546E+004    3.51932E+006   -1.24623E+006    3.26532E+006    3.45077E+006   -4.02601E+003    2.91937E+005   -3.48194E+001   -2.18869E+001    1.52519E+005
            6873    3.32100E+006    3.44999E+006    3.44999E+006    3.17834E+005   -3.21368E+004    3.48213E+006   -1.24523E+006    3.27913E+006    3.44999E+006   -2.89644E+003    2.88593E+005    2.59810E+001    7.12652E+000    9.68414E+004
            6874    3.31724E+006    3.44965E+006    3.44965E+006    2.90596E+005   -5.88170E+003    3.45553E+006   -1.24479E+006    3.28723E+006    3.44965E+006   -1.96561E+003    2.86680E+005   -1.09403E+001   -6.53060E+000    3.38481E+004
            6875    3.34058E+006    3.43545E+006    3.43545E+006    3.67803E+005   -1.23619E+005    3.55907E+006   -1.22654E+006    3.25777E+006    3.43545E+006    2.73724E+004    2.16812E+005    4.50588E+001    8.06858E+000    2.26720E+005
            6876    3.33282E+006    3.43069E+006    3.43069E+006    3.11757E+005   -8.11760E+004    3.51187E+006   -1.22042E+006    3.28010E+006    3.43069E+006    1.46041E+004    2.15977E+005   -3.58348E+001   -7.97481E+000    1.68705E+005
            6877    3.32744E+006    3.42549E+006    3.42549E+006    2.55163E+005   -3.94680E+004    3.46495E+006   -1.21373E+006    3.29790E+006    3.42549E+006    6.24329E+003    2.09452E+005    2.23870E+001    2.07579E+000    1.06670E+005
            6878    3.32587E+006    3.41759E+006    3.41759E+006    2.00248E+005   -7.10153E+003    3.42469E+006   -1.20358E+006    3.31128E+006    3.41759E+006   -3.42039E+002    1.93489E+005   -7.70105E+000   -3.18629E+000    3.68224E+004
            6879    3.34274E+006    3.42424E+006    3.42424E+006    3.39739E+005   -1.27568E+005    3.55181E+006   -1.21214E+006    3.26804E+006    3.42424E+006    6.99633E+004    1.42208E+005    4.45017E+001   -1.04256E+001    2.30844E+005
            6880    3.33481E+006    3.41697E+006    3.41697E+006    2.68999E+005   -7.75961E+004    3.49457E+006   -1.20279E+006    3.29392E+006    3.41697E+006    4.48874E+004    1.46515E+005   -3.53131E+001    4.32924E+000    1.65680E+005
            6881    3.33256E+006    3.40541E+006    3.40541E+006    1.97638E+005   -3.92827E+004    3.44469E+006   -1.18792E+006    3.31353E+006    3.40541E+006    1.80448E+004    1.40311E+005    2.01286E+001   -3.98332E+000    1.01467E+005
            6882    3.33453E+006    3.39046E+006    3.39046E+006    1.22696E+005   -7.05925E+003    3.39751E+006   -1.16870E+006    3.32884E+006    3.39046E+006    2.63017E+003    1.13006E+005   -6.43653E+000    1.33897E+000    3.41081E+004
            6883    3.33937E+006    3.42106E+006    3.42106E+006    3.11449E+005   -1.08370E+005    3.52943E+006   -1.20805E+006    3.27921E+006    3.42106E+006    1.31398E+005    7.16814E+004    1.96895E+001   -1.52917E+001    2.07775E+005
            6884    3.33461E+006    3.40590E+006    3.40590E+006    2.18015E+005   -5.82440E+004    3.46414E+006   -1.18856E+006    3.30872E+006    3.40590E+006    7.25945E+004    8.71764E+004   -1.72291E+001    1.29621E+001    1.37937E+005
            6885    3.33600E+006    3.39025E+006    3.39025E+006    1.42892E+005   -2.78377E+004    3.41809E+006   -1.16844E+006    3.32615E+006    3.39025E+006    3.01320E+004    8.49224E+004    9.95272E+000   -8.77481E+000    8.08497E+004
            6886    3.34191E+006    3.37010E+006    3.37010E+006    6.36201E+004   -6.14960E+003    3.37625E+006   -1.14252E+006    3.34027E+006    3.37010E+006    5.28784E+003    5.21827E+004   -3.59949E+000    3.93851E+000    2.58297E+004
            6887    3.34632E+006    3.35870E+006    3.35870E+006    2.58523E+004   -9.33171E+002    3.35964E+006   -1.12787E+006    3.34608E+006    3.35870E+006    8.39534E+003    1.65238E+004    7.58870E-001   -6.73950E-001    1.27612E+004
            6888    3.34925E+006    3.35169E+006    3.35169E+006    4.86710E+003    1.66569E+001    3.35167E+006   -1.11886E+006    3.34924E+006    3.35169E+006    2.56858E+003    2.31518E+003   -1.19454E+000    9.00738E-001    2.42191E+003
            6889    3.33947E+006    3.37693E+006    3.37693E+006    8.66223E+004   -9.62169E+003    3.38655E+006   -1.15131E+006    3.33635E+006    3.37693E+006    3.66946E+004    4.03060E+004   -3.31670E+000    2.41109E+000    4.80881E+004
            6890    3.34552E+006    3.36065E+006    3.36065E+006    3.11799E+004   -6.95671E+002    3.36134E+006   -1.13038E+006    3.34518E+006    3.36065E+006    2.04786E+004    1.00056E+004    4.29350E-001   -9.07605E-001    1.50530E+004
            6891    3.33528E+006    3.39425E+006    3.39425E+006    1.60705E+005   -3.42142E+004    3.42846E+006   -1.17358E+006    3.32243E+006    3.39425E+006    8.52085E+004    4.12821E+004    8.52146E-001   -2.71539E+000    9.49525E+004
            6892    3.33893E+006    3.37795E+006    3.37795E+006    8.58594E+004   -5.92235E+003    3.38388E+006   -1.15263E+006    3.33609E+006    3.37795E+006    6.97624E+004    1.01746E+004   -1.93871E+000    2.12506E+000    3.49041E+004
            6893    3.33291E+006    3.41651E+006    3.41651E+006    2.54383E+005   -6.42820E+004    3.48080E+006   -1.20221E+006    3.29837E+006    3.41651E+006    1.64044E+005    2.60577E+004    2.17806E+000    4.31019E+000    1.43621E+005
            6894    3.33069E+006    3.40272E+006    3.40272E+006    1.61146E+005   -1.04613E+004    3.41318E+006   -1.18447E+006    3.32072E+006    3.40272E+006    1.46105E+005    4.58004E+003    1.72888E+000   -2.03255E+000    4.85279E+004
            6895    3.32256E+006    3.43105E+006    3.43105E+006    2.43167E+005   -1.15234E+004    3.44258E+006   -1.22090E+006    3.30049E+006    3.43105E+006    2.31795E+005   -1.51440E+002    1.76295E+000    4.93748E+000    5.26023E+004
            6896    3.31507E+006    3.46384E+006    3.46384E+006    3.37573E+005   -1.22896E+004    3.47613E+006   -1.26304E+006    3.27315E+006    3.46384E+006    3.31117E+005   -5.83382E+003    5.59690E+000    3.90427E+000    4.70847E+004
            6897    3.32982E+006    3.43842E+006    3.43842E+006    3.24474E+005   -7.18034E+004    3.51022E+006   -1.23036E+006    3.27614E+006    3.43842E+006    2.48395E+005    4.27579E+003   -3.26603E+000   -1.45254E+001    1.56078E+005
            6898    3.32293E+006    3.46296E+006    3.46296E+006    3.78514E+005   -5.57477E+004    3.51871E+006   -1.26191E+006    3.25817E+006    3.46296E+006    3.34461E+005   -1.16944E+004    6.64100E+000   -1.05697E+001    1.31111E+005
            6899    3.33885E+006    3.46027E+006    3.46027E+006    4.40315E+005   -1.25230E+005    3.58550E+006   -1.25845E+006    3.22844E+006    3.46027E+006    3.32362E+005   -1.72773E+004    1.48592E+001    2.07569E+001    2.22257E+005
            6900    3.34569E+006    3.44001E+006    3.44001E+006    4.04420E+005   -1.47217E+005    3.58723E+006   -1.23240E+006    3.24100E+006    3.44001E+006    2.41177E+005    1.60255E+004    9.79120E-001    1.70275E+001    2.51799E+005
            6901    3.34815E+006    3.42203E+006    3.42203E+006    3.56984E+005   -1.51138E+005    3.57316E+006   -1.20929E+006    3.25971E+006    3.42203E+006    7.96599E+004    1.26186E+005   -6.84957E+000   -7.05570E+000    2.52994E+005
            6902    3.34501E+006    3.43778E+006    3.43778E+006    3.94582E+005   -1.43736E+005    3.58152E+006   -1.22954E+006    3.24540E+006    3.43778E+006    3.84736E+004    2.12372E+005   -1.32719E+001    4.96709E+000    2.54728E+005
            6903    3.34249E+006    3.45246E+006    3.45246E+006    4.30496E+005   -1.37723E+005    3.59018E+006   -1.24841E+006    3.23114E+006    3.45246E+006   -4.20836E+003    2.96981E+005   -2.25602E+001   -1.63174E+001    2.40914E+005
            6904    3.33589E+006    3.46991E+006    3.46991E+006    4.58422E+005   -1.15829E+005    3.58574E+006   -1.27083E+006    3.22186E+006    3.46991E+006   -3.37221E+004    3.76315E+005   -1.71355E+001   -7.77109E+000    2.01019E+005
            6905    3.31926E+006    3.47646E+006    3.47646E+006    4.08117E+005   -4.68055E+004    3.52326E+006   -1.27926E+006    3.24802E+006    3.47646E+006   -1.54484E+004    3.76759E+005    1.04849E+001   -9.90265E+000    1.15247E+005
            6906    3.31103E+006    3.48165E+006    3.48165E+006    3.84174E+005   -7.99821E+003    3.48965E+006   -1.28594E+006    3.25817E+006    3.48165E+006   -3.78478E+003    3.79960E+005   -3.47826E+000   -7.13714E+000    4.04307E+004
            6907    3.32570E+006    3.45181E+006    3.45181E+006    3.52317E+005   -6.13898E+004    3.51320E+006   -1.24758E+006    3.26706E+006    3.45181E+006   -5.78143E+003    2.96709E+005    1.86174E+001    1.05902E+001    1.41114E+005
            6908    3.31870E+006    3.44766E+006    3.44766E+006    2.92463E+005   -1.33774E+004    3.46104E+006   -1.24225E+006    3.28677E+006    3.44766E+006   -5.03675E+003    2.84122E+005   -7.02829E+000   -5.50559E+000    4.98129E+004
            6909    3.33188E+006    3.42896E+006    3.42896E+006    2.99633E+005   -7.39745E+004    3.50293E+006   -1.21821E+006    3.28426E+006    3.42896E+006    8.35620E+003    2.17303E+005    9.05091E+000   -4.87671E+000    1.54858E+005
            6910    3.32728E+006    3.41500E+006    3.41500E+006    2.00059E+005   -1.42653E+004    3.42926E+006   -1.20026E+006    3.31170E+006    3.41500E+006    2.18860E+002    1.85575E+005   -2.47266E+000   -3.09958E+000    5.38008E+004
            6911    3.33456E+006    3.41086E+006    3.41086E+006    2.40949E+005   -6.69990E+004    3.47786E+006   -1.19494E+006    3.30235E+006    3.41086E+006    4.12871E+004    1.32663E+005    6.32608E+000   -1.49284E+000    1.47040E+005
            6912    3.33532E+006    3.38832E+006    3.38832E+006    1.17785E+005   -8.21360E+003    3.39653E+006   -1.16596E+006    3.32996E+006    3.38832E+006    9.54858E+003    1.00023E+005   -2.82056E+000    2.90511E+000    4.38465E+004
            6913    3.34269E+006    3.36796E+006    3.36796E+006    5.66633E+004   -5.27622E+003    3.37323E+006   -1.13978E+006    3.34140E+006    3.36796E+006    1.02109E+004    4.11761E+004    1.73520E+000   -1.29956E+000    2.68219E+004
            6914    3.34735E+006    3.35618E+006    3.35618E+006    1.77338E+004   -3.03558E+000    3.35618E+006   -1.12464E+006    3.34724E+006    3.35618E+006    9.12314E+003    8.60766E+003   -1.38608E+000    1.94253E+000    8.86469E+003
            6915    3.33535E+006    3.39416E+006    3.39416E+006    1.60995E+005   -3.47416E+004    3.42890E+006   -1.17347E+006    3.32239E+006    3.39416E+006    6.50831E+004    6.11699E+004   -3.27507E+000    4.10866E+000    9.78485E+004
            6916    3.34239E+006    3.36875E+006    3.36875E+006    5.88285E+004   -5.17461E+003    3.37393E+006   -1.14080E+006    3.34101E+006    3.36875E+006    4.40556E+004    9.59828E+003    1.95347E+000   -1.36485E+000    2.69680E+004
            6917    3.33455E+006    3.39056E+006    3.39056E+006    1.24015E+005   -8.05608E+003    3.39862E+006   -1.16884E+006    3.32865E+006    3.39056E+006    1.07253E+005    8.70557E+003   -1.38013E+000    2.70009E+000    4.39633E+004
            6918    3.32612E+006    3.41905E+006    3.41905E+006    2.11461E+005   -1.41264E+004    3.43318E+006   -1.20546E+006    3.30885E+006    3.41905E+006    1.98338E+005   -1.00355E+003    2.57140E+000    2.09834E+000    5.28028E+004
            6919    3.31701E+006    3.45439E+006    3.45439E+006    3.10293E+005   -1.20061E+004    3.46640E+006   -1.25089E+006    3.28151E+006    3.45439E+006    3.03294E+005   -5.00700E+003    5.57858E+000    6.21382E+000    4.69768E+004
            6920    3.30952E+006    3.48943E+006    3.48943E+006    4.05050E+005   -6.70042E+003    3.49613E+006   -1.29593E+006    3.25114E+006    3.48943E+006    4.01667E+005   -3.31790E+003    4.81941E+000    2.64954E+000    3.71660E+004
            6921    3.33443E+006    3.41177E+006    3.41177E+006    2.44038E+005   -6.75072E+004    3.47927E+006   -1.19610E+006    3.30145E+006    3.41177E+006    1.41201E+005    3.53303E+004    2.13414E+000   -4.44715E+000    1.46503E+005
            6922    3.33097E+006    3.43196E+006    3.43196E+006    3.06055E+005   -7.18389E+004    3.50380E+006   -1.22206E+006    3.28223E+006    3.43196E+006    2.30732E+005    3.48362E+003    4.32435E+000   -6.30382E+000    1.50965E+005
            6923    3.32396E+006    3.45708E+006    3.45708E+006    3.62417E+005   -5.64809E+004    3.51356E+006   -1.25434E+006    3.26379E+006    3.45708E+006    3.13775E+005   -7.83856E+003   -9.43931E+000   -1.40374E+001    1.34202E+005
            6924    3.31732E+006    3.48285E+006    3.48285E+006    4.20922E+005   -4.13641E+004    3.52421E+006   -1.28747E+006    3.24366E+006    3.48285E+006    3.95289E+005   -1.57317E+004    7.82478E+000   -3.22777E+000    1.05795E+005
            6925    3.33225E+006    3.47772E+006    3.47772E+006    4.68240E+005   -1.03349E+005    3.58107E+006   -1.28087E+006    3.21917E+006    3.47772E+006    4.04856E+005   -3.99651E+004    9.06432E+000    5.09497E+000    1.79477E+005
            6926    3.34002E+006    3.45776E+006    3.45776E+006    4.37130E+005   -1.29233E+005    3.58699E+006   -1.25522E+006    3.22932E+006    3.45776E+006    3.23312E+005   -1.54159E+004    1.14525E+001    2.24723E+001    2.26953E+005
            6927    3.34398E+006    3.44038E+006    3.44038E+006    3.98547E+005   -1.40308E+005    3.58068E+006   -1.23287E+006    3.24414E+006    3.44038E+006    2.34722E+005    2.35165E+004   -1.35098E+000    9.58354E+000    2.47869E+005
            6928    3.34817E+006    3.42242E+006    3.42242E+006    3.58362E+005   -1.51393E+005    3.57381E+006   -1.20980E+006    3.25915E+006    3.42242E+006    1.43732E+005    6.32360E+004    5.35049E+000    8.70559E+000    2.51680E+005
            6929    3.30674E+006    3.51024E+006    3.51024E+006    4.65083E+005   -7.28404E+003    3.51752E+006   -1.32268E+006    3.22952E+006    3.51024E+006   -5.41964E+003    4.63218E+005   -5.83194E+000   -9.23490E+000    2.96177E+004
            6930    3.31339E+006    3.49997E+006    3.49997E+006    4.60839E+005   -3.23710E+004    3.53234E+006   -1.30948E+006    3.22925E+006    3.49997E+006   -1.85290E+004    4.46997E+005    1.06080E+001    2.75749E+001    8.14582E+004
            6931    3.32781E+006    3.48988E+006    3.48988E+006    4.88419E+005   -8.87656E+004    3.57865E+006   -1.29651E+006    3.21229E+006    3.48988E+006   -4.83400E+004    4.47994E+005   -1.40179E+001   -1.98377E+001    1.47305E+005
            6932    3.30398E+006    3.53198E+006    3.53198E+006    5.24582E+005   -4.68567E+003    3.53667E+006   -1.35063E+006    3.20652E+006    3.53198E+006   -4.11894E+003    5.24015E+005   -7.13815E+000   -4.36745E+000    1.73099E+004
            6933    3.30965E+006    3.51822E+006    3.51822E+006    5.04221E+005   -2.36413E+004    3.54186E+006   -1.33293E+006    3.21290E+006    3.51822E+006   -1.91098E+004    4.99690E+005    8.73853E+000   -1.56998E+001    4.86978E+004
            6934    3.32029E+006    3.50789E+006    3.50789E+006    5.14544E+005   -6.34453E+004    3.57134E+006   -1.31966E+006    3.20416E+006    3.50789E+006   -5.02762E+004    5.01375E+005   -1.00115E+001   -1.68547E+001    8.62450E+004
            6935    3.30308E+006    3.54320E+006    3.54320E+006    5.56147E+005   -4.21299E+003    3.54741E+006   -1.36504E+006    3.19350E+006    3.54320E+006   -4.15250E+003    5.56086E+005   -9.16063E+000   -3.56064E+000    5.82191E+003
            6936    3.30788E+006    3.52836E+006    3.52836E+006    5.29019E+005   -1.94926E+004    3.54785E+006   -1.34596E+006    3.20316E+006    3.52836E+006   -1.90542E+004    5.28581E+005    9.91407E+000    2.66286E+001    1.55018E+004
            6937    3.31626E+006    3.51815E+006    3.51815E+006    5.30416E+005   -5.00101E+004    3.56816E+006   -1.33285E+006    3.19898E+006    3.51815E+006   -4.85863E+004    5.28992E+005   -8.07723E+000   -2.01550E+000    2.87119E+004
            6938    3.30861E+006    3.49630E+006    3.49630E+006    4.25508E+005   -7.48779E+003    3.50379E+006   -1.30477E+006    3.24395E+006    3.49630E+006    4.22558E+005   -4.53830E+003   -8.29694E+000    4.02231E+000   -3.56149E+004
            6939    3.31642E+006    3.48777E+006    3.48777E+006    4.33632E+005   -3.99983E+004    3.52777E+006   -1.29380E+006    3.23901E+006    3.48777E+006    4.11220E+005   -1.75869E+004    1.78802E+001   -1.07297E+001   -1.00561E+005
            6940    3.33128E+006    3.48065E+006    3.48065E+006    4.73548E+005   -1.00259E+005    3.58091E+006   -1.28465E+006    3.21727E+006    3.48065E+006    4.14284E+005   -4.09942E+004   -6.56089E+000    1.10489E+001   -1.74626E+005
            6941    3.30515E+006    3.52245E+006    3.52245E+006    4.98775E+005   -6.09079E+003    3.52854E+006   -1.33838E+006    3.21668E+006    3.52245E+006    4.97671E+005   -4.98742E+003   -5.72423E+000    1.83523E+000   -2.35762E+004
            6942    3.31112E+006    3.51052E+006    3.51052E+006    4.85646E+005   -2.70306E+004    3.53755E+006   -1.32305E+006    3.22000E+006    3.51052E+006    4.77290E+005   -1.86741E+004   -6.07682E+000    2.08424E+000   -6.49182E+004
            6943    3.32338E+006    3.50006E+006    3.50006E+006    5.02516E+005   -7.37807E+004    3.57384E+006   -1.30960E+006    3.20806E+006    3.50006E+006    4.78436E+005   -4.97008E+004   -2.84843E+001   -2.08577E+000   -1.15314E+005
            6944    3.30329E+006    3.53971E+006    3.53971E+006    5.46183E+005   -4.19726E+003    3.54391E+006   -1.36057E+006    3.19768E+006    3.53971E+006    5.45962E+005   -3.97586E+003   -6.12468E+000    4.01932E+000   -1.10364E+004
            6945    3.30853E+006    3.52494E+006    3.52494E+006    5.20948E+005   -2.11725E+004    3.54611E+006   -1.34157E+006    3.20631E+006    3.52494E+006    5.19214E+005   -1.94390E+004    2.09391E+001    2.13035E+000   -3.06067E+004
            6946    3.31740E+006    3.51497E+006    3.51497E+006    5.25078E+005   -5.37580E+004    3.56873E+006   -1.32876E+006    3.20082E+006    3.51497E+006    5.19836E+005   -4.85168E+004   -2.46000E+000   -1.10438E+001   -5.48304E+004
            6947    3.30307E+006    3.54448E+006    3.54448E+006    5.60082E+005   -4.50061E+003    3.54898E+006   -1.36669E+006    3.19180E+006    3.54448E+006    5.60079E+005   -4.49722E+003   -5.21519E-001    1.20366E+000    1.38307E+003
            6948    3.30770E+006    3.52973E+006    3.52973E+006    5.32613E+005   -1.91622E+004    3.54889E+006   -1.34773E+006    3.20169E+006    3.52973E+006    5.32593E+005   -1.91422E+004   -1.45240E+001    8.93936E+000    3.32191E+003
            6949    3.31578E+006    3.51941E+006    3.51941E+006    5.32403E+005   -4.83978E+004    3.56781E+006   -1.33447E+006    3.19832E+006    3.51941E+006    5.32395E+005   -4.83895E+004   -1.30346E+001   -1.91647E+001    2.19739E+003
            6950    3.30345E+006    3.53709E+006    3.53709E+006    5.38572E+005   -4.08049E+003    3.54117E+006   -1.35719E+006    3.20086E+006    3.53709E+006    5.38238E+005   -3.74616E+003    2.97039E-001    3.61516E+000    1.34653E+004
            6951    3.30892E+006    3.52274E+006    3.52274E+006    5.15576E+005   -2.20871E+004    3.54483E+006   -1.33874E+006    3.20843E+006    3.52274E+006    5.12890E+005   -1.94019E+004    1.53688E+001    5.56313E+000    3.79011E+004
            6952    3.31765E+006    3.51396E+006    3.51396E+006    5.22932E+005   -5.44982E+004    3.56846E+006   -1.32747E+006    3.20166E+006    3.51396E+006    5.16943E+005   -4.85088E+004    9.06943E+000   -1.53052E+001    5.85029E+004
            6953    3.30585E+006    3.51714E+006    3.51714E+006    4.84242E+005   -6.74761E+003    3.52389E+006   -1.33154E+006    3.22229E+006    3.51714E+006    4.82846E+005   -5.35107E+003    5.34084E+000    3.15620E+000    2.61483E+004
            6954    3.31185E+006    3.50634E+006    3.50634E+006    4.75058E+005   -2.84240E+004    3.53476E+006   -1.31766E+006    3.22406E+006    3.50634E+006    4.64708E+005   -1.80742E+004   -1.91706E+001    1.25471E+000    7.14409E+004
            6955    3.32388E+006    3.49837E+006    3.49837E+006    4.99266E+005   -7.53516E+004    3.57373E+006   -1.30743E+006    3.20927E+006    3.49837E+006    4.72989E+005   -4.90746E+004    8.64891E+000   -3.93322E+000    1.20037E+005
            6956    3.32786E+006    3.48984E+006    3.48984E+006    4.88489E+005   -8.89490E+004    3.57879E+006   -1.29646E+006    3.21223E+006    3.48984E+006   -4.85929E+004    4.48133E+005   -1.44076E+001    1.80199E+001   -1.47223E+005
            6957    3.31328E+006    3.50020E+006    3.50020E+006    4.61084E+005   -3.19776E+004    3.53218E+006   -1.30977E+006    3.22919E+006    3.50020E+006   -1.83262E+004    4.47433E+005    1.10430E+001   -2.81962E+001   -8.08987E+004
            6958    3.30672E+006    3.51057E+006    3.51057E+006    4.66091E+005   -7.34896E+003    3.51792E+006   -1.32310E+006    3.22914E+006    3.51057E+006   -5.51073E+003    4.64253E+005   -6.73494E+000    8.69382E+000   -2.94434E+004
            6959    3.32024E+006    3.50801E+006    3.50801E+006    5.14694E+005   -6.32793E+004    3.57128E+006   -1.31981E+006    3.20412E+006    3.50801E+006   -5.02692E+004    5.01684E+005   -8.72684E+000    1.45335E+001   -8.57334E+004
            6960    3.30964E+006    3.51819E+006    3.51819E+006    5.04039E+005   -2.35522E+004    3.54174E+006   -1.33289E+006    3.21298E+006    3.51819E+006   -1.90127E+004    4.99500E+005    9.81448E+000    1.79336E+001   -4.87277E+004
            6961    3.30394E+006    3.53215E+006    3.53215E+006    5.24955E+005   -4.56928E+003    3.53672E+006   -1.35085E+006    3.20638E+006    3.53215E+006   -4.00990E+003    5.24395E+005   -8.43701E+000    3.43122E+000   -1.72015E+004
            6962    3.31620E+006    3.51824E+006    3.51824E+006    5.30432E+005   -4.97777E+004    3.56802E+006   -1.33296E+006    3.19900E+006    3.51824E+006   -4.84230E+004    5.29077E+005   -7.10734E+000   -1.70465E+000   -2.80039E+004
            6963    3.30784E+006    3.52836E+006    3.52836E+006    5.28850E+005   -1.93352E+004    3.54769E+006   -1.34596E+006    3.20325E+006    3.52836E+006   -1.88670E+004    5.28382E+005    9.66621E+000   -2.48348E+001   -1.60129E+004
            6964    3.30309E+006    3.54319E+006    3.54319E+006    5.56165E+005   -4.24790E+003    3.54744E+006   -1.36504E+006    3.19349E+006    3.54319E+006   -4.18625E+003    5.56103E+005   -9.43048E+000    2.48069E+000   -5.87735E+003
            6965    3.34203E+006    3.36974E+006    3.36974E+006    6.20571E+004   -5.59526E+003    3.37534E+006   -1.14207E+006    3.34049E+006    3.36974E+006    5.75194E+003    5.07099E+004    4.16348E+000    3.66596E+000   -2.52766E+004
            6966    3.33486E+006    3.38954E+006    3.38954E+006    1.20359E+005   -7.34290E+003    3.39688E+006   -1.16752E+006    3.32936E+006    3.38954E+006    2.38020E+003    1.10636E+005    7.87655E+000    1.47881E+000   -3.38691E+004
            6967    3.32604E+006    3.41697E+006    3.41697E+006    1.98392E+005   -7.00297E+003    3.42398E+006   -1.20279E+006    3.31172E+006    3.41697E+006   -4.04574E+002    1.91794E+005    8.30752E+000   -3.78460E+000   -3.62180E+004
            6968    3.31719E+006    3.44967E+006    3.44967E+006    2.90287E+005   -5.50879E+003    3.45518E+006   -1.24482E+006    3.28732E+006    3.44967E+006   -1.66936E+003    2.86447E+005    1.09461E+001   -7.01921E+000   -3.34806E+004
            6969    3.31023E+006    3.48267E+006    3.48267E+006    3.83403E+005   -4.36762E+003    3.48704E+006   -1.28724E+006    3.25855E+006    3.48267E+006   -2.50645E+003    3.81541E+005    4.60385E+000   -9.56932E+000   -2.68001E+004
            6970    3.33601E+006    3.39022E+006    3.39022E+006    1.42782E+005   -2.78284E+004    3.41804E+006   -1.16839E+006    3.32618E+006    3.39022E+006    3.03708E+004    8.45833E+004   -1.13322E+001   -8.39379E+000   -8.08843E+004
            6971    3.33263E+006    3.40500E+006    3.40500E+006    1.96046E+005   -3.88617E+004    3.44386E+006   -1.18740E+006    3.31392E+006    3.40500E+006    1.74971E+004    1.39687E+005   -2.30466E+001   -3.75219E+000   -1.00314E+005
            6972    3.32743E+006    3.42521E+006    3.42521E+006    2.53816E+005   -3.89154E+004    3.46412E+006   -1.21337E+006    3.29827E+006    3.42521E+006    6.37755E+003    2.08523E+005   -2.38558E+001    2.77141E+000   -1.05864E+005
            6973    3.32098E+006    3.44998E+006    3.44998E+006    3.17585E+005   -3.19423E+004    3.48192E+006   -1.24521E+006    3.27922E+006    3.44998E+006   -3.12720E+003    2.88770E+005   -2.55234E+001    8.96741E+000   -9.61318E+004
            6974    3.31405E+006    3.47804E+006    3.47804E+006    3.86991E+005   -2.12069E+004    3.49924E+006   -1.28127E+006    3.25677E+006    3.47804E+006   -6.20970E+003    3.71994E+005   -8.96467E+000    1.34345E+001   -7.67915E+004
            6975    3.33463E+006    3.40603E+006    3.40603E+006    2.18865E+005   -5.87230E+004    3.46475E+006   -1.18872E+006    3.30849E+006    3.40603E+006    7.32812E+004    8.68604E+004    2.02760E+001    1.30523E+001   -1.38628E+005
            6976    3.33476E+006    3.41695E+006    3.41695E+006    2.68581E+005   -7.72554E+004    3.49420E+006   -1.20276E+006    3.29405E+006    3.41695E+006    4.44931E+004    1.46833E+005    3.87660E+001    3.66507E+000   -1.65174E+005
            6977    3.33266E+006    3.43098E+006    3.43098E+006    3.11913E+005   -8.05163E+004    3.51150E+006   -1.22079E+006    3.28007E+006    3.43098E+006    1.38215E+004    2.17575E+005    3.88937E+001   -8.74438E+000   -1.67694E+005
            6978    3.32709E+006    3.45103E+006    3.45103E+006    3.56668E+005   -6.80157E+004    3.51904E+006   -1.24656E+006    3.26528E+006    3.45103E+006   -4.28005E+003    2.92932E+005    3.46740E+001   -2.43114E+001   -1.51675E+005
            6979    3.32038E+006    3.47428E+006    3.47428E+006    4.05835E+005   -5.07805E+004    3.52506E+006   -1.27644E+006    3.24862E+006    3.47428E+006   -1.53823E+004    3.70436E+005    1.27846E+001   -3.50086E+001   -1.22108E+005
            6980    3.33932E+006    3.42109E+006    3.42109E+006    3.11346E+005   -1.08160E+005    3.52925E+006   -1.20809E+006    3.27925E+006    3.42109E+006    1.31254E+005    7.19323E+004   -2.21453E+001   -1.48381E+001   -2.07645E+005
            6981    3.34270E+006    3.42442E+006    3.42442E+006    3.40165E+005   -1.27467E+005    3.55189E+006   -1.21237E+006    3.26789E+006    3.42442E+006    6.93725E+004    1.43325E+005   -4.89151E+001   -1.08734E+001   -2.30874E+005
            6982    3.34042E+006    3.43584E+006    3.43584E+006    3.68371E+005   -1.23071E+005    3.55891E+006   -1.22705E+006    3.25759E+006    3.43584E+006    2.62131E+004    2.19086E+005   -4.80872E+001    1.02079E+001   -2.26006E+005
            6983    3.33607E+006    3.45135E+006    3.45135E+006    4.00403E+005   -1.10831E+005    3.56218E+006   -1.24697E+006    3.24618E+006    3.45135E+006   -8.36084E+003    2.97933E+005   -3.15264E+001    2.81819E+001   -2.04661E+005
            6984    3.32834E+006    3.47197E+006    3.47197E+006    4.34223E+005   -8.57536E+004    3.55772E+006   -1.27348E+006    3.23506E+006    3.47197E+006   -2.66684E+004    3.75138E+005   -6.72012E+000    5.52622E+001   -1.65021E+005
            6985    3.34144E+006    3.46565E+006    3.46565E+006    4.66472E+005   -1.36066E+005    3.60171E+006   -1.26535E+006    3.21579E+006    3.46565E+006   -3.63702E+004    3.66777E+005    6.13133E+000   -5.36509E+001   -2.23900E+005
            6986    3.34866E+006    3.44902E+006    3.44902E+006    4.43454E+005   -1.60523E+005    3.60955E+006   -1.24399E+006    3.22268E+006    3.44902E+006   -5.39808E+002    2.83471E+005    2.61089E+001   -6.22039E+001   -2.66517E+005
            6987    3.35291E+006    3.43735E+006    3.43735E+006    4.24201E+005   -1.74625E+005    3.61197E+006   -1.22897E+006    3.22929E+006    3.43735E+006    4.76699E+004    2.01906E+005    5.06454E+001   -5.36546E+000   -2.89311E+005
            6988    3.35247E+006    3.43078E+006    3.43078E+006    4.02545E+005   -1.71729E+005    3.60251E+006   -1.22053E+006    3.23902E+006    3.43078E+006    1.02432E+005    1.28384E+005    6.95745E+001    7.48394E+000   -2.86844E+005
            6989    3.35139E+006    3.42728E+006    3.42728E+006    3.87434E+005   -1.66608E+005    3.59388E+006   -1.21603E+006    3.24595E+006    3.42728E+006    1.63216E+005    5.76101E+004    2.34923E+001    2.06332E+001   -2.71942E+005
            6990    3.34565E+006    3.44003E+006    3.44003E+006    4.04331E+005   -1.47054E+005    3.58709E+006   -1.23244E+006    3.24105E+006    3.44003E+006    2.41801E+005    1.54758E+004   -1.01485E-001    1.41331E+001   -2.51397E+005
            6991    3.33876E+006    3.46030E+006    3.46030E+006    4.40079E+005   -1.24905E+005    3.58521E+006   -1.25849E+006    3.22857E+006    3.46030E+006    3.32878E+005   -1.77030E+004   -1.47791E+001    1.87521E+001   -2.21529E+005
            6992    3.32304E+006    3.46262E+006    3.46262E+006    3.77896E+005   -5.61019E+004    3.51872E+006   -1.26147E+006    3.25837E+006    3.46262E+006    3.33202E+005   -1.14080E+004   -7.18262E+000   -8.54149E+000   -1.31907E+005
            6993    3.31519E+006    3.46317E+006    3.46317E+006    3.35641E+005   -1.22541E+004    3.47542E+006   -1.26218E+006    3.27375E+006    3.46317E+006    3.29109E+005   -5.72236E+003   -5.26561E+000    3.11959E+000   -4.72197E+004
            6994    3.32991E+006    3.43816E+006    3.43816E+006    3.24033E+005   -7.20835E+004    3.51025E+006   -1.23004E+006    3.27627E+006    3.43816E+006    2.47633E+005    4.31671E+003    3.34231E+000   -1.35948E+001   -1.56290E+005
            6995    3.32266E+006    3.43069E+006    3.43069E+006    2.42247E+005   -1.16272E+004    3.44232E+006   -1.22044E+006    3.30074E+006    3.43069E+006    2.30825E+005   -2.05594E+002   -1.58851E+000    4.48007E+000   -5.26232E+004
            6996    3.33074E+006    3.40262E+006    3.40262E+006    1.61173E+005   -1.07578E+004    3.41338E+006   -1.18434E+006    3.32073E+006    3.40262E+006    1.46014E+005    4.40103E+003   -1.59525E+000   -1.91654E+000   -4.87492E+004
            6997    3.33889E+006    3.37802E+006    3.37802E+006    8.56749E+004   -5.54715E+003    3.38356E+006   -1.15272E+006    3.33608E+006    3.37802E+006    6.95234E+004    1.06043E+004    1.91352E+000    2.07270E+000   -3.48210E+004
            6998    3.34558E+006    3.36049E+006    3.36049E+006    3.07539E+004   -7.15697E+002    3.36121E+006   -1.13018E+006    3.34525E+006    3.36049E+006    2.04210E+004    9.61726E+003   -2.60023E-001   -8.46134E-001   -1.47785E+004
            6999    3.34925E+006    3.35170E+006    3.35170E+006    4.89610E+003    1.41072E+001    3.35168E+006   -1.11887E+006    3.34924E+006    3.35170E+006    2.59758E+003    2.31263E+003    1.12789E+000    8.01082E-001   -2.43683E+003
            7000    3.33292E+006    3.41647E+006    3.41647E+006    2.54256E+005   -6.42851E+004    3.48075E+006   -1.20215E+006    3.29841E+006    3.41647E+006    1.64048E+005    2.59225E+004   -2.22534E+000    3.95180E+000   -1.43518E+005
            7001    3.33523E+006    3.39446E+006    3.39446E+006    1.61517E+005   -3.44120E+004    3.42887E+006   -1.17386E+006    3.32224E+006    3.39446E+006    8.57070E+004    4.13980E+004   -3.25129E-001   -2.97931E+000   -9.54265E+004
            7002    3.33945E+006    3.37700E+006    3.37700E+006    8.70185E+004   -9.82686E+003    3.38682E+006   -1.15140E+006    3.33629E+006    3.37700E+006    3.70068E+004    4.01848E+004    2.89859E+000    2.23697E+000   -4.83966E+004
            7003    3.34648E+006    3.35832E+006    3.35832E+006    2.48029E+004   -9.75817E+002    3.35930E+006   -1.12738E+006    3.34626E+006    3.35832E+006    7.90360E+003    1.59235E+004   -5.25700E-001   -3.58722E-001   -1.22497E+004
            7004    3.33538E+006    3.38816E+006    3.38816E+006    1.17328E+005   -8.22231E+003    3.39638E+006   -1.16575E+006    3.33005E+006    3.38816E+006    9.54712E+003    9.95581E+004   -3.13374E+000   -2.93444E+000   -4.37630E+004
            7005    3.32722E+006    3.41520E+006    3.41520E+006    2.00607E+005   -1.42305E+004    3.42943E+006   -1.20053E+006    3.31156E+006    3.41520E+006    2.19426E+002    1.86157E+005   -3.04472E+000    3.19932E+000   -5.38107E+004
            7006    3.31851E+006    3.44851E+006    3.44851E+006    2.94855E+005   -1.33537E+004    3.46186E+006   -1.24334E+006    3.28608E+006    3.44851E+006   -5.16385E+003    2.86666E+005   -7.69416E+000    5.85665E+000   -4.95693E+004
            7007    3.31083E+006    3.48261E+006    3.48261E+006    3.86658E+005   -7.76359E+003    3.49037E+006   -1.28717E+006    3.25734E+006    3.48261E+006   -3.64082E+003    3.82535E+005   -4.19565E+000    7.23091E+000   -4.01138E+004
            7008    3.33456E+006    3.41097E+006    3.41097E+006    2.41447E+005   -6.71778E+004    3.47815E+006   -1.19508E+006    3.30220E+006    3.41097E+006    4.12414E+004    1.33028E+005    6.67805E+000    1.45740E+000   -1.47330E+005
            7009    3.33186E+006    3.42914E+006    3.42914E+006    3.00232E+005   -7.40701E+004    3.50321E+006   -1.21843E+006    3.28406E+006    3.42914E+006    7.89281E+003    2.18269E+005    1.02139E+001    5.43861E+000   -1.54793E+005
            7010    3.32558E+006    3.45215E+006    3.45215E+006    3.52912E+005   -6.10217E+004    3.51317E+006   -1.24801E+006    3.26687E+006    3.45215E+006   -6.07966E+003    2.97970E+005    2.02209E+001   -1.16402E+001   -1.40441E+005
            7011    3.31911E+006    3.47681E+006    3.47681E+006    4.08554E+005   -4.62496E+004    3.52306E+006   -1.27970E+006    3.24789E+006    3.47681E+006   -1.54309E+004    3.77735E+005    1.15936E+001    1.04944E+001   -1.14310E+005
            7012    3.33597E+006    3.46990E+006    3.46990E+006    4.58704E+005   -1.16126E+005    3.58603E+006   -1.27083E+006    3.22171E+006    3.46990E+006   -3.37227E+004    3.76300E+005   -1.74323E+001    9.06921E+000   -2.01438E+005
            7013    3.34252E+006    3.45256E+006    3.45256E+006    4.30895E+005   -1.37841E+005    3.59040E+006   -1.24854E+006    3.23096E+006    3.45256E+006   -3.99570E+003    2.97050E+005   -2.63491E+001    1.58004E+001   -2.41263E+005
            7014    3.34494E+006    3.43785E+006    3.43785E+006    3.94509E+005   -1.43484E+005    3.58133E+006   -1.22962E+006    3.24546E+006    3.43785E+006    3.87838E+004    2.12241E+005   -1.47850E+001   -4.34109E+000   -2.54632E+005
            7015    3.34819E+006    3.42192E+006    3.42192E+006    3.56850E+005   -1.51305E+005    3.57322E+006   -1.20915E+006    3.25974E+006    3.42192E+006    7.90044E+004    1.26541E+005   -8.60339E+000    7.22020E+000   -2.52964E+005
            7016    3.34811E+006    3.42256E+006    3.42256E+006    3.58559E+005   -1.51190E+005    3.57375E+006   -1.20998E+006    3.25908E+006    3.42256E+006    1.43514E+005    6.38548E+004    5.76423E+000   -8.73942E+000   -2.51744E+005
            7017    3.34399E+006    3.44042E+006    3.44042E+006    3.98763E+005   -1.40389E+005    3.58081E+006   -1.23293E+006    3.24404E+006    3.44042E+006    2.35177E+005    2.31962E+004   -3.02484E+000   -7.38053E+000   -2.47865E+005
            7018    3.33995E+006    3.45779E+006    3.45779E+006    4.36993E+005   -1.28997E+005    3.58678E+006   -1.25526E+006    3.22941E+006    3.45779E+006    3.23713E+005   -1.57161E+004    1.44189E+001   -2.04451E+001   -2.26458E+005
            7019    3.33221E+006    3.47759E+006    3.47759E+006    4.67732E+005   -1.03208E+005    3.58080E+006   -1.28070E+006    3.21940E+006    3.47759E+006    4.04399E+005   -3.98746E+004    6.66849E+000   -3.63629E+000   -1.79299E+005
            7020    3.31744E+006    3.48281E+006    3.48281E+006    4.21412E+005   -4.19513E+004    3.52476E+006   -1.28742E+006    3.24344E+006    3.48281E+006    3.95668E+005   -1.62077E+004    8.30892E+000    2.36048E+000   -1.06141E+005
            7021    3.30969E+006    3.48892E+006    3.48892E+006    4.04066E+005   -7.17092E+003    3.49609E+006   -1.29527E+006    3.25146E+006    3.48892E+006    4.00592E+005   -3.69681E+003    5.06566E+000   -1.96242E+000   -3.76379E+004
            7022    3.32404E+006    3.45693E+006    3.45693E+006    3.62320E+005   -5.67848E+004    3.51372E+006   -1.25416E+006    3.26380E+006    3.45693E+006    3.13281E+005   -7.74652E+003   -9.48336E+000    1.26255E+001   -1.34712E+005
            7023    3.31694E+006    3.45467E+006    3.45467E+006    3.11065E+005   -1.19772E+004    3.46665E+006   -1.25125E+006    3.28127E+006    3.45467E+006    3.03957E+005   -4.86949E+003    5.61568E+000   -5.55688E+000   -4.73873E+004
            7024    3.33096E+006    3.43197E+006    3.43197E+006    3.06062E+005   -7.18217E+004    3.50379E+006   -1.22207E+006    3.28222E+006    3.43197E+006    2.30244E+005    3.99650E+003    4.16058E+000    5.28749E+000   -1.51334E+005
            7025    3.32592E+006    3.41976E+006    3.41976E+006    2.13505E+005   -1.41276E+004    3.43389E+006   -1.20638E+006    3.30832E+006    3.41976E+006    2.00404E+005   -1.02660E+003    2.80094E+000   -1.61383E+000   -5.30150E+004
            7026    3.33441E+006    3.41183E+006    3.41183E+006    2.44154E+005   -6.74442E+004    3.47927E+006   -1.19618E+006    3.30141E+006    3.41183E+006    1.41173E+005    3.55362E+004    2.49130E+000    4.83831E+000   -1.46573E+005
            7027    3.33437E+006    3.39104E+006    3.39104E+006    1.25349E+005   -8.00714E+003    3.39905E+006   -1.16946E+006    3.32837E+006    3.39104E+006    1.08583E+005    8.75877E+003   -1.65187E+000   -2.76324E+000   -4.42125E+004
            7028    3.34230E+006    3.36896E+006    3.36896E+006    5.92698E+004   -5.02176E+003    3.37398E+006   -1.14107E+006    3.34091E+006    3.36896E+006    4.45695E+004    9.67849E+003    1.97941E+000    1.44095E+000   -2.70001E+004
            7029    3.34735E+006    3.35617E+006    3.35617E+006    1.77215E+004   -3.24499E+000    3.35617E+006   -1.12463E+006    3.34724E+006    3.35617E+006    9.28765E+003    8.43057E+003   -1.48758E+000   -1.99023E+000   -8.85199E+003
            7030    3.33532E+006    3.39422E+006    3.39422E+006    1.61150E+005   -3.47191E+004    3.42894E+006   -1.17355E+006    3.32235E+006    3.39422E+006    6.51867E+004    6.12446E+004   -3.74262E+000   -4.02336E+000   -9.79149E+004
            7031    3.34278E+006    3.36774E+006    3.36774E+006    5.61893E+004   -5.41017E+003    3.37315E+006   -1.13951E+006    3.34150E+006    3.36774E+006    1.01308E+004    4.06484E+004    1.79811E+000    1.39541E+000   -2.67543E+004
            7032    3.33115E+006    3.48706E+006    3.48706E+006    4.92495E+005   -1.00922E+005    3.58798E+006   -1.29288E+006    3.20899E+006    3.48706E+006   -5.24340E+004    4.44007E+005   -2.30699E+001   -9.30065E+001   -1.62550E+005
            7033    3.32079E+006    3.49344E+006    3.49344E+006    4.71367E+005   -6.15978E+004    3.55503E+006   -1.30107E+006    3.22245E+006    3.49344E+006   -3.38836E+004    4.43653E+005    2.24200E+001    4.92945E+001   -1.18333E+005
            7034    3.31405E+006    3.49800E+006    3.49800E+006    4.57157E+005   -3.43644E+004    3.53236E+006   -1.30693E+006    3.23052E+006    3.49800E+006   -1.83120E+004    4.41104E+005   -1.60437E+001   -3.69499E+001   -8.73636E+004
            7035    3.30900E+006    3.50411E+006    3.50411E+006    4.54605E+005   -1.43404E+004    3.51845E+006   -1.31479E+006    3.23297E+006    3.50411E+006   -7.94529E+003    4.48210E+005    1.60566E+001    1.55996E+001   -5.43878E+004
            7036    3.30545E+006    3.51264E+006    3.51264E+006    4.67124E+005   -2.52093E+003    3.51516E+006   -1.32575E+006    3.22911E+006    3.51264E+006   -1.75453E+003    4.66357E+005   -5.27424E+000   -9.37341E+000   -1.89564E+004
            7037    3.32260E+006    3.50603E+006    3.50603E+006    5.17609E+005   -7.18542E+004    3.57788E+006   -1.31726E+006    3.20177E+006    3.50603E+006   -5.60897E+004    5.01844E+005   -1.68597E+001   -3.40490E+001   -9.51003E+004
            7038    3.31526E+006    3.51119E+006    3.51119E+006    5.04885E+005   -4.44215E+004    3.55561E+006   -1.32388E+006    3.21048E+006    3.51119E+006   -3.53948E+004    4.95858E+005    4.57448E+001    4.53009E+001   -6.98350E+004
            7039    3.31017E+006    3.51670E+006    3.51670E+006    5.01414E+005   -2.52141E+004    3.54191E+006   -1.33097E+006    3.21389E+006    3.51670E+006   -2.00435E+004    4.96243E+005   -4.63511E+001   -2.63987E+001   -5.19253E+004
            7040    3.30588E+006    3.52441E+006    3.52441E+006    5.08156E+005   -9.91899E+003    3.53433E+006   -1.34088E+006    3.21264E+006    3.52441E+006   -7.86404E+003    5.06101E+005    4.31241E+001    1.03870E+001   -3.25637E+004
            7041    3.30322E+006    3.53412E+006    3.53412E+006    5.28131E+005   -2.16289E+003    3.53629E+006   -1.35336E+006    3.20535E+006    3.53412E+006   -1.92012E+003    5.27888E+005   -1.64399E+001   -6.14446E+000   -1.13436E+004
            7042    3.31799E+006    3.51661E+006    3.51661E+006    5.32296E+005   -5.62854E+004    3.57290E+006   -1.33087E+006    3.19736E+006    3.51661E+006   -5.47652E+004    5.30776E+005   -1.78634E+001   -3.36697E+001   -2.98746E+004
            7043    3.31259E+006    3.52108E+006    3.52108E+006    5.25046E+005   -3.63255E+004    3.55741E+006   -1.33660E+006    3.20294E+006    3.52108E+006   -3.53883E+004    5.24109E+005    5.54196E+001    5.28351E+000   -2.29175E+004
            7044    3.30804E+006    3.52728E+006    3.52728E+006    5.26209E+005   -1.97870E+004    3.54707E+006   -1.34457E+006    3.20430E+006    3.52728E+006   -1.92567E+004    5.25678E+005   -6.39009E+001   -8.85817E+000   -1.70083E+004
            7045    3.30460E+006    3.53533E+006    3.53533E+006    5.37637E+005   -8.20419E+003    3.54354E+006   -1.35492E+006    3.20081E+006    3.53533E+006   -7.99210E+003    5.37425E+005    5.93959E+001    4.21185E+000   -1.07575E+004
            7046    3.30228E+006    3.54577E+006    3.54577E+006    5.60843E+005   -1.61702E+003    3.54739E+006   -1.36833E+006    3.19183E+006    3.54577E+006   -1.59086E+003    5.60817E+005   -2.27259E+001   -2.03265E+000   -3.83522E+003
            7047    3.33141E+006    3.48054E+006    3.48054E+006    4.73713E+005   -1.00752E+005    3.58129E+006   -1.28450E+006    3.21714E+006    3.48054E+006    4.14179E+005   -4.12185E+004   -6.77196E+000   -1.38379E+001    1.75088E+005
            7048    3.31626E+006    3.48814E+006    3.48814E+006    4.34150E+005   -3.94715E+004    3.52761E+006   -1.29427E+006    3.23886E+006    3.48814E+006    4.12089E+005   -1.74105E+004    1.77524E+001    1.23346E+001    9.98092E+004
            7049    3.30850E+006    3.49695E+006    3.49695E+006    4.27250E+005   -7.39419E+003    3.50434E+006   -1.30560E+006    3.24334E+006    3.49695E+006    4.24354E+005   -4.49812E+003   -7.92144E+000   -5.23651E+000    3.53606E+004
            7050    3.32338E+006    3.50009E+006    3.50009E+006    5.02595E+005   -7.37750E+004    3.57387E+006   -1.30964E+006    3.20803E+006    3.50009E+006    4.78566E+005   -4.97461E+004   -2.55223E+001    2.23709E+000    1.15205E+005
            7051    3.31109E+006    3.51064E+006    3.51064E+006    4.85876E+005   -2.69460E+004    3.53758E+006   -1.32319E+006    3.21992E+006    3.51064E+006    4.77565E+005   -1.86350E+004   -6.37114E+000   -1.39368E+000    6.47535E+004
            7052    3.30511E+006    3.52291E+006    3.52291E+006    5.00054E+005   -6.06771E+003    3.52897E+006   -1.33896E+006    3.21618E+006    3.52291E+006    4.98976E+005   -4.98953E+003   -5.61933E+000   -2.51147E+000    2.33351E+004
            7053    3.31748E+006    3.51495E+006    3.51495E+006    5.25289E+005   -5.40369E+004    3.56899E+006   -1.32873E+006    3.20070E+006    3.51495E+006    5.20153E+005   -4.89008E+004   -2.40006E+000    1.29689E+001    5.43057E+004
            7054    3.30857E+006    3.52492E+006    3.52492E+006    5.21039E+005   -2.13291E+004    3.54624E+006   -1.34154E+006    3.20626E+006    3.52492E+006    5.19317E+005   -1.96063E+004    1.97661E+001   -2.93258E+000    3.05193E+004
            7055    3.30327E+006    3.53988E+006    3.53988E+006    5.46644E+005   -4.18035E+003    3.54406E+006   -1.36078E+006    3.19749E+006    3.53988E+006    5.46430E+005   -3.96690E+003   -4.96822E+000   -4.21960E+000    1.08411E+004
            7056    3.31573E+006    3.51939E+006    3.51939E+006    5.32165E+005   -4.82046E+004    3.56760E+006   -1.33445E+006    3.19845E+006    3.51939E+006    5.32149E+005   -4.81889E+004   -8.07527E+000    1.89453E+001   -3.02014E+003
            7057    3.30766E+006    3.52971E+006    3.52971E+006    5.32381E+005   -1.89899E+004    3.54870E+006   -1.34770E+006    3.20181E+006    3.52971E+006    5.32360E+005   -1.89683E+004   -1.53928E+001   -9.01498E+000   -3.45635E+003
            7058    3.30306E+006    3.54445E+006    3.54445E+006    5.59939E+005   -4.44169E+003    3.54889E+006   -1.36665E+006    3.19187E+006    3.54445E+006    5.59935E+005   -4.43789E+003    3.97010E-001   -1.31691E+000   -1.46424E+003
            7059    3.31777E+006    3.51383E+006    3.51383E+006    5.22981E+005   -5.49280E+004    3.56876E+006   -1.32730E+006    3.20158E+006    3.51383E+006    5.16753E+005   -4.86995E+004    8.98580E+000    1.61331E+001   -5.96716E+004
            7060    3.30895E+006    3.52259E+006    3.52259E+006    5.15228E+005   -2.21744E+004    3.54476E+006   -1.33855E+006    3.20856E+006    3.52259E+006    5.12536E+005   -1.94824E+004    1.44495E+001   -5.78200E+000   -3.79396E+004
            7061    3.30347E+006    3.53682E+006    3.53682E+006    5.37797E+005   -4.08645E+003    3.54091E+006   -1.35684E+006    3.20118E+006    3.53682E+006    5.37460E+005   -3.74899E+003    1.21379E+000   -3.45989E+000   -1.35186E+004
            7062    3.32397E+006    3.49815E+006    3.49815E+006    4.98918E+005   -7.56471E+004    3.57379E+006   -1.30714E+006    3.20938E+006    3.49815E+006    4.72362E+005   -4.90910E+004    1.36600E+001    3.81450E+000   -1.20636E+005
            7063    3.31193E+006    3.50632E+006    3.50632E+006    4.75351E+005   -2.87668E+004    3.53508E+006   -1.31763E+006    3.22391E+006    3.50632E+006    4.64938E+005   -1.83540E+004   -2.04243E+001   -2.03625E+000   -7.16997E+004
            7064    3.30592E+006    3.51664E+006    3.51664E+006    4.82884E+005   -6.81632E+003    3.52345E+006   -1.33090E+006    3.22280E+006    3.51664E+006    4.81466E+005   -5.39856E+003    6.30521E+000   -2.40922E+000   -2.63109E+004
            7065    3.30553E+006    3.51236E+006    3.51236E+006    4.66584E+005   -2.76240E+003    3.51512E+006   -1.32539E+006    3.22929E+006    3.51236E+006   -1.99252E+003    4.65814E+005   -1.41069E+000    9.47627E+000    1.89935E+004
            7066    3.30900E+006    3.50410E+006    3.50410E+006    4.54592E+005   -1.43621E+004    3.51846E+006   -1.31478E+006    3.23297E+006    3.50410E+006   -7.92045E+003    4.48150E+005    7.13073E+000   -1.44199E+001    5.45832E+004
            7067    3.31414E+006    3.49799E+006    3.49799E+006    4.57523E+005   -3.47536E+004    3.53274E+006   -1.30692E+006    3.23035E+006    3.49799E+006   -1.86354E+004    4.41404E+005   -6.20874E+000    3.63523E+001    8.76060E+004
            7068    3.32092E+006    3.49347E+006    3.49347E+006    4.72038E+005   -6.21579E+004    3.55563E+006   -1.30112E+006    3.22212E+006    3.49347E+006   -3.43252E+004    4.44205E+005    1.32422E+001   -4.95628E+001    1.18716E+005
            7069    3.33113E+006    3.48717E+006    3.48717E+006    4.92761E+005   -1.00863E+005    3.58804E+006   -1.29302E+006    3.20888E+006    3.48717E+006   -5.25193E+004    4.44418E+005   -1.48052E+001    9.28640E+001    1.62360E+005
            7070    3.30316E+006    3.53419E+006    3.53419E+006    5.28115E+005   -1.95303E+003    3.53614E+006   -1.35345E+006    3.20538E+006    3.53419E+006   -1.71481E+003    5.27877E+005   -1.61489E+001    6.93460E+000    1.12346E+004
            7071    3.30587E+006    3.52446E+006    3.52446E+006    5.08268E+005   -9.88867E+003    3.53435E+006   -1.34095E+006    3.21260E+006    3.52446E+006   -7.86970E+003    5.06249E+005    4.15069E+001   -1.05863E+001    3.22810E+004
            7072    3.31012E+006    3.51671E+006    3.51671E+006    5.01246E+005   -2.50142E+004    3.54172E+006   -1.33098E+006    3.21397E+006    3.51671E+006   -1.98614E+004    4.96093E+005   -4.38212E+001    2.66904E+001    5.18186E+004
            7073    3.31535E+006    3.51117E+006    3.51117E+006    5.05169E+005   -4.47533E+004    3.55592E+006   -1.32386E+006    3.21032E+006    3.51117E+006   -3.57599E+004    4.96175E+005    4.26915E+001   -4.59744E+001    6.97480E+004
            7074    3.32275E+006    3.50593E+006    3.50593E+006    5.17917E+005   -7.24216E+004    3.57835E+006   -1.31714E+006    3.20156E+006    3.50593E+006   -5.65743E+004    5.02070E+005   -1.25234E+001    4.02748E+001    9.54155E+004
            7075    3.30232E+006    3.54574E+006    3.54574E+006    5.60880E+005   -1.75065E+003    3.54749E+006   -1.36829E+006    3.19180E+006    3.54574E+006   -1.72484E+003    5.60854E+005   -2.44042E+001    2.45040E+000    3.81000E+003
            7076    3.30454E+006    3.53541E+006    3.53541E+006    5.37627E+005   -7.97750E+003    3.54339E+006   -1.35502E+006    3.20084E+006    3.53541E+006   -7.76430E+003    5.37414E+005    6.28388E+001   -4.61239E+000    1.07831E+004
            7077    3.30803E+006    3.52731E+006    3.52731E+006    5.26296E+005   -1.97764E+004    3.54709E+006   -1.34461E+006    3.20427E+006    3.52731E+006   -1.92480E+004    5.25768E+005   -6.68872E+001    1.07701E+001    1.69797E+004
            7078    3.31250E+006    3.52113E+006    3.52113E+006    5.24814E+005   -3.59687E+004    3.55710E+006   -1.33666E+006    3.20308E+006    3.52113E+006   -3.50447E+004    5.23890E+005    5.71652E+001   -7.52509E+000    2.27444E+004
            7079    3.31788E+006    3.51663E+006    3.51663E+006    5.31903E+005   -5.58468E+004    3.57247E+006   -1.33089E+006    3.19759E+006    3.51663E+006   -5.43084E+004    5.30365E+005   -1.78310E+001    3.57602E+001    3.00310E+004
            7080    3.35139E+006    3.42720E+006    3.42720E+006    3.87188E+005   -1.66592E+005    3.59379E+006   -1.21593E+006    3.24605E+006    3.42720E+006    1.62845E+005    5.77508E+004    2.06938E+001   -2.02363E+001    2.71858E+005
            7081    3.35250E+006    3.43068E+006    3.43068E+006    4.02351E+005   -1.71821E+005    3.60250E+006   -1.22040E+006    3.23909E+006    3.43068E+006    1.02106E+005    1.28424E+005    6.23692E+001   -9.29424E+000    2.86784E+005
            7082    3.35289E+006    3.43738E+006    3.43738E+006    4.24219E+005   -1.74554E+005    3.61193E+006   -1.22901E+006    3.22930E+006    3.43738E+006    4.69997E+004    2.02665E+005    4.70792E+001    5.74789E+000    2.89092E+005
            7083    3.34861E+006    3.44903E+006    3.44903E+006    4.43282E+005   -1.60328E+005    3.60936E+006   -1.24400E+006    3.22279E+006    3.44903E+006   -1.27193E+003    2.84227E+005    2.56312E+001    5.75224E+001    2.65912E+005
            7084    3.34127E+006    3.46583E+006    3.46583E+006    4.66407E+005   -1.35471E+005    3.60131E+006   -1.26559E+006    3.21590E+006    3.46583E+006   -3.65077E+004    3.67443E+005    8.63916E+000    5.40626E+001    2.23092E+005
            7085    3.32841E+006    3.47185E+006    3.47185E+006    4.34181E+005   -8.60397E+004    3.55789E+006   -1.27333E+006    3.23505E+006    3.47185E+006   -2.66472E+004    3.74788E+005   -1.19352E+001   -5.15712E+001    1.65438E+005
            7086    3.32054E+006    3.47410E+006    3.47410E+006    4.05984E+005   -5.14489E+004    3.52555E+006   -1.27621E+006    3.24852E+006    3.47410E+006   -1.55344E+004    3.70070E+005    1.81557E+001    3.27970E+001    1.23039E+005
            7087    3.31419E+006    3.47786E+006    3.47786E+006    3.87067E+005   -2.17824E+004    3.49964E+006   -1.28105E+006    3.25672E+006    3.47786E+006   -6.52489E+003    3.71809E+005   -1.39062E+001   -1.15653E+001    7.74933E+004
            7088    3.31021E+006    3.48267E+006    3.48267E+006    3.83317E+005   -4.27047E+003    3.48694E+006   -1.28724E+006    3.25858E+006    3.48267E+006   -2.38287E+003    3.81429E+005    6.48017E+000    8.73956E+000    2.69824E+004
            7089    3.33618E+006    3.45097E+006    3.45097E+006    3.99657E+005   -1.11168E+005    3.56213E+006   -1.24649E+006    3.24645E+006    3.45097E+006   -7.82396E+003    2.96313E+005   -3.07300E+001   -2.62229E+001    2.05209E+005
            7090    3.32723E+006    3.45077E+006    3.45077E+006    3.56465E+005   -6.85546E+004    3.51932E+006   -1.24623E+006    3.26532E+006    3.45077E+006   -4.02601E+003    2.91937E+005    3.48194E+001    2.18869E+001    1.52519E+005
            7091    3.32100E+006    3.44999E+006    3.44999E+006    3.17834E+005   -3.21368E+004    3.48213E+006   -1.24523E+006    3.27913E+006    3.44999E+006   -2.89644E+003    2.88593E+005   -2.59810E+001   -7.12652E+000    9.68414E+004
            7092    3.31724E+006    3.44965E+006    3.44965E+006    2.90596E+005   -5.88170E+003    3.45553E+006   -1.24479E+006    3.28723E+006    3.44965E+006   -1.96561E+003    2.86680E+005    1.09403E+001    6.53060E+000    3.38481E+004
            7093    3.34058E+006    3.43545E+006    3.43545E+006    3.67803E+005   -1.23619E+005    3.55907E+006   -1.22654E+006    3.25777E+006    3.43545E+006    2.73724E+004    2.16812E+005   -4.50588E+001   -8.06858E+000    2.26720E+005
            7094    3.33282E+006    3.43069E+006    3.43069E+006    3.11757E+005   -8.11760E+004    3.51187E+006   -1.22042E+006    3.28010E+006    3.43069E+006    1.46041E+004    2.15977E+005    3.58348E+001    7.97481E+000    1.68705E+005
            7095    3.32744E+006    3.42549E+006    3.42549E+006    2.55163E+005   -3.94680E+004    3.46495E+006   -1.21373E+006    3.29790E+006    3.42549E+006    6.24329E+003    2.09452E+005   -2.23870E+001   -2.07579E+000    1.06670E+005
            7096    3.32587E+006    3.41759E+006    3.41759E+006    2.00248E+005   -7.10153E+003    3.42469E+006   -1.20358E+006    3.31128E+006    3.41759E+006   -3.42039E+002    1.93489E+005    7.70105E+000    3.18629E+000    3.68224E+004
            7097    3.34274E+006    3.42424E+006    3.42424E+006    3.39739E+005   -1.27568E+005    3.55181E+006   -1.21214E+006    3.26804E+006    3.42424E+006    6.99633E+004    1.42208E+005   -4.45017E+001    1.04256E+001    2.30844E+005
            7098    3.33481E+006    3.41697E+006    3.41697E+006    2.68999E+005   -7.75961E+004    3.49457E+006   -1.20279E+006    3.29392E+006    3.41697E+006    4.48874E+004    1.46515E+005    3.53131E+001   -4.32924E+000    1.65680E+005
            7099    3.33256E+006    3.40541E+006    3.40541E+006    1.97638E+005   -3.92827E+004    3.44469E+006   -1.18792E+006    3.31353E+006    3.40541E+006    1.80448E+004    1.40311E+005   -2.01286E+001    3.98332E+000    1.01467E+005
            7100    3.33453E+006    3.39046E+006    3.39046E+006    1.22696E+005   -7.05925E+003    3.39751E+006   -1.16870E+006    3.32884E+006    3.39046E+006    2.63017E+003    1.13006E+005    6.43653E+000   -1.33897E+000    3.41081E+004
            7101    3.33937E+006    3.42106E+006    3.42106E+006    3.11449E+005   -1.08370E+005    3.52943E+006   -1.20805E+006    3.27921E+006    3.42106E+006    1.31398E+005    7.16814E+004   -1.96895E+001    1.52917E+001    2.07775E+005
            7102    3.33461E+006    3.40590E+006    3.40590E+006    2.18015E+005   -5.82440E+004    3.46414E+006   -1.18856E+006    3.30872E+006    3.40590E+006    7.25945E+004    8.71764E+004    1.72291E+001   -1.29621E+001    1.37937E+005
            7103    3.33600E+006    3.39025E+006    3.39025E+006    1.42892E+005   -2.78377E+004    3.41809E+006   -1.16844E+006    3.32615E+006    3.39025E+006    3.01320E+004    8.49224E+004   -9.95272E+000    8.77481E+000    8.08497E+004
            7104    3.34191E+006    3.37010E+006    3.37010E+006    6.36201E+004   -6.14960E+003    3.37625E+006   -1.14252E+006    3.34027E+006    3.37010E+006    5.28784E+003    5.21827E+004    3.59949E+000   -3.93851E+000    2.58297E+004
            7105    3.34632E+006    3.35870E+006    3.35870E+006    2.58523E+004   -9.33171E+002    3.35964E+006   -1.12787E+006    3.34608E+006    3.35870E+006    8.39534E+003    1.65238E+004   -7.58870E-001    6.73950E-001    1.27612E+004
            7106    3.34925E+006    3.35169E+006    3.35169E+006    4.86710E+003    1.66569E+001    3.35167E+006   -1.11886E+006    3.34924E+006    3.35169E+006    2.56858E+003    2.31518E+003    1.19454E+000   -9.00738E-001    2.42191E+003
            7107    3.33947E+006    3.37693E+006    3.37693E+006    8.66223E+004   -9.62169E+003    3.38655E+006   -1.15131E+006    3.33635E+006    3.37693E+006    3.66946E+004    4.03060E+004    3.31670E+000   -2.41109E+000    4.80881E+004
            7108    3.34552E+006    3.36065E+006    3.36065E+006    3.11799E+004   -6.95671E+002    3.36134E+006   -1.13038E+006    3.34518E+006    3.36065E+006    2.04786E+004    1.00056E+004   -4.29350E-001    9.07605E-001    1.50530E+004
            7109    3.33528E+006    3.39425E+006    3.39425E+006    1.60705E+005   -3.42142E+004    3.42846E+006   -1.17358E+006    3.32243E+006    3.39425E+006    8.52085E+004    4.12821E+004   -8.52146E-001    2.71539E+000    9.49525E+004
            7110    3.33893E+006    3.37795E+006    3.37795E+006    8.58594E+004   -5.92235E+003    3.38388E+006   -1.15263E+006    3.33609E+006    3.37795E+006    6.97624E+004    1.01746E+004    1.93871E+000   -2.12506E+000    3.49041E+004
            7111    3.33291E+006    3.41651E+006    3.41651E+006    2.54383E+005   -6.42820E+004    3.48080E+006   -1.20221E+006    3.29837E+006    3.41651E+006    1.64044E+005    2.60577E+004   -2.17806E+000   -4.31019E+000    1.43621E+005
            7112    3.33069E+006    3.40272E+006    3.40272E+006    1.61146E+005   -1.04613E+004    3.41318E+006   -1.18447E+006    3.32072E+006    3.40272E+006    1.46105E+005    4.58004E+003   -1.72888E+000    2.03255E+000    4.85279E+004
            7113    3.32256E+006    3.43105E+006    3.43105E+006    2.43167E+005   -1.15234E+004    3.44258E+006   -1.22090E+006    3.30049E+006    3.43105E+006    2.31795E+005   -1.51440E+002   -1.76295E+000   -4.93748E+000    5.26023E+004
            7114    3.31507E+006    3.46384E+006    3.46384E+006    3.37573E+005   -1.22896E+004    3.47613E+006   -1.26304E+006    3.27315E+006    3.46384E+006    3.31117E+005   -5.83382E+003   -5.59690E+000   -3.90427E+000    4.70847E+004
            7115    3.32982E+006    3.43842E+006    3.43842E+006    3.24474E+005   -7.18034E+004    3.51022E+006   -1.23036E+006    3.27614E+006    3.43842E+006    2.48395E+005    4.27579E+003    3.26603E+000    1.45254E+001    1.56078E+005
            7116    3.32293E+006    3.46296E+006    3.46296E+006    3.78514E+005   -5.57477E+004    3.51871E+006   -1.26191E+006    3.25817E+006    3.46296E+006    3.34461E+005   -1.16944E+004   -6.64100E+000    1.05697E+001    1.31111E+005
            7117    3.33885E+006    3.46027E+006    3.46027E+006    4.40315E+005   -1.25230E+005    3.58550E+006   -1.25845E+006    3.22844E+006    3.46027E+006    3.32362E+005   -1.72773E+004   -1.48592E+001   -2.07569E+001    2.22257E+005
            7118    3.34569E+006    3.44001E+006    3.44001E+006    4.04420E+005   -1.47217E+005    3.58723E+006   -1.23240E+006    3.24100E+006    3.44001E+006    2.41177E+005    1.60255E+004   -9.79120E-001   -1.70275E+001    2.51799E+005
            7119    3.34814E+006    3.42203E+006    3.42203E+006    3.56991E+005   -1.51122E+005    3.57316E+006   -1.20930E+006    3.25970E+006    3.42203E+006    7.96700E+004    1.26198E+005    1.64645E+001    2.57609E+000    2.52989E+005
            7120    3.34499E+006    3.43776E+006    3.43776E+006    3.94571E+005   -1.43742E+005    3.58150E+006   -1.22953E+006    3.24538E+006    3.43776E+006    3.84628E+004    2.12367E+005    2.25192E+001   -1.50755E+001    2.54725E+005
            7121    3.34250E+006    3.45246E+006    3.45246E+006    4.30495E+005   -1.37721E+005    3.59018E+006   -1.24841E+006    3.23114E+006    3.45246E+006   -4.20760E+003    2.96982E+005    2.94611E+001    5.85377E+000    2.40912E+005
            7122    3.33587E+006    3.46989E+006    3.46989E+006    4.58420E+005   -1.15831E+005    3.58572E+006   -1.27083E+006    3.22184E+006    3.46989E+006   -3.37297E+004    3.76319E+005    1.80460E+001   -2.32470E+000    2.01012E+005
            7123    3.31926E+006    3.47647E+006    3.47647E+006    4.08140E+005   -4.67870E+004    3.52326E+006   -1.27927E+006    3.24801E+006    3.47647E+006   -1.54233E+004    3.76776E+005   -1.60412E+001   -7.47626E+000    1.15258E+005
            7124    3.31104E+006    3.48165E+006    3.48165E+006    3.84164E+005   -8.01515E+003    3.48967E+006   -1.28593E+006    3.25817E+006    3.48165E+006   -3.80510E+003    3.79953E+005    3.45036E+000   -1.10528E+001    4.04150E+004
            7125    3.32569E+006    3.45180E+006    3.45180E+006    3.52315E+005   -6.13845E+004    3.51319E+006   -1.24758E+006    3.26705E+006    3.45180E+006   -5.76813E+003    2.96699E+005   -2.39178E+001   -2.68360E+001    1.41121E+005
            7126    3.31871E+006    3.44766E+006    3.44766E+006    2.92459E+005   -1.33962E+004    3.46106E+006   -1.24224E+006    3.28678E+006    3.44766E+006   -5.05953E+003    2.84122E+005    7.60031E+000   -8.28988E+000    4.98028E+004
            7127    3.33186E+006    3.42897E+006    3.42897E+006    2.99661E+005   -7.39481E+004    3.50292E+006   -1.21823E+006    3.28424E+006    3.42897E+006    8.38644E+003    2.17327E+005   -1.33973E+001   -3.40575E+000    1.54861E+005
            7128    3.32729E+006    3.41499E+006    3.41499E+006    2.00046E+005   -1.42875E+004    3.42928E+006   -1.20025E+006    3.31171E+006    3.41499E+006    1.92281E+002    1.85567E+005    2.99573E+000   -4.07269E+000    5.37945E+004
            7129    3.33456E+006    3.41084E+006    3.41084E+006    2.40943E+005   -6.70094E+004    3.47785E+006   -1.19493E+006    3.30234E+006    3.41084E+006    4.12822E+004    1.32652E+005   -9.34593E+000    2.89727E-001    1.47043E+005
            7130    3.33531E+006    3.38832E+006    3.38832E+006    1.17789E+005   -8.20718E+003    3.39653E+006   -1.16597E+006    3.32995E+006    3.38832E+006    9.55241E+003    1.00029E+005    3.00229E+000   -2.06619E+000    4.38433E+004
            7131    3.34269E+006    3.36795E+006    3.36795E+006    5.66638E+004   -5.27742E+003    3.37323E+006   -1.13978E+006    3.34140E+006    3.36795E+006    1.02094E+004    4.11769E+004   -3.00314E+000    6.85483E+000    2.68222E+004
            7132    3.34735E+006    3.35618E+006    3.35618E+006    1.77328E+004   -5.20506E+000    3.35619E+006   -1.12464E+006    3.34725E+006    3.35618E+006    9.12171E+003    8.60592E+003   -7.35096E-002    1.38207E+000    8.86527E+003
            7133    3.33534E+006    3.39417E+006    3.39417E+006    1.61004E+005   -3.47306E+004    3.42890E+006   -1.17348E+006    3.32238E+006    3.39417E+006    6.50932E+004    6.11802E+004    2.56107E+000   -3.18087E-001    9.78478E+004
            7134    3.34239E+006    3.36875E+006    3.36875E+006    5.88291E+004   -5.17639E+003    3.37393E+006   -1.14080E+006    3.34101E+006    3.36875E+006    4.40562E+004    9.59650E+003   -3.71906E+000    4.04114E+000    2.69686E+004
            7135    3.33454E+006    3.39057E+006    3.39057E+006    1.24022E+005   -8.04497E+003    3.39861E+006   -1.16885E+006    3.32865E+006    3.39057E+006    1.07262E+005    8.71502E+003    3.69175E+000   -1.24248E+000    4.39607E+004
            7136    3.32613E+006    3.41905E+006    3.41905E+006    2.11451E+005   -1.41438E+004    3.43319E+006   -1.20545E+006    3.30886E+006    3.41905E+006    1.98332E+005   -1.02466E+003    5.70616E+000   -6.40413E-001    5.27967E+004
            7137    3.31703E+006    3.45440E+006    3.45440E+006    3.10290E+005   -1.20231E+004    3.46642E+006   -1.25089E+006    3.28152E+006    3.45440E+006    3.03293E+005   -5.02697E+003    6.57947E+000   -4.96603E+000    4.69680E+004
            7138    3.30953E+006    3.48943E+006    3.48943E+006    4.05041E+005   -6.71204E+003    3.49614E+006   -1.29592E+006    3.25115E+006    3.48943E+006    4.01661E+005   -3.33162E+003    8.49120E+000   -1.10832E+000    3.71547E+004
            7139    3.33443E+006    3.41175E+006    3.41175E+006    2.44030E+005   -6.75196E+004    3.47927E+006   -1.19609E+006    3.30145E+006    3.41175E+006    1.41188E+005    3.53214E+004    2.01170E+000    1.01430E+001    1.46505E+005
            7140    3.33096E+006    3.43197E+006    3.43197E+006    3.06080E+005   -7.18161E+004    3.50379E+006   -1.22208E+006    3.28221E+006    3.43197E+006    2.30754E+005    3.50997E+003    4.86814E+000    1.25298E+001    1.50968E+005
            7141    3.32396E+006    3.45707E+006    3.45707E+006    3.62412E+005   -5.64779E+004    3.51355E+006   -1.25433E+006    3.26378E+006    3.45707E+006    3.13763E+005   -7.82971E+003    2.40067E+001    2.09413E+001    1.34207E+005
            7142    3.31732E+006    3.48287E+006    3.48287E+006    4.20939E+005   -4.13549E+004    3.52422E+006   -1.28748E+006    3.24366E+006    3.48287E+006    3.95302E+005   -1.57184E+004    4.31922E+000    9.84417E+000    1.05803E+005
            7143    3.33223E+006    3.47770E+006    3.47770E+006    4.68240E+005   -1.03351E+005    3.58105E+006   -1.28086E+006    3.21915E+006    3.47770E+006    4.04860E+005   -3.99706E+004   -2.45330E+000    4.55098E+000    1.79473E+005
            7144    3.34003E+006    3.45777E+006    3.45777E+006    4.37132E+005   -1.29231E+005    3.58700E+006   -1.25522E+006    3.22934E+006    3.45777E+006    3.23315E+005   -1.54140E+004   -3.62992E+000   -2.02139E+001    2.26952E+005
            7145    3.34396E+006    3.44035E+006    3.44035E+006    3.98537E+005   -1.40317E+005    3.58067E+006   -1.23286E+006    3.24412E+006    3.44035E+006    2.34716E+005    2.35039E+004    1.13091E+001   -1.19868E+001    2.47867E+005
            7146    3.34817E+006    3.42243E+006    3.42243E+006    3.58372E+005   -1.51376E+005    3.57381E+006   -1.20981E+006    3.25915E+006    3.42243E+006    1.43746E+005    6.32493E+004    1.29041E+000   -1.42352E+001    2.51676E+005
            7147    3.30675E+006    3.51024E+006    3.51024E+006    4.65079E+005   -7.29899E+003    3.51754E+006   -1.32267E+006    3.22954E+006    3.51024E+006   -5.43663E+003    4.63217E+005    4.14753E+000   -7.53997E+000    2.96019E+004
            7148    3.31339E+006    3.49997E+006    3.49997E+006    4.60831E+005   -3.23729E+004    3.53234E+006   -1.30948E+006    3.22925E+006    3.49997E+006   -1.85262E+004    4.46984E+005   -1.66078E+001   -4.57747E+001    8.14711E+004
            7149    3.32782E+006    3.48989E+006    3.48989E+006    4.88418E+005   -8.87681E+004    3.57866E+006   -1.29651E+006    3.21230E+006    3.48989E+006   -4.83429E+004    4.47993E+005    6.30827E+000    1.06515E+001    1.47305E+005
            7150    3.30401E+006    3.53199E+006    3.53199E+006    5.24572E+005   -4.70776E+003    3.53670E+006   -1.35062E+006    3.20654E+006    3.53199E+006   -4.14180E+003    5.24006E+005    3.79453E+000   -8.50128E+000    1.72982E+004
            7151    3.30966E+006    3.51823E+006    3.51823E+006    5.04223E+005   -2.36400E+004    3.54187E+006   -1.33294E+006    3.21290E+006    3.51823E+006   -1.91068E+004    4.99690E+005   -1.39193E+001    3.87897E+000    4.87068E+004
            7152    3.32030E+006    3.50791E+006    3.50791E+006    5.14556E+005   -6.34408E+004    3.57135E+006   -1.31968E+006    3.20417E+006    3.50791E+006   -5.02735E+004    5.01389E+005   -8.28440E+000    1.18320E+001    8.62398E+004
            7153    3.30311E+006    3.54321E+006    3.54321E+006    5.56136E+005   -4.24475E+003    3.54746E+006   -1.36503E+006    3.19353E+006    3.54321E+006   -4.18433E+003    5.56075E+005    3.37196E+000   -1.23386E+000    5.81838E+003
            7154    3.30788E+006    3.52835E+006    3.52835E+006    5.29009E+005   -1.94984E+004    3.54785E+006   -1.34595E+006    3.20317E+006    3.52835E+006   -1.90597E+004    5.28570E+005   -1.32994E+001   -3.20106E+001    1.55051E+004
            7155    3.31630E+006    3.51819E+006    3.51819E+006    5.30428E+005   -5.00053E+004    3.56820E+006   -1.33287E+006    3.19901E+006    3.51819E+006   -4.85814E+004    5.29004E+005   -1.77533E+001   -1.29468E+000    2.87134E+004
            7156    3.30862E+006    3.49630E+006    3.49630E+006    4.25505E+005   -7.49422E+003    3.50380E+006   -1.30477E+006    3.24395E+006    3.49630E+006    4.22558E+005   -4.54710E+003   -7.49888E+000   -3.46494E+000   -3.56008E+004
            7157    3.31642E+006    3.48777E+006    3.48777E+006    4.33634E+005   -3.99976E+004    3.52777E+006   -1.29380E+006    3.23901E+006    3.48777E+006    4.11217E+005   -1.75807E+004   -3.42635E+001    1.54828E+001   -1.00573E+005
            7158    3.33127E+006    3.48064E+006    3.48064E+006    4.73543E+005   -1.00261E+005    3.58090E+006   -1.28464E+006    3.21726E+006    3.48064E+006    4.14282E+005   -4.09995E+004   -3.21325E+000   -9.52177E+000   -1.74621E+005
            7159    3.30516E+006    3.52245E+006    3.52245E+006    4.98771E+005   -6.09971E+003    3.52855E+006   -1.33837E+006    3.21669E+006    3.52245E+006    4.97669E+005   -4.99780E+003   -8.83827E+000    4.52581E-002   -2.35607E+004
            7160    3.31112E+006    3.51053E+006    3.51053E+006    4.85644E+005   -2.70354E+004    3.53756E+006   -1.32304E+006    3.22001E+006    3.51053E+006    4.77284E+005   -1.86756E+004   -8.72249E+000    2.89980E+000   -6.49306E+004
            7161    3.32339E+006    3.50008E+006    3.50008E+006    5.02525E+005   -7.37689E+004    3.57384E+006   -1.30961E+006    3.20807E+006    3.50008E+006    4.78447E+005   -4.96910E+004    2.12317E+001    1.11876E+001   -1.15309E+005
            7162    3.30331E+006    3.53972E+006    3.53972E+006    5.46177E+005   -4.21080E+003    3.54393E+006   -1.36056E+006    3.19770E+006    3.53972E+006    5.45956E+005   -3.98971E+003   -3.71615E+000   -3.57104E-001   -1.10289E+004
            7163    3.30854E+006    3.52494E+006    3.52494E+006    5.20944E+005   -2.11806E+004    3.54612E+006   -1.34157E+006    3.20632E+006    3.52494E+006    5.19210E+005   -1.94463E+004   -3.09813E+001    2.24916E+000   -3.06137E+004
            7164    3.31741E+006    3.51498E+006    3.51498E+006    5.25085E+005   -5.37506E+004    3.56873E+006   -1.32877E+006    3.20082E+006    3.51498E+006    5.19844E+005   -4.85098E+004   -3.11333E+000    2.81613E+001   -5.48281E+004
            7165    3.30309E+006    3.54448E+006    3.54448E+006    5.60079E+005   -4.51143E+003    3.54900E+006   -1.36668E+006    3.19181E+006    3.54448E+006    5.60076E+005   -4.50802E+003   -3.19073E+000    3.56542E+000    1.38674E+003
            7166    3.30771E+006    3.52972E+006    3.52972E+006    5.32598E+005   -1.91809E+004    3.54890E+006   -1.34771E+006    3.20171E+006    3.52972E+006    5.32578E+005   -1.91609E+004    1.11202E+001   -4.04493E+000    3.31870E+003
            7167    3.31580E+006    3.51945E+006    3.51945E+006    5.32419E+005   -4.83747E+004    3.56783E+006   -1.33450E+006    3.19834E+006    3.51945E+006    5.32410E+005   -4.83663E+004    1.13459E+001    3.99052E+001    2.19911E+003
            7168    3.30346E+006    3.53710E+006    3.53710E+006    5.38564E+005   -4.09498E+003    3.54120E+006   -1.35719E+006    3.20088E+006    3.53710E+006    5.38230E+005   -3.76072E+003    3.52940E+000    4.86174E-001    1.34638E+004
            7169    3.30893E+006    3.52275E+006    3.52275E+006    5.15575E+005   -2.20958E+004    3.54484E+006   -1.33874E+006    3.20844E+006    3.52275E+006    5.12890E+005   -1.94105E+004   -1.23940E+001   -6.41443E-001    3.79028E+004
            7170    3.31765E+006    3.51398E+006    3.51398E+006    5.22943E+005   -5.44873E+004    3.56846E+006   -1.32748E+006    3.20166E+006    3.51398E+006    5.16954E+005   -4.84983E+004   -8.51119E+000    3.69530E+001    5.85009E+004
            7171    3.30587E+006    3.51715E+006    3.51715E+006    4.84240E+005   -6.76066E+003    3.52391E+006   -1.33154E+006    3.22230E+006    3.51715E+006    4.82844E+005   -5.36501E+003    3.98333E+000    1.06928E-001    2.61404E+004
            7172    3.31186E+006    3.50633E+006    3.50633E+006    4.75043E+005   -2.84379E+004    3.53477E+006   -1.31765E+006    3.22407E+006    3.50633E+006    4.64691E+005   -1.80863E+004    2.93814E+001    4.42990E+000    7.14469E+004
            7173    3.32390E+006    3.49840E+006    3.49840E+006    4.99275E+005   -7.53377E+004    3.57374E+006   -1.30745E+006    3.20929E+006    3.49840E+006    4.72998E+005   -4.90608E+004   -4.11562E+000    2.08616E+001    1.20036E+005
            7174    3.32787E+006    3.48986E+006    3.48986E+006    4.88492E+005   -8.89492E+004    3.57881E+006   -1.29647E+006    3.21225E+006    3.48986E+006   -4.85935E+004    4.48136E+005    3.89162E+000   -9.24164E+000   -1.47223E+005
            7175    3.31328E+006    3.50020E+006    3.50020E+006    4.61076E+005   -3.19801E+004    3.53218E+006   -1.30976E+006    3.22919E+006    3.50020E+006   -1.83243E+004    4.47420E+005   -1.73614E+001    4.56034E+001   -8.09109E+004
            7176    3.30674E+006    3.51057E+006    3.51057E+006    4.66086E+005   -7.36840E+003    3.51794E+006   -1.32310E+006    3.22916E+006    3.51057E+006   -5.53213E+003    4.64250E+005    4.60044E+000    7.23210E+000   -2.94282E+004
            7177    3.32026E+006    3.50803E+006    3.50803E+006    5.14706E+005   -6.32750E+004    3.57130E+006   -1.31982E+006    3.20413E+006    3.50803E+006   -5.02664E+004    5.01697E+005   -1.28144E+001   -1.04172E+001   -8.57292E+004
            7178    3.30964E+006    3.51820E+006    3.51820E+006    5.04040E+005   -2.35518E+004    3.54175E+006   -1.33289E+006    3.21299E+006    3.51820E+006   -1.90110E+004    4.99499E+005   -1.43553E+001   -7.74536E+000   -4.87346E+004
            7179    3.30397E+006    3.53216E+006    3.53216E+006    5.24942E+005   -4.59739E+003    3.53676E+006   -1.35084E+006    3.20641E+006    3.53216E+006   -4.03862E+003    5.24384E+005    4.49143E+000    7.92807E+000   -1.71924E+004
            7180    3.31624E+006    3.51829E+006    3.51829E+006    5.30449E+005   -4.97700E+004    3.56806E+006   -1.33299E+006    3.19904E+006    3.51829E+006   -4.84150E+004    5.29094E+005   -2.02100E+001    3.98487E+000   -2.80057E+004
            7181    3.30784E+006    3.52835E+006    3.52835E+006    5.28839E+005   -1.93425E+004    3.54769E+006   -1.34595E+006    3.20325E+006    3.52835E+006   -1.88743E+004    5.28370E+005   -1.25626E+001    2.83069E+001   -1.60141E+004
            7182    3.30312E+006    3.54321E+006    3.54321E+006    5.56153E+005   -4.28166E+003    3.54749E+006   -1.36503E+006    3.19352E+006    3.54321E+006   -4.22003E+003    5.56092E+005    3.28442E+000    3.81305E-001   -5.87664E+003
            7183    3.34203E+006    3.36975E+006    3.36975E+006    6.20596E+004   -5.59485E+003    3.37534E+006   -1.14207E+006    3.34049E+006    3.36975E+006    5.75262E+003    5.07122E+004   -4.27371E+000   -2.51398E+000   -2.52773E+004
            7184    3.33488E+006    3.38954E+006    3.38954E+006    1.20350E+005   -7.36577E+003    3.39690E+006   -1.16751E+006    3.32937E+006    3.38954E+006    2.35483E+003    1.10629E+005   -8.17393E+000   -3.48859E+000   -3.38671E+004
            7185    3.32606E+006    3.41697E+006    3.41697E+006    1.98378E+005   -7.03943E+003    3.42401E+006   -1.20277E+006    3.31175E+006    3.41697E+006   -4.45734E+002    1.91784E+005   -7.14739E+000   -3.20014E+000   -3.62075E+004
            7186    3.31721E+006    3.44967E+006    3.44967E+006    2.90278E+005   -5.53421E+003    3.45521E+006   -1.24480E+006    3.28734E+006    3.44967E+006   -1.69923E+003    2.86443E+005   -9.69923E+000   -4.66014E+000   -3.34623E+004
            7187    3.31024E+006    3.48267E+006    3.48267E+006    3.83399E+005   -4.37883E+003    3.48705E+006   -1.28723E+006    3.25856E+006    3.48267E+006   -2.52080E+003    3.81541E+005   -2.90914E+000   -4.46247E+000   -2.67778E+004
            7188    3.33601E+006    3.39021E+006    3.39021E+006    1.42788E+005   -2.78235E+004    3.41804E+006   -1.16839E+006    3.32617E+006    3.39021E+006    3.03783E+004    8.45864E+004    2.01604E+001    1.05191E+001   -8.08855E+004
            7189    3.33261E+006    3.40500E+006    3.40500E+006    1.96064E+005   -3.88365E+004    3.44384E+006   -1.18741E+006    3.31390E+006    3.40500E+006    1.75265E+004    1.39701E+005    3.22608E+001    2.12017E+000   -1.00314E+005
            7190    3.32741E+006    3.42521E+006    3.42521E+006    2.53837E+005   -3.88912E+004    3.46410E+006   -1.21339E+006    3.29825E+006    3.42521E+006    6.41181E+003    2.08534E+005    2.94579E+001   -9.89461E+000   -1.05873E+005
            7191    3.32097E+006    3.44998E+006    3.44998E+006    3.17595E+005   -3.19347E+004    3.48191E+006   -1.24521E+006    3.27920E+006    3.44998E+006   -3.10793E+003    2.88768E+005    3.00896E+001   -2.01631E+001   -9.61500E+004
            7192    3.31405E+006    3.47804E+006    3.47804E+006    3.86997E+005   -2.12052E+004    3.49924E+006   -1.28128E+006    3.25677E+006    3.47804E+006   -6.19839E+003    3.71990E+005    1.29010E+001   -2.59638E+001   -7.68154E+004
            7193    3.33463E+006    3.40602E+006    3.40602E+006    2.18862E+005   -5.87222E+004    3.46474E+006   -1.18872E+006    3.30848E+006    3.40602E+006    7.32774E+004    8.68624E+004   -2.28838E+001   -1.50041E+001   -1.38626E+005
            7194    3.33476E+006    3.41693E+006    3.41693E+006    2.68566E+005   -7.72709E+004    3.49420E+006   -1.20274E+006    3.29405E+006    3.41693E+006    4.44714E+004    1.46824E+005   -4.08738E+001   -1.01812E+001   -1.65172E+005
            7195    3.33265E+006    3.43097E+006    3.43097E+006    3.11900E+005   -8.05251E+004    3.51149E+006   -1.22078E+006    3.28007E+006    3.43097E+006    1.37994E+004    2.17575E+005   -3.68891E+001   -3.28732E-002   -1.67685E+005
            7196    3.32709E+006    3.45103E+006    3.45103E+006    3.56666E+005   -6.80056E+004    3.51903E+006   -1.24656E+006    3.26528E+006    3.45103E+006   -4.28752E+003    2.92948E+005   -3.10284E+001    1.28714E+001   -1.51655E+005
            7197    3.32038E+006    3.47428E+006    3.47428E+006    4.05833E+005   -5.07715E+004    3.52505E+006   -1.27645E+006    3.24862E+006    3.47428E+006   -1.53889E+004    3.70451E+005   -7.20095E+000    2.24473E+001   -1.22082E+005
            7198    3.33932E+006    3.42109E+006    3.42109E+006    3.11349E+005   -1.08160E+005    3.52925E+006   -1.20809E+006    3.27925E+006    3.42109E+006    1.31258E+005    7.19311E+004    2.32027E+001    1.46959E+001   -2.07647E+005
            7199    3.34270E+006    3.42444E+006    3.42444E+006    3.40185E+005   -1.27453E+005    3.55189E+006   -1.21239E+006    3.26789E+006    3.42444E+006    6.93920E+004    1.43339E+005    5.37617E+001    7.41414E+000   -2.30877E+005
            7200    3.34042E+006    3.43586E+006    3.43586E+006    3.68383E+005   -1.23068E+005    3.55892E+006   -1.22706E+006    3.25760E+006    3.43586E+006    2.62288E+004    2.19086E+005    5.35071E+001   -2.01849E+001   -2.26015E+005
            7201    3.33608E+006    3.45134E+006    3.45134E+006    4.00404E+005   -1.10848E+005    3.56219E+006   -1.24697E+006    3.24618E+006    3.45134E+006   -8.35990E+003    2.97916E+005    3.84935E+001   -4.09118E+001   -2.04679E+005
            7202    3.32835E+006    3.47198E+006    3.47198E+006    4.34224E+005   -8.57668E+004    3.55774E+006   -1.27348E+006    3.23507E+006    3.47198E+006   -2.66643E+004    3.75121E+005    1.47683E+001   -6.92177E+001   -1.65044E+005
            7203    3.34143E+006    3.46564E+006    3.46564E+006    4.66471E+005   -1.36058E+005    3.60170E+006   -1.26535E+006    3.21578E+006    3.46564E+006   -3.63721E+004    3.66785E+005   -1.53911E+000    4.73240E+001   -2.23889E+005
            7204    3.34864E+006    3.44903E+006    3.44903E+006    4.43466E+005   -1.60496E+005    3.60952E+006   -1.24400E+006    3.22267E+006    3.44903E+006   -5.24833E+002    2.83495E+005   -2.75707E+001    5.40100E+001   -2.66506E+005
            7205    3.35288E+006    3.43731E+006    3.43731E+006    4.24185E+005   -1.74630E+005    3.61194E+006   -1.22896E+006    3.22927E+006    3.43731E+006    4.76597E+004    2.01895E+005   -5.57326E+001   -4.31849E+000   -2.89306E+005
            7206    3.35243E+006    3.43074E+006    3.43074E+006    4.02534E+005   -1.71731E+005    3.60247E+006   -1.22051E+006    3.23899E+006    3.43074E+006    1.02422E+005    1.28381E+005   -7.90519E+001   -1.75141E+001   -2.86839E+005
            7207    3.35137E+006    3.42726E+006    3.42726E+006    3.87431E+005   -1.66606E+005    3.59386E+006   -1.21603E+006    3.24593E+006    3.42726E+006    1.63215E+005    5.76095E+004   -3.39899E+001   -2.76997E+001   -2.71939E+005
            7208    3.34564E+006    3.44003E+006    3.44003E+006    4.04326E+005   -1.47052E+005    3.58708E+006   -1.23243E+006    3.24105E+006    3.44003E+006    2.41800E+005    1.54739E+004   -9.86788E+000   -2.00828E+001   -2.51393E+005
            7209    3.33876E+006    3.46030E+006    3.46030E+006    4.40080E+005   -1.24906E+005    3.58520E+006   -1.25849E+006    3.22857E+006    3.46030E+006    3.32881E+005   -1.77081E+004    5.76297E+000   -2.28796E+001   -2.21526E+005
            7210    3.32303E+006    3.46262E+006    3.46262E+006    3.77911E+005   -5.60842E+004    3.51871E+006   -1.26148E+006    3.25836E+006    3.46262E+006    3.33211E+005   -1.13842E+004   -7.52623E+000    1.24794E+001   -1.31915E+005
            7211    3.31521E+006    3.46316E+006    3.46316E+006    3.35633E+005   -1.22735E+004    3.47544E+006   -1.26217E+006    3.27376E+006    3.46316E+006    3.29104E+005   -5.74511E+003   -8.47538E+000   -3.16912E+000   -4.72086E+004
            7212    3.32990E+006    3.43815E+006    3.43815E+006    3.24034E+005   -7.20830E+004    3.51024E+006   -1.23003E+006    3.27626E+006    3.43815E+006    2.47629E+005    4.32237E+003   -1.34245E+001    1.62461E+001   -1.56294E+005
            7213    3.32267E+006    3.43069E+006    3.43069E+006    2.42245E+005   -1.16325E+004    3.44233E+006   -1.22044E+006    3.30074E+006    3.43069E+006    2.30826E+005   -2.13501E+002   -7.04296E+000   -3.88099E+000   -5.26178E+004
            7214    3.33074E+006    3.40261E+006    3.40261E+006    1.61173E+005   -1.07618E+004    3.41337E+006   -1.18434E+006    3.32073E+006    3.40261E+006    1.46014E+005    4.39690E+003   -1.36258E+000    3.19949E+000   -4.87495E+004
            7215    3.33889E+006    3.37802E+006    3.37802E+006    8.56779E+004   -5.54635E+003    3.38356E+006   -1.15272E+006    3.33608E+006    3.37802E+006    6.95263E+004    1.06052E+004    9.59108E-001   -1.20575E+000   -3.48216E+004
            7216    3.34558E+006    3.36049E+006    3.36049E+006    3.07536E+004   -7.14405E+002    3.36121E+006   -1.13018E+006    3.34525E+006    3.36049E+006    2.04212E+004    9.61795E+003    4.52213E+000    2.14059E+000   -1.47777E+004
            7217    3.34925E+006    3.35170E+006    3.35170E+006    4.89596E+003    1.29913E+001    3.35169E+006   -1.11887E+006    3.34924E+006    3.35170E+006    2.59706E+003    2.31189E+003    1.16973E+000    6.79965E-001   -2.43732E+003
            7218    3.33291E+006    3.41647E+006    3.41647E+006    2.54266E+005   -6.42748E+004    3.48074E+006   -1.20215E+006    3.29840E+006    3.41647E+006    1.64059E+005    2.59321E+004   -7.20357E-001   -3.18039E+000   -1.43518E+005
            7219    3.33523E+006    3.39446E+006    3.39446E+006    1.61512E+005   -3.44164E+004    3.42887E+006   -1.17385E+006    3.32224E+006    3.39446E+006    8.57007E+004    4.13944E+004    2.10615E+000    5.08159E+000   -9.54263E+004
            7220    3.33945E+006    3.37700E+006    3.37700E+006    8.70233E+004   -9.82213E+003    3.38682E+006   -1.15140E+006    3.33629E+006    3.37700E+006    3.70130E+004    4.01881E+004    1.33568E+000    1.34216E-001   -4.83967E+004
            7221    3.34648E+006    3.35832E+006    3.35832E+006    2.48042E+004   -9.77464E+002    3.35930E+006   -1.12738E+006    3.34626E+006    3.35832E+006    7.90238E+003    1.59244E+004    2.46229E+000    3.12575E+000   -1.22510E+004
            7222    3.33537E+006    3.38816E+006    3.38816E+006    1.17331E+005   -8.21611E+003    3.39637E+006   -1.16576E+006    3.33005E+006    3.38816E+006    9.55050E+003    9.95648E+004    3.00958E+000    2.23577E+000   -4.37596E+004
            7223    3.32723E+006    3.41520E+006    3.41520E+006    2.00593E+005   -1.42550E+004    3.42945E+006   -1.20051E+006    3.31157E+006    3.41520E+006    1.90309E+002    1.86148E+005    3.28038E+000    4.49230E+000   -5.38041E+004
            7224    3.31852E+006    3.44851E+006    3.44851E+006    2.94850E+005   -1.33752E+004    3.46188E+006   -1.24333E+006    3.28609E+006    3.44851E+006   -5.18958E+003    2.86665E+005    7.99897E+000    8.42862E+000   -4.95582E+004
            7225    3.31084E+006    3.48261E+006    3.48261E+006    3.86647E+005   -7.78262E+003    3.49039E+006   -1.28716E+006    3.25736E+006    3.48261E+006   -3.66334E+003    3.82528E+005    3.95440E+000    1.10137E+001   -4.00974E+004
            7226    3.33456E+006    3.41095E+006    3.41095E+006    2.41442E+005   -6.71882E+004    3.47814E+006   -1.19507E+006    3.30219E+006    3.41095E+006    4.12367E+004    1.33017E+005   -1.08001E+001    4.09009E-001   -1.47334E+005
            7227    3.33184E+006    3.42915E+006    3.42915E+006    3.00261E+005   -7.40419E+004    3.50319E+006   -1.21846E+006    3.28404E+006    3.42915E+006    7.92524E+003    2.18294E+005   -1.59276E+001    3.44655E+000   -1.54796E+005
            7228    3.32557E+006    3.45214E+006    3.45214E+006    3.52911E+005   -6.10145E+004    3.51316E+006   -1.24801E+006    3.26686E+006    3.45214E+006   -6.06391E+003    2.97961E+005   -2.70309E+001    2.85889E+001   -1.40449E+005
            7229    3.31910E+006    3.47682E+006    3.47682E+006    4.08577E+005   -4.62304E+004    3.52305E+006   -1.27972E+006    3.24789E+006    3.47682E+006   -1.54051E+004    3.77752E+005   -1.84570E+001    6.70452E+000   -1.14321E+005
            7230    3.33595E+006    3.46988E+006    3.46988E+006    4.58701E+005   -1.16128E+005    3.58601E+006   -1.27082E+006    3.22169E+006    3.46988E+006   -3.37311E+004    3.76304E+005    1.64685E+001    6.88096E-001   -2.01432E+005
            7231    3.34252E+006    3.45256E+006    3.45256E+006    4.30894E+005   -1.37839E+005    3.59040E+006   -1.24854E+006    3.23096E+006    3.45256E+006   -3.99544E+003    2.97050E+005    3.22725E+001   -5.15881E+000   -2.41261E+005
            7232    3.34492E+006    3.43782E+006    3.43782E+006    3.94497E+005   -1.43490E+005    3.58131E+006   -1.22961E+006    3.24544E+006    3.43782E+006    3.87718E+004    2.12235E+005    2.33699E+001    1.52118E+001   -2.54628E+005
            7233    3.34819E+006    3.42193E+006    3.42193E+006    3.56857E+005   -1.51289E+005    3.57322E+006   -1.20916E+006    3.25974E+006    3.42193E+006    7.90148E+004    1.26553E+005    1.75172E+001   -1.95314E+000   -2.52959E+005
            7234    3.34810E+006    3.42257E+006    3.42257E+006    3.58570E+005   -1.51173E+005    3.57374E+006   -1.20999E+006    3.25908E+006    3.42257E+006    1.43528E+005    6.38691E+004    2.68472E-001    1.53659E+001   -2.51740E+005
            7235    3.34397E+006    3.44039E+006    3.44039E+006    3.98751E+005   -1.40398E+005    3.58079E+006   -1.23292E+006    3.24402E+006    3.44039E+006    2.35170E+005    2.31834E+004    1.30515E+001    1.04787E+001   -2.47863E+005
            7236    3.33996E+006    3.45780E+006    3.45780E+006    4.36997E+005   -1.28991E+005    3.58679E+006   -1.25527E+006    3.22942E+006    3.45780E+006    3.23718E+005   -1.57114E+004   -6.20767E+000    1.97432E+001   -2.26456E+005
            7237    3.33220E+006    3.47757E+006    3.47757E+006    4.67731E+005   -1.03209E+005    3.58078E+006   -1.28070E+006    3.21938E+006    3.47757E+006    4.04402E+005   -3.98801E+004    1.36510E+000   -3.87082E+000   -1.79294E+005
            7238    3.31745E+006    3.48283E+006    3.48283E+006    4.21430E+005   -4.19418E+004    3.52477E+006   -1.28744E+006    3.24344E+006    3.48283E+006    3.95682E+005   -1.61939E+004    4.81238E+000   -8.67704E+000   -1.06150E+005
            7239    3.30969E+006    3.48892E+006    3.48892E+006    4.04059E+005   -7.17985E+003    3.49609E+006   -1.29526E+006    3.25147E+006    3.48892E+006    4.00587E+005   -3.70798E+003    9.34214E+000    6.07327E-001   -3.76260E+004
            7240    3.32403E+006    3.45692E+006    3.45692E+006    3.62312E+005   -5.67851E+004    3.51371E+006   -1.25415E+006    3.26380E+006    3.45692E+006    3.13268E+005   -7.74093E+003    2.44674E+001   -1.89015E+001   -1.34718E+005
            7241    3.31696E+006    3.45467E+006    3.45467E+006    3.11064E+005   -1.19898E+004    3.46666E+006   -1.25125E+006    3.28128E+006    3.45467E+006    3.03959E+005   -4.88509E+003    6.99000E+000    4.50583E+000   -4.73785E+004
            7242    3.33095E+006    3.43198E+006    3.43198E+006    3.06088E+005   -7.17988E+004    3.50378E+006   -1.22209E+006    3.28220E+006    3.43198E+006    2.30267E+005    4.02248E+003    4.74794E+000   -1.06246E+001   -1.51337E+005
            7243    3.32593E+006    3.41976E+006    3.41976E+006    2.13496E+005   -1.41439E+004    3.43390E+006   -1.20637E+006    3.30833E+006    3.41976E+006    2.00398E+005   -1.04635E+003    5.51793E+000    2.82442E-001   -5.30092E+004
            7244    3.33440E+006    3.41181E+006    3.41181E+006    2.44144E+005   -6.74568E+004    3.47927E+006   -1.19617E+006    3.30141E+006    3.41181E+006    1.41161E+005    3.55270E+004    1.02695E+000   -9.99565E+000   -1.46575E+005
            7245    3.33437E+006    3.39105E+006    3.39105E+006    1.25356E+005   -7.99609E+003    3.39904E+006   -1.16947E+006    3.32836E+006    3.39105E+006    1.08592E+005    8.76838E+003    3.69784E+000    1.54376E+000   -4.42101E+004
            7246    3.34230E+006    3.36896E+006    3.36896E+006    5.92704E+004   -5.02344E+003    3.37398E+006   -1.14107E+006    3.34091E+006    3.36896E+006    4.45700E+004    9.67699E+003   -4.08174E+000   -3.99750E+000   -2.70008E+004
            7247    3.34735E+006    3.35617E+006    3.35617E+006    1.77204E+004   -5.60476E+000    3.35618E+006   -1.12463E+006    3.34725E+006    3.35617E+006    9.28612E+003    8.42865E+003   -1.50877E-001   -1.37534E+000   -8.85261E+003
            7248    3.33532E+006    3.39423E+006    3.39423E+006    1.61160E+005   -3.47078E+004    3.42893E+006   -1.17356E+006    3.32234E+006    3.39423E+006    6.51970E+004    6.12552E+004    2.35842E+000    5.60151E-001   -9.79140E+004
            7249    3.34278E+006    3.36774E+006    3.36774E+006    5.61902E+004   -5.41131E+003    3.37315E+006   -1.13951E+006    3.34150E+006    3.36774E+006    1.01293E+004    4.06496E+004   -3.39423E+000   -6.98124E+000   -2.67547E+004
            7250    3.33117E+006    3.48708E+006    3.48708E+006    4.92509E+005   -1.00911E+005    3.58800E+006   -1.29289E+006    3.20900E+006    3.48708E+006   -5.24301E+004    4.44028E+005    3.51635E+001    8.88864E+001   -1.62539E+005
            7251    3.32079E+006    3.49343E+006    3.49343E+006    4.71363E+005   -6.16045E+004    3.55504E+006   -1.30106E+006    3.22245E+006    3.49343E+006   -3.38792E+004    4.43638E+005   -1.42701E+001   -6.12973E+001   -1.18355E+005
            7252    3.31405E+006    3.49800E+006    3.49800E+006    4.57157E+005   -3.43578E+004    3.53236E+006   -1.30693E+006    3.23052E+006    3.49800E+006   -1.83144E+004    4.41114E+005    2.42399E+001    2.58914E+001   -8.73395E+004
            7253    3.30901E+006    3.50412E+006    3.50412E+006    4.54606E+005   -1.43474E+004    3.51847E+006   -1.31479E+006    3.23298E+006    3.50412E+006   -7.94722E+003    4.48205E+005   -1.13915E+001   -2.70039E+001   -5.44100E+004
            7254    3.30545E+006    3.51264E+006    3.51264E+006    4.67128E+005   -2.50785E+003    3.51515E+006   -1.32575E+006    3.22911E+006    3.51264E+006   -1.74299E+003    4.66363E+005    6.78376E+000   -3.82853E+000   -1.89373E+004
            7255    3.32263E+006    3.50605E+006    3.50605E+006    5.17611E+005   -7.18759E+004    3.57792E+006   -1.31726E+006    3.20180E+006    3.50605E+006   -5.61138E+004    5.01849E+005    3.59466E+001    3.21645E+001   -9.50952E+004
            7256    3.31525E+006    3.51119E+006    3.51119E+006    5.04891E+005   -4.43998E+004    3.55559E+006   -1.32389E+006    3.21047E+006    3.51119E+006   -3.53692E+004    4.95861E+005   -3.76079E+001   -5.32272E+001   -6.98487E+004
            7257    3.31017E+006    3.51669E+006    3.51669E+006    5.01406E+005   -2.52209E+004    3.54192E+006   -1.33096E+006    3.21389E+006    3.51669E+006   -2.00534E+004    4.96239E+005    5.71962E+001    1.88159E+001   -5.19100E+004
            7258    3.30590E+006    3.52443E+006    3.52443E+006    5.08157E+005   -9.92715E+003    3.53435E+006   -1.34089E+006    3.21266E+006    3.52443E+006   -7.87046E+003    5.06100E+005   -3.67006E+001   -1.79230E+001   -3.25777E+004
            7259    3.30320E+006    3.53413E+006    3.53413E+006    5.28139E+005   -2.13454E+003    3.53626E+006   -1.35338E+006    3.20534E+006    3.53413E+006   -1.89225E+003    5.27897E+005    1.73712E+001   -2.93721E+000   -1.13324E+004
            7260    3.31806E+006    3.51666E+006    3.51666E+006    5.32297E+005   -5.63194E+004    3.57297E+006   -1.33088E+006    3.19741E+006    3.51666E+006   -5.47994E+004    5.30777E+005    4.13627E+001    3.29395E+001   -2.98734E+004
            7261    3.31257E+006    3.52109E+006    3.52109E+006    5.25054E+005   -3.62922E+004    3.55738E+006   -1.33662E+006    3.20293E+006    3.52109E+006   -3.53547E+004    5.24116E+005   -4.74293E+001   -7.66412E+000   -2.29215E+004
            7262    3.30804E+006    3.52727E+006    3.52727E+006    5.26200E+005   -1.97984E+004    3.54707E+006   -1.34456E+006    3.20431E+006    3.52727E+006   -1.92683E+004    5.25670E+005    7.63350E+001    6.78673E+000   -1.70040E+004
            7263    3.30463E+006    3.53535E+006    3.53535E+006    5.37638E+005   -8.21479E+003    3.54357E+006   -1.35493E+006    3.20084E+006    3.53535E+006   -8.00254E+003    5.37426E+005   -5.15322E+001   -6.54104E+000   -1.07617E+004
            7264    3.30226E+006    3.54577E+006    3.54577E+006    5.60853E+005   -1.58036E+003    3.54735E+006   -1.36835E+006    3.19182E+006    3.54577E+006   -1.55425E+003    5.60827E+005    2.29658E+001   -7.60316E-001   -3.83205E+003
            7265    3.33141E+006    3.48053E+006    3.48053E+006    4.73710E+005   -1.00755E+005    3.58128E+006   -1.28449E+006    3.21713E+006    3.48053E+006    4.14180E+005   -4.12248E+004   -2.32288E+000    9.92777E+000    1.75084E+005
            7266    3.31626E+006    3.48814E+006    3.48814E+006    4.34153E+005   -3.94690E+004    3.52761E+006   -1.29428E+006    3.23886E+006    3.48814E+006    4.12087E+005   -1.74024E+004   -3.38745E+001   -1.74392E+001    9.98212E+004
            7267    3.30851E+006    3.49695E+006    3.49695E+006    4.27245E+005   -7.40612E+003    3.50436E+006   -1.30560E+006    3.24335E+006    3.49695E+006    4.24352E+005   -4.51243E+003   -7.52851E+000    4.30859E+000    3.53465E+004
            7268    3.32339E+006    3.50011E+006    3.50011E+006    5.02603E+005   -7.37640E+004    3.57387E+006   -1.30965E+006    3.20804E+006    3.50011E+006    4.78576E+005   -4.97368E+004    1.92185E+001   -1.41529E+001    1.15201E+005
            7269    3.31110E+006    3.51064E+006    3.51064E+006    4.85872E+005   -2.69509E+004    3.53759E+006   -1.32319E+006    3.21993E+006    3.51064E+006    4.77558E+005   -1.86370E+004   -7.30842E+000   -3.60011E+000    6.47645E+004
            7270    3.30512E+006    3.52291E+006    3.52291E+006    5.00050E+005   -6.08070E+003    3.52899E+006   -1.33896E+006    3.21620E+006    3.52291E+006    4.98973E+005   -5.00383E+003   -7.86891E+000    1.80677E-001    2.33212E+004
            7271    3.31748E+006    3.51496E+006    3.51496E+006    5.25300E+005   -5.40268E+004    3.56899E+006   -1.32875E+006    3.20070E+006    3.51496E+006    5.20165E+005   -4.88911E+004   -1.70693E+000   -3.20434E+001    5.43035E+004
            7272    3.30858E+006    3.52492E+006    3.52492E+006    5.21034E+005   -2.13397E+004    3.54626E+006   -1.34154E+006    3.20627E+006    3.52492E+006    5.19310E+005   -1.96163E+004   -2.78653E+001   -1.52442E+000    3.05251E+004
            7273    3.30329E+006    3.53989E+006    3.53989E+006    5.46637E+005   -4.19376E+003    3.54408E+006   -1.36078E+006    3.19751E+006    3.53989E+006    5.46424E+005   -3.98054E+003   -2.98849E+000    2.14862E-001    1.08351E+004
            7274    3.31575E+006    3.51944E+006    3.51944E+006    5.32180E+005   -4.81824E+004    3.56762E+006   -1.33448E+006    3.19847E+006    3.51944E+006    5.32164E+005   -4.81667E+004    7.68171E+000   -4.07184E+001   -3.02143E+003
            7275    3.30767E+006    3.52970E+006    3.52970E+006    5.32366E+005   -1.90081E+004    3.54871E+006   -1.34769E+006    3.20182E+006    3.52970E+006    5.32344E+005   -1.89864E+004    1.42810E+001    4.44738E+000   -3.45457E+003
            7276    3.30308E+006    3.54446E+006    3.54446E+006    5.59935E+005   -4.45485E+003    3.54891E+006   -1.36665E+006    3.19188E+006    3.54446E+006    5.59931E+005   -4.45104E+003   -1.86072E+000   -3.78686E+000   -1.46638E+003
            7277    3.31777E+006    3.51384E+006    3.51384E+006    5.22994E+005   -5.49163E+004    3.56876E+006   -1.32731E+006    3.20158E+006    3.51384E+006    5.16766E+005   -4.86884E+004   -6.52329E+000   -3.69648E+001   -5.96688E+004
            7278    3.30897E+006    3.52260E+006    3.52260E+006    5.15227E+005   -2.21836E+004    3.54478E+006   -1.33855E+006    3.20857E+006    3.52260E+006    5.12535E+005   -1.94912E+004   -9.37938E+000    6.58622E-001   -3.79428E+004
            7279    3.30348E+006    3.53683E+006    3.53683E+006    5.37790E+005   -4.09880E+003    3.54092E+006   -1.35684E+006    3.20119E+006    3.53683E+006    5.37453E+005   -3.76152E+003    4.86807E+000   -4.50812E-001   -1.35150E+004
            7280    3.32398E+006    3.49818E+006    3.49818E+006    4.98926E+005   -7.56334E+004    3.57381E+006   -1.30716E+006    3.20940E+006    3.49818E+006    4.72370E+005   -4.90774E+004   -8.01657E+000   -1.86324E+001   -1.20635E+005
            7281    3.31193E+006    3.50631E+006    3.50631E+006    4.75336E+005   -2.87808E+004    3.53509E+006   -1.31762E+006    3.22392E+006    3.50631E+006    4.64921E+005   -1.83658E+004    3.26230E+001   -3.91518E+000   -7.17071E+004
            7282    3.30593E+006    3.51664E+006    3.51664E+006    4.82883E+005   -6.82586E+003    3.52347E+006   -1.33090E+006    3.22281E+006    3.51664E+006    4.81466E+005   -5.40915E+003    4.84381E+000   -5.37939E-001   -2.63015E+004
            7283    3.30553E+006    3.51236E+006    3.51236E+006    4.66587E+005   -2.75553E+003    3.51512E+006   -1.32540E+006    3.22929E+006    3.51236E+006   -1.98716E+003    4.65818E+005    2.82397E+000    4.61017E+000    1.89747E+004
            7284    3.30901E+006    3.50410E+006    3.50410E+006    4.54592E+005   -1.43680E+004    3.51847E+006   -1.31478E+006    3.23298E+006    3.50410E+006   -7.92123E+003    4.48145E+005   -2.73474E+000    2.66075E+001    5.46051E+004
            7285    3.31414E+006    3.49799E+006    3.49799E+006    4.57524E+005   -3.47447E+004    3.53274E+006   -1.30692E+006    3.23035E+006    3.49799E+006   -1.86355E+004    4.41415E+005    1.34899E+001   -2.44856E+001    8.75816E+004
            7286    3.32092E+006    3.49347E+006    3.49347E+006    4.72035E+005   -6.21679E+004    3.55564E+006   -1.30111E+006    3.22212E+006    3.49347E+006   -3.43239E+004    4.44191E+005   -5.32211E+000    6.21741E+001    1.18740E+005
            7287    3.33114E+006    3.48720E+006    3.48720E+006    4.92777E+005   -1.00849E+005    3.58804E+006   -1.29304E+006    3.20889E+006    3.48720E+006   -5.25137E+004    4.44441E+005    2.54450E+001   -8.81526E+001    1.62348E+005
            7288    3.30315E+006    3.53419E+006    3.53419E+006    5.28123E+005   -1.92553E+003    3.53612E+006   -1.35346E+006    3.20537E+006    3.53419E+006   -1.68782E+003    5.27885E+005    1.69489E+001    3.34222E+000    1.12223E+004
            7289    3.30589E+006    3.52447E+006    3.52447E+006    5.08270E+005   -9.89650E+003    3.53437E+006   -1.34095E+006    3.21261E+006    3.52447E+006   -7.87566E+003    5.06249E+005   -3.53485E+001    1.92765E+001    3.22962E+004
            7290    3.31012E+006    3.51671E+006    3.51671E+006    5.01239E+005   -2.50205E+004    3.54173E+006   -1.33097E+006    3.21398E+006    3.51671E+006   -1.98710E+004    4.96090E+005    5.43797E+001   -1.81000E+001    5.18021E+004
            7291    3.31534E+006    3.51117E+006    3.51117E+006    5.05172E+005   -4.47327E+004    3.55591E+006   -1.32387E+006    3.21032E+006    3.51117E+006   -3.57349E+004    4.96174E+005   -3.52857E+001    5.48254E+001    6.97635E+004
            7292    3.32279E+006    3.50596E+006    3.50596E+006    5.17918E+005   -7.24449E+004    3.57841E+006   -1.31714E+006    3.20160E+006    3.50596E+006   -5.66005E+004    5.02073E+005    3.14183E+001   -3.79756E+001    9.54093E+004
            7293    3.30229E+006    3.54574E+006    3.54574E+006    5.60891E+005   -1.71255E+003    3.54745E+006   -1.36831E+006    3.19179E+006    3.54574E+006   -1.68679E+003    5.60865E+005    2.45477E+001    1.75679E+000    3.80649E+003
            7294    3.30457E+006    3.53543E+006    3.53543E+006    5.37629E+005   -7.98776E+003    3.54342E+006   -1.35502E+006    3.20087E+006    3.53543E+006   -7.77438E+003    5.37415E+005   -5.51176E+001    8.18648E+000    1.07878E+004
            7295    3.30804E+006    3.52731E+006    3.52731E+006    5.26285E+005   -1.97898E+004    3.54710E+006   -1.34460E+006    3.20427E+006    3.52731E+006   -1.92617E+004    5.25757E+005    7.94921E+001   -7.41004E+000    1.69747E+004
            7296    3.31248E+006    3.52113E+006    3.52113E+006    5.24825E+005   -3.59314E+004    3.55706E+006   -1.33667E+006    3.20307E+006    3.52113E+006   -3.50070E+004    5.23901E+005   -4.98874E+001    1.10818E+001    2.27489E+004
            7297    3.31794E+006    3.51667E+006    3.51667E+006    5.31907E+005   -5.58841E+004    3.57256E+006   -1.33090E+006    3.19764E+006    3.51667E+006   -5.43459E+004    5.30369E+005    4.15801E+001   -3.42662E+001    3.00298E+004
            7298    3.35137E+006    3.42718E+006    3.42718E+006    3.87185E+005   -1.66589E+005    3.59377E+006   -1.21593E+006    3.24604E+006    3.42718E+006    1.62846E+005    5.77499E+004   -3.23555E+001    2.68315E+001    2.71855E+005
            7299    3.35246E+006    3.43064E+006    3.43064E+006    4.02340E+005   -1.71824E+005    3.60246E+006   -1.22039E+006    3.23906E+006    3.43064E+006    1.02096E+005    1.28420E+005   -7.24439E+001    1.89928E+001    2.86780E+005
            7300    3.35286E+006    3.43734E+006    3.43734E+006    4.24202E+005   -1.74558E+005    3.61190E+006   -1.22900E+006    3.22927E+006    3.43734E+006    4.69906E+004    2.02653E+005   -5.31687E+001    3.79967E+000    2.89086E+005
            7301    3.34859E+006    3.44903E+006    3.44903E+006    4.43294E+005   -1.60301E+005    3.60933E+006   -1.24401E+006    3.22277E+006    3.44903E+006   -1.25743E+003    2.84250E+005   -2.82796E+001   -4.90430E+001    2.65901E+005
            7302    3.34126E+006    3.46582E+006    3.46582E+006    4.66403E+005   -1.35462E+005    3.60128E+006   -1.26559E+006    3.21589E+006    3.46582E+006   -3.65081E+004    3.67449E+005   -5.24483E+000   -4.73136E+001    2.23081E+005
            7303    3.32843E+006    3.47186E+006    3.47186E+006    4.34179E+005   -8.60561E+004    3.55792E+006   -1.27333E+006    3.23506E+006    3.47186E+006   -2.66463E+004    3.74769E+005    1.92271E+001    6.56389E+001    1.65462E+005
            7304    3.32054E+006    3.47410E+006    3.47410E+006    4.05983E+005   -5.14387E+004    3.52553E+006   -1.27621E+006    3.24852E+006    3.47410E+006   -1.55395E+004    3.70084E+005   -1.34278E+001   -1.95355E+001    1.23014E+005
            7305    3.31418E+006    3.47786E+006    3.47786E+006    3.87073E+005   -2.17791E+004    3.49964E+006   -1.28105E+006    3.25672E+006    3.47786E+006   -6.51257E+003    3.71806E+005    1.75865E+001    2.44232E+001    7.75158E+004
            7306    3.31023E+006    3.48268E+006    3.48268E+006    3.83312E+005   -4.28578E+003    3.48696E+006   -1.28723E+006    3.25859E+006    3.48268E+006   -2.40114E+003    3.81428E+005   -4.93805E+000    5.74959E+000    2.69617E+004
            7307    3.33619E+006    3.45097E+006    3.45097E+006    3.99660E+005   -1.11185E+005    3.56215E+006   -1.24648E+006    3.24645E+006    3.45097E+006   -7.82356E+003    2.96299E+005    3.66293E+001    3.88664E+001    2.05227E+005
            7308    3.32723E+006    3.45077E+006    3.45077E+006    3.56464E+005   -6.85437E+004    3.51931E+006   -1.24623E+006    3.26532E+006    3.45077E+006   -4.03185E+003    2.91952E+005   -3.21885E+001   -1.02416E+001    1.52500E+005
            7309    3.32099E+006    3.44999E+006    3.44999E+006    3.17844E+005   -3.21293E+004    3.48212E+006   -1.24524E+006    3.27912E+006    3.44999E+006   -2.87795E+003    2.88592E+005    3.04700E+001    1.83708E+001    9.68583E+004
            7310    3.31726E+006    3.44965E+006    3.44965E+006    2.90587E+005   -5.90691E+003    3.45555E+006   -1.24478E+006    3.28725E+006    3.44965E+006   -1.99495E+003    2.86675E+005   -1.00183E+001    5.38724E+000    3.38315E+004
            7311    3.34059E+006    3.43546E+006    3.43546E+006    3.67813E+005   -1.23617E+005    3.55908E+006   -1.22655E+006    3.25777E+006    3.43546E+006    2.73857E+004    2.16810E+005    4.93061E+001    1.76204E+001    2.26728E+005
            7312    3.33282E+006    3.43068E+006    3.43068E+006    3.11744E+005   -8.11833E+004    3.51186E+006   -1.22041E+006    3.28010E+006    3.43068E+006    1.45845E+004    2.15977E+005   -3.47649E+001    8.17606E-001    1.68696E+005
            7313    3.32742E+006    3.42549E+006    3.42549E+006    2.55183E+005   -3.94454E+004    3.46493E+006   -1.21374E+006    3.29788E+006    3.42549E+006    6.27515E+003    2.09462E+005    2.77788E+001    9.12833E+000    1.06678E+005
            7314    3.32589E+006    3.41759E+006    3.41759E+006    2.00235E+005   -7.13538E+003    3.42472E+006   -1.20356E+006    3.31130E+006    3.41759E+006   -3.80150E+002    1.93480E+005   -6.78627E+000    4.00779E+000    3.68131E+004
            7315    3.34274E+006    3.42426E+006    3.42426E+006    3.39759E+005   -1.27554E+005    3.55181E+006   -1.21215E+006    3.26804E+006    3.42426E+006    6.99819E+004    1.42223E+005    4.81602E+001   -7.55617E+000    2.30848E+005
            7316    3.33481E+006    3.41696E+006    3.41696E+006    2.68985E+005   -7.76107E+004    3.49457E+006   -1.20278E+006    3.29392E+006    3.41696E+006    4.48680E+004    1.46506E+005   -3.83257E+001    1.06751E+001    1.65679E+005
            7317    3.33254E+006    3.40541E+006    3.40541E+006    1.97655E+005   -3.92595E+004    3.44467E+006   -1.18794E+006    3.31351E+006    3.40541E+006    1.80710E+004    1.40324E+005    2.90226E+001   -2.46214E+000    1.01467E+005
            7318    3.33454E+006    3.39045E+006    3.39045E+006    1.22689E+005   -7.07788E+003    3.39753E+006   -1.16869E+006    3.32886E+006    3.39045E+006    2.60980E+003    1.13001E+005   -6.88686E+000    3.54529E+000    3.41070E+004
            7319    3.33937E+006    3.42106E+006    3.42106E+006    3.11451E+005   -1.08371E+005    3.52943E+006   -1.20805E+006    3.27921E+006    3.42106E+006    1.31401E+005    7.16795E+004    1.98912E+001   -1.57965E+001    2.07776E+005
            7320    3.33460E+006    3.40589E+006    3.40589E+006    2.18014E+005   -5.82420E+004    3.46413E+006   -1.18855E+006    3.30871E+006    3.40589E+006    7.25932E+004    8.71791E+004   -2.05747E+001    1.46479E+001    1.37935E+005
            7321    3.33600E+006    3.39025E+006    3.39025E+006    1.42895E+005   -2.78349E+004    3.41808E+006   -1.16844E+006    3.32615E+006    3.39025E+006    3.01362E+004    8.49243E+004    1.86442E+001   -1.10779E+001    8.08503E+004
            7322    3.34191E+006    3.37010E+006    3.37010E+006    6.36252E+004   -6.14560E+003    3.37625E+006   -1.14253E+006    3.34027E+006    3.37010E+006    5.29325E+003    5.21863E+004   -3.95259E+000    2.97060E+000    2.58312E+004
            7323    3.34632E+006    3.35870E+006    3.35870E+006    2.58545E+004   -9.34073E+002    3.35964E+006   -1.12787E+006    3.34608E+006    3.35870E+006    8.39538E+003    1.65251E+004    2.57152E+000   -3.35270E+000    1.27626E+004
            7324    3.34926E+006    3.35169E+006    3.35169E+006    4.86670E+003    1.51875E+001    3.35168E+006   -1.11886E+006    3.34925E+006    3.35169E+006    2.56767E+003    2.31421E+003    1.13875E+000   -5.62284E-001    2.42244E+003
            7325    3.33947E+006    3.37693E+006    3.37693E+006    8.66267E+004   -9.61699E+003    3.38655E+006   -1.15131E+006    3.33635E+006    3.37693E+006    3.67004E+004    4.03094E+004    7.49765E-001   -1.42083E-001    4.80880E+004
            7326    3.34552E+006    3.36065E+006    3.36065E+006    3.11797E+004   -6.94313E+002    3.36134E+006   -1.13038E+006    3.34518E+006    3.36065E+006    2.04792E+004    1.00062E+004    4.62358E+000   -2.29406E+000    1.50522E+004
            7327    3.33528E+006    3.39424E+006    3.39424E+006    1.60700E+005   -3.42190E+004    3.42846E+006   -1.17357E+006    3.32243E+006    3.39424E+006    8.52026E+004    4.12780E+004    2.04170E+000   -5.18710E+000    9.49525E+004
            7328    3.33893E+006    3.37795E+006    3.37795E+006    8.58626E+004   -5.92097E+003    3.38388E+006   -1.15263E+006    3.33609E+006    3.37795E+006    6.97655E+004    1.01761E+004    7.28124E-001    1.12713E+000    3.49046E+004
            7329    3.33290E+006    3.41652E+006    3.41652E+006    2.54394E+005   -6.42715E+004    3.48079E+006   -1.20221E+006    3.29837E+006    3.41652E+006    1.64055E+005    2.60677E+004   -1.41117E+000    3.03982E+000    1.43620E+005
            7330    3.33069E+006    3.40271E+006    3.40271E+006    1.61146E+005   -1.04654E+004    3.41318E+006   -1.18446E+006    3.32072E+006    3.40271E+006    1.46105E+005    4.57568E+003   -1.79960E+000   -3.56800E+000    4.85281E+004
            7331    3.32257E+006    3.43106E+006    3.43106E+006    2.43165E+005   -1.15305E+004    3.44259E+006   -1.22090E+006    3.30050E+006    3.43106E+006    2.31796E+005   -1.61504E+002   -7.48514E+000    4.17152E+000    5.25963E+004
            7332    3.31508E+006    3.46383E+006    3.46383E+006    3.37564E+005   -1.23117E+004    3.47615E+006   -1.26303E+006    3.27316E+006    3.46383E+006    3.31112E+005   -5.85958E+003   -8.53738E+000    3.86823E+000    4.70725E+004
            7333    3.32980E+006    3.43841E+006    3.43841E+006    3.24477E+005   -7.18018E+004    3.51021E+006   -1.23036E+006    3.27612E+006    3.43841E+006    2.48392E+005    4.28320E+003   -1.42590E+001   -1.81818E+001    1.56083E+005
            7334    3.32292E+006    3.46297E+006    3.46297E+006    3.78529E+005   -5.57287E+004    3.51870E+006   -1.26192E+006    3.25816E+006    3.46297E+006    3.34469E+005   -1.16689E+004   -8.39844E+000   -1.56810E+001    1.31118E+005
            7335    3.33885E+006    3.46027E+006    3.46027E+006    4.40314E+005   -1.25232E+005    3.58550E+006   -1.25845E+006    3.22844E+006    3.46027E+006    3.32365E+005   -1.72833E+004    5.80367E+000    2.40373E+001    2.22255E+005
            7336    3.34569E+006    3.44000E+006    3.44000E+006    4.04414E+005   -1.47216E+005    3.58722E+006   -1.23240E+006    3.24100E+006    3.44000E+006    2.41175E+005    1.60228E+004   -9.39152E+000    2.26442E+001    2.51794E+005
            7337    3.34811E+006    3.42199E+006    3.42199E+006    3.56990E+005   -1.51138E+005    3.57313E+006   -1.20928E+006    3.25967E+006    3.42199E+006    7.96654E+004    1.26187E+005   -1.69964E+001   -1.39352E+001    2.52997E+005
            7338    3.34500E+006    3.43780E+006    3.43780E+006    3.94605E+005   -1.43714E+005    3.58151E+006   -1.22956E+006    3.24539E+006    3.43780E+006    3.85019E+004    2.12389E+005   -3.02208E+001   -4.74207E+000    2.54730E+005
            7339    3.34247E+006    3.45244E+006    3.45244E+006    4.30508E+005   -1.37711E+005    3.59015E+006   -1.24841E+006    3.23111E+006    3.45244E+006   -4.19365E+003    2.96990E+005   -4.06390E+001   -3.78526E+001    2.40916E+005
            7340    3.33590E+006    3.46993E+006    3.46993E+006    4.58429E+005   -1.15819E+005    3.58575E+006   -1.27085E+006    3.22188E+006    3.46993E+006   -3.37028E+004    3.76312E+005   -2.98907E+001   -3.41404E+001    2.01028E+005
            7341    3.31927E+006    3.47644E+006    3.47644E+006    4.08098E+005   -4.68223E+004    3.52326E+006   -1.27924E+006    3.24802E+006    3.47644E+006   -1.54727E+004    3.76748E+005    1.37184E+001   -2.56141E+001    1.15234E+005
            7342    3.31102E+006    3.48166E+006    3.48166E+006    3.84192E+005   -7.97655E+003    3.48964E+006   -1.28596E+006    3.25815E+006    3.48166E+006   -3.75909E+003    3.79974E+005   -9.27851E+000   -2.97526E+001    4.04496E+004
            7343    3.32570E+006    3.45181E+006    3.45181E+006    3.52325E+005   -6.13908E+004    3.51320E+006   -1.24758E+006    3.26705E+006    3.45181E+006   -5.79340E+003    2.96728E+005    2.78481E+001    2.87022E+000    1.41104E+005
            7344    3.31867E+006    3.44765E+006    3.44765E+006    2.92480E+005   -1.33519E+004    3.46100E+006   -1.24226E+006    3.28674E+006    3.44765E+006   -5.00667E+003    2.84135E+005   -1.30701E+001   -2.47826E+001    4.98258E+004
            7345    3.33187E+006    3.42893E+006    3.42893E+006    2.99610E+005   -7.39976E+004    3.50293E+006   -1.21818E+006    3.28425E+006    3.42893E+006    8.32538E+003    2.17287E+005    1.81523E+001   -1.40248E+001    1.54853E+005
            7346    3.32725E+006    3.41499E+006    3.41499E+006    2.00088E+005   -1.42323E+004    3.42922E+006   -1.20028E+006    3.31166E+006    3.41499E+006    2.56284E+002    1.85600E+005   -8.90674E+000   -1.08666E+001    5.38078E+004
            7347    3.33455E+006    3.41086E+006    3.41086E+006    2.40962E+005   -6.69812E+004    3.47784E+006   -1.19495E+006    3.30233E+006    3.41086E+006    4.12965E+004    1.32684E+005    1.21271E+001   -1.96828E+000    1.47035E+005
            7348    3.33530E+006    3.38831E+006    3.38831E+006    1.17794E+005   -8.21097E+003    3.39652E+006   -1.16596E+006    3.32994E+006    3.38831E+006    9.55315E+003    1.00030E+005   -9.36891E+000    5.88207E+000    4.38497E+004
            7349    3.34269E+006    3.36796E+006    3.36796E+006    5.66694E+004   -5.27102E+003    3.37323E+006   -1.13979E+006    3.34140E+006    3.36796E+006    1.02159E+004    4.11826E+004   -1.30384E+000    7.01855E+000    2.68220E+004
            7350    3.34735E+006    3.35619E+006    3.35619E+006    1.77364E+004    4.57738E-001    3.35619E+006   -1.12464E+006    3.34725E+006    3.35619E+006    9.12605E+003    8.61081E+003   -3.92053E+000    6.30979E+000    8.86423E+003
            7351    3.33534E+006    3.39415E+006    3.39415E+006    1.60992E+005   -3.47455E+004    3.42890E+006   -1.17347E+006    3.32238E+006    3.39415E+006    6.50802E+004    6.11664E+004   -5.96398E+000    9.98607E+000    9.78492E+004
            7352    3.34239E+006    3.36876E+006    3.36876E+006    5.88348E+004   -5.16918E+003    3.37393E+006   -1.14081E+006    3.34101E+006    3.36876E+006    4.40625E+004    9.60314E+003   -2.33915E+000    2.85843E+000    2.69679E+004
            7353    3.33454E+006    3.39056E+006    3.39056E+006    1.24020E+005   -8.06002E+003    3.39862E+006   -1.16884E+006    3.32865E+006    3.39056E+006    1.07258E+005    8.70254E+003   -6.47735E-001    9.88299E+000    4.39662E+004
            7354    3.32610E+006    3.41905E+006    3.41905E+006    2.11486E+005   -1.41016E+004    3.43315E+006   -1.20548E+006    3.30882E+006    3.41905E+006    1.98359E+005   -9.75218E+002    1.19848E+001    7.99689E+000    5.28096E+004
            7355    3.31700E+006    3.45439E+006    3.45439E+006    3.10306E+005   -1.19853E+004    3.46638E+006   -1.25090E+006    3.28149E+006    3.45439E+006    3.03303E+005   -4.98269E+003    2.26739E+001    1.19179E+001    4.69877E+004
            7356    3.30952E+006    3.48944E+006    3.48944E+006    4.05062E+005   -6.68650E+003    3.49613E+006   -1.29594E+006    3.25115E+006    3.48944E+006    4.01677E+005   -3.30164E+003    2.13023E+001    7.82458E+000    3.71787E+004
            7357    3.33442E+006    3.41177E+006    3.41177E+006    2.44055E+005   -6.74873E+004    3.47926E+006   -1.19611E+006    3.30144E+006    3.41177E+006    1.41224E+005    3.53439E+004    5.23441E+000   -5.42872E+000    1.46499E+005
            7358    3.33097E+006    3.43194E+006    3.43194E+006    3.06034E+005   -7.18573E+004    3.50380E+006   -1.22204E+006    3.28222E+006    3.43194E+006    2.30718E+005    3.45849E+003    1.47778E+001   -6.84036E+000    1.50959E+005
            7359    3.32397E+006    3.45709E+006    3.45709E+006    3.62428E+005   -5.64768E+004    3.51356E+006   -1.25435E+006    3.26379E+006    3.45709E+006    3.13794E+005   -7.84275E+003   -3.52473E+000   -1.27251E+001    1.34193E+005
            7360    3.31732E+006    3.48285E+006    3.48285E+006    4.20909E+005   -4.13676E+004    3.52421E+006   -1.28746E+006    3.24367E+006    3.48285E+006    3.95282E+005   -1.57401E+004    2.08471E+001    4.65668E+000    1.05784E+005
            7361    3.33227E+006    3.47774E+006    3.47774E+006    4.68240E+005   -1.03343E+005    3.58109E+006   -1.28088E+006    3.21919E+006    3.47774E+006    4.04851E+005   -3.99538E+004    2.86183E+001    1.02452E+001    1.79483E+005
            7362    3.33999E+006    3.45774E+006    3.45774E+006    4.37134E+005   -1.29227E+005    3.58696E+006   -1.25521E+006    3.22930E+006    3.45774E+006    3.23315E+005   -1.54071E+004    3.29025E+001    3.46084E+001    2.26954E+005
            7363    3.34397E+006    3.44039E+006    3.44039E+006    3.98567E+005   -1.40285E+005    3.58068E+006   -1.23289E+006    3.24413E+006    3.44039E+006    2.34738E+005    2.35437E+004    9.96177E+000    2.36441E+001    2.47870E+005
            7364    3.34813E+006    3.42238E+006    3.42238E+006    3.58365E+005   -1.51396E+005    3.57378E+006   -1.20978E+006    3.25911E+006    3.42238E+006    1.43731E+005    6.32373E+004    1.56986E+001    2.06758E+001    2.51683E+005
            7365    3.30674E+006    3.51025E+006    3.51025E+006    4.65088E+005   -7.26842E+003    3.51752E+006   -1.32269E+006    3.22953E+006    3.51025E+006   -5.40159E+003    4.63221E+005   -8.70530E+000   -3.40640E+001    2.96365E+004
            7366    3.31340E+006    3.49999E+006    3.49999E+006    4.60849E+005   -3.23653E+004    3.53236E+006   -1.30949E+006    3.22926E+006    3.49999E+006   -1.85279E+004    4.47011E+005    4.24748E+000    1.79423E+001    8.14453E+004
            7367    3.32780E+006    3.48988E+006    3.48988E+006    4.88421E+005   -8.87606E+004    3.57864E+006   -1.29651E+006    3.21228E+006    3.48988E+006   -4.83318E+004    4.47992E+005   -2.00423E+001   -4.17107E+001    1.47310E+005
            7368    3.30399E+006    3.53200E+006    3.53200E+006    5.24586E+005   -4.66664E+003    3.53667E+006   -1.35064E+006    3.20654E+006    3.53200E+006   -4.09899E+003    5.24018E+005   -7.46315E+000   -2.12957E+001    1.73237E+004
            7369    3.30968E+006    3.51825E+006    3.51825E+006    5.04221E+005   -2.36389E+004    3.54189E+006   -1.33294E+006    3.21292E+006    3.51825E+006   -1.91088E+004    4.99691E+005   -1.20615E+001   -2.66908E+001    4.86901E+004
            7370    3.32030E+006    3.50789E+006    3.50789E+006    5.14527E+005   -6.34514E+004    3.57134E+006   -1.31966E+006    3.20418E+006    3.50789E+006   -5.02787E+004    5.01354E+005   -6.75246E+000   -3.60421E+001    8.62553E+004
            7371    3.30308E+006    3.54322E+006    3.54322E+006    5.56148E+005   -4.18917E+003    3.54741E+006   -1.36506E+006    3.19352E+006    3.54322E+006   -4.12859E+003    5.56088E+005   -3.62094E+000   -1.22264E+001    5.82586E+003
            7372    3.30793E+006    3.52841E+006    3.52841E+006    5.29030E+005   -1.94831E+004    3.54790E+006   -1.34599E+006    3.20321E+006    3.52841E+006   -1.90448E+004    5.28591E+005   -2.43069E+001    2.27805E+001    1.54992E+004
            7373    3.31625E+006    3.51813E+006    3.51813E+006    5.30394E+005   -5.00156E+004    3.56814E+006   -1.33283E+006    3.19897E+006    3.51813E+006   -4.85916E+004    5.28970E+005    3.33048E-001   -6.08943E+000    2.87131E+004
            7374    3.30861E+006    3.49631E+006    3.49631E+006    4.25515E+005   -7.47939E+003    3.50379E+006   -1.30478E+006    3.24394E+006    3.49631E+006    4.22563E+005   -4.52708E+003   -2.92127E+001    7.88375E+000   -3.56317E+004
            7375    3.31642E+006    3.48777E+006    3.48777E+006    4.33632E+005   -3.99963E+004    3.52777E+006   -1.29380E+006    3.23902E+006    3.48777E+006    4.11227E+005   -1.75911E+004    6.39804E+000   -1.10882E+001   -1.00547E+005
            7376    3.33128E+006    3.48066E+006    3.48066E+006    4.73556E+005   -1.00252E+005    3.58092E+006   -1.28466E+006    3.21727E+006    3.48066E+006    4.14285E+005   -4.09814E+004   -2.81805E+001    1.94741E+001   -1.74633E+005
            7377    3.30516E+006    3.52246E+006    3.52246E+006    4.98777E+005   -6.08208E+003    3.52854E+006   -1.33839E+006    3.21669E+006    3.52246E+006    4.97672E+005   -4.97700E+003   -2.52571E+001    3.64297E+000   -2.35942E+004
            7378    3.31113E+006    3.51054E+006    3.51054E+006    4.85651E+005   -2.70235E+004    3.53756E+006   -1.32305E+006    3.22001E+006    3.51054E+006    4.77297E+005   -1.86700E+004   -1.62573E+001    1.11301E+001   -6.49065E+004
            7379    3.32338E+006    3.50005E+006    3.50005E+006    5.02505E+005   -7.37919E+004    3.57384E+006   -1.30959E+006    3.20807E+006    3.50005E+006    4.78421E+005   -4.97079E+004   -4.99475E+001    1.27175E+000   -1.15323E+005
            7380    3.30330E+006    3.53973E+006    3.53973E+006    5.46184E+005   -4.18794E+003    3.54392E+006   -1.36058E+006    3.19770E+006    3.53973E+006    5.45962E+005   -3.96619E+003   -2.02926E+001    2.44527E+000   -1.10453E+004
            7381    3.30855E+006    3.52496E+006    3.52496E+006    5.20952E+005   -2.11620E+004    3.54613E+006   -1.34158E+006    3.20634E+006    3.52496E+006    5.19219E+005   -1.94292E+004    1.29844E+001    2.28834E+001   -3.06005E+004
            7382    3.31742E+006    3.51498E+006    3.51498E+006    5.25063E+005   -5.37658E+004    3.56874E+006   -1.32876E+006    3.20084E+006    3.51498E+006    5.19821E+005   -4.85233E+004   -1.48946E+001   -1.26253E+001   -5.48366E+004
            7383    3.30309E+006    3.54450E+006    3.54450E+006    5.60078E+005   -4.49546E+003    3.54899E+006   -1.36669E+006    3.19182E+006    3.54450E+006    5.60074E+005   -4.49209E+003   -4.53622E+000   -2.12484E+000    1.37862E+003
            7384    3.30773E+006    3.52977E+006    3.52977E+006    5.32627E+005   -1.91415E+004    3.54891E+006   -1.34775E+006    3.20173E+006    3.52977E+006    5.32607E+005   -1.91215E+004   -1.76340E+001    3.35474E+001    3.32443E+003
            7385    3.31578E+006    3.51939E+006    3.51939E+006    5.32380E+005   -4.84208E+004    3.56781E+006   -1.33445E+006    3.19832E+006    3.51939E+006    5.32372E+005   -4.84125E+004   -1.87028E+001   -1.88821E+001    2.19380E+003
            7386    3.30346E+006    3.53712E+006    3.53712E+006    5.38574E+005   -4.07064E+003    3.54119E+006   -1.35721E+006    3.20088E+006    3.53712E+006    5.38239E+005   -3.73620E+003    4.91447E+000    2.17038E+000    1.34673E+004
            7387    3.30894E+006    3.52277E+006    3.52277E+006    5.15577E+005   -2.20750E+004    3.54484E+006   -1.33876E+006    3.20845E+006    3.52277E+006    5.12892E+005   -1.93900E+004    1.89480E+001    3.04756E+001    3.78991E+004
            7388    3.31767E+006    3.51397E+006    3.51397E+006    5.22913E+005   -5.45097E+004    3.56848E+006   -1.32746E+006    3.20168E+006    3.51397E+006    5.16923E+005   -4.85198E+004    1.56090E+001   -1.82245E+001    5.85053E+004
            7389    3.30586E+006    3.51715E+006    3.51715E+006    4.84243E+005   -6.73650E+003    3.52389E+006   -1.33155E+006    3.22230E+006    3.51715E+006    4.82845E+005   -5.33898E+003    1.97694E+001    3.40852E+000    2.61572E+004
            7390    3.31186E+006    3.50637E+006    3.50637E+006    4.75075E+005   -2.84038E+004    3.53478E+006   -1.31768E+006    3.22407E+006    3.50637E+006    4.64727E+005   -1.80559E+004   -1.41799E+001    1.89122E+001    7.14343E+004
            7391    3.32387E+006    3.49836E+006    3.49836E+006    4.99253E+005   -7.53657E+004    3.57372E+006   -1.30741E+006    3.20926E+006    3.49836E+006    4.72974E+005   -4.90874E+004    2.09035E+001   -4.23119E+000    1.20039E+005
            7392    3.32785E+006    3.48983E+006    3.48983E+006    4.88485E+005   -8.89472E+004    3.57878E+006   -1.29646E+006    3.21223E+006    3.48983E+006   -4.85881E+004    4.48126E+005   -1.86619E+001    3.82808E+001   -1.47227E+005
            7393    3.31329E+006    3.50022E+006    3.50022E+006    4.61095E+005   -3.19701E+004    3.53219E+006   -1.30978E+006    3.22920E+006    3.50022E+006   -1.83231E+004    4.47448E+005    1.16448E+000   -1.93347E+001   -8.08865E+004
            7394    3.30671E+006    3.51058E+006    3.51058E+006    4.66097E+005   -7.32940E+003    3.51791E+006   -1.32312E+006    3.22915E+006    3.51058E+006   -5.48889E+003    4.64256E+005   -9.27224E+000    3.28481E+001   -2.94612E+004
            7395    3.32025E+006    3.50800E+006    3.50800E+006    5.14676E+005   -6.32856E+004    3.57128E+006   -1.31980E+006    3.20413E+006    3.50800E+006   -5.02726E+004    5.01663E+005   -1.16481E+000    3.18166E+001   -8.57416E+004
            7396    3.30967E+006    3.51822E+006    3.51822E+006    5.04041E+005   -2.35477E+004    3.54177E+006   -1.33291E+006    3.21301E+006    3.51822E+006   -1.90093E+004    4.99503E+005   -1.62403E+001    2.78900E+001   -4.87219E+004
            7397    3.30395E+006    3.53218E+006    3.53218E+006    5.24960E+005   -4.54555E+003    3.53672E+006   -1.35086E+006    3.20640E+006    3.53218E+006   -3.98544E+003    5.24400E+005   -7.37518E+000    1.81487E+001   -1.72124E+004
            7398    3.31618E+006    3.51821E+006    3.51821E+006    5.30405E+005   -4.97866E+004    3.56799E+006   -1.33294E+006    3.19899E+006    3.51821E+006   -4.84318E+004    5.29051E+005    3.43199E+000   -1.40097E-001   -2.80033E+004
            7399    3.30789E+006    3.52841E+006    3.52841E+006    5.28861E+005   -1.93236E+004    3.54774E+006   -1.34598E+006    3.20330E+006    3.52841E+006   -1.88555E+004    5.28393E+005   -2.71665E+001   -2.29225E+001   -1.60118E+004
            7400    3.30309E+006    3.54322E+006    3.54322E+006    5.56166E+005   -4.22285E+003    3.54744E+006   -1.36505E+006    3.19351E+006    3.54322E+006   -4.16119E+003    5.56104E+005   -2.93096E+000    8.16639E+000   -5.87817E+003
            7401    3.34202E+006    3.36975E+006    3.36975E+006    6.20642E+004   -5.58616E+003    3.37533E+006   -1.14207E+006    3.34048E+006    3.36975E+006    5.75960E+003    5.07185E+004    1.36868E+001    9.56863E+000   -2.52749E+004
            7402    3.33484E+006    3.38954E+006    3.38954E+006    1.20381E+005   -7.30903E+003    3.39685E+006   -1.16754E+006    3.32933E+006    3.38954E+006    2.41509E+003    1.10657E+005    1.73058E+001    1.09377E+000   -3.38691E+004
            7403    3.32600E+006    3.41697E+006    3.41697E+006    1.98419E+005   -6.96270E+003    3.42394E+006   -1.20281E+006    3.31169E+006    3.41697E+006   -3.60214E+002    1.91817E+005    1.20616E+001   -1.02778E+001   -3.62276E+004
            7404    3.31716E+006    3.44967E+006    3.44967E+006    2.90306E+005   -5.48240E+003    3.45515E+006   -1.24483E+006    3.28730E+006    3.44967E+006   -1.63878E+003    2.86463E+005    1.35063E+001   -1.84883E+001   -3.34982E+004
            7405    3.31023E+006    3.48268E+006    3.48268E+006    3.83413E+005   -4.35596E+003    3.48704E+006   -1.28725E+006    3.25854E+006    3.48268E+006   -2.49180E+003    3.81549E+005    5.70509E+000   -2.35793E+001   -2.68214E+004
            7406    3.33601E+006    3.39021E+006    3.39021E+006    1.42782E+005   -2.78330E+004    3.41804E+006   -1.16839E+006    3.32617E+006    3.39021E+006    3.03634E+004    8.45859E+004   -2.05378E+001   -1.02708E+001   -8.08850E+004
            7407    3.33263E+006    3.40499E+006    3.40499E+006    1.96036E+005   -3.88869E+004    3.44388E+006   -1.18738E+006    3.31393E+006    3.40499E+006    1.74676E+004    1.39681E+005   -3.21907E+001   -1.01956E+001   -1.00315E+005
            7408    3.32744E+006    3.42520E+006    3.42520E+006    2.53803E+005   -3.89360E+004    3.46414E+006   -1.21336E+006    3.29828E+006    3.42520E+006    6.34462E+003    2.08523E+005   -2.15202E+001   -6.51257E+000   -1.05854E+005
            7409    3.32099E+006    3.44998E+006    3.44998E+006    3.17583E+005   -3.19472E+004    3.48193E+006   -1.24521E+006    3.27922E+006    3.44998E+006   -3.14561E+003    2.88781E+005   -2.09750E+001   -4.47297E+000   -9.61119E+004
            7410    3.31406E+006    3.47804E+006    3.47804E+006    3.86992E+005   -2.12073E+004    3.49925E+006   -1.28128E+006    3.25678E+006    3.47804E+006   -6.22037E+003    3.72005E+005   -2.87420E+000   -3.90716E+000   -7.67661E+004
            7411    3.33462E+006    3.40602E+006    3.40602E+006    2.18873E+005   -5.87173E+004    3.46474E+006   -1.18873E+006    3.30848E+006    3.40602E+006    7.32895E+004    8.68659E+004    4.04428E+001    1.99840E+001   -1.38629E+005
            7412    3.33474E+006    3.41695E+006    3.41695E+006    2.68604E+005   -7.72317E+004    3.49418E+006   -1.20277E+006    3.29403E+006    3.41695E+006    4.45199E+004    1.46852E+005    6.08827E+001    7.30996E+000   -1.65174E+005
            7413    3.33263E+006    3.43098E+006    3.43098E+006    3.11933E+005   -8.05001E+004    3.51148E+006   -1.22080E+006    3.28005E+006    3.43098E+006    1.38502E+004    2.17582E+005    5.15701E+001   -1.67794E+001   -1.67703E+005
            7414    3.32708E+006    3.45102E+006    3.45102E+006    3.56675E+005   -6.80188E+004    3.51904E+006   -1.24656E+006    3.26526E+006    3.45102E+006   -4.26561E+003    2.92922E+005    4.55903E+001   -3.74619E+001   -1.51694E+005
            7415    3.32039E+006    3.47428E+006    3.47428E+006    4.05841E+005   -5.07852E+004    3.52507E+006   -1.27645E+006    3.24862E+006    3.47428E+006   -1.53709E+004    3.70426E+005    2.12793E+001   -4.95717E+001   -1.22135E+005
            7416    3.33929E+006    3.42107E+006    3.42107E+006    3.11352E+005   -1.08148E+005    3.52922E+006   -1.20809E+006    3.27922E+006    3.42107E+006    1.31261E+005    7.19436E+004   -3.54023E+001   -1.99851E+001   -2.07643E+005
            7417    3.34267E+006    3.42439E+006    3.42439E+006    3.40153E+005   -1.27470E+005    3.55186E+006   -1.21236E+006    3.26786E+006    3.42439E+006    6.93623E+004    1.43320E+005   -6.23786E+001   -2.43520E+001   -2.30869E+005
            7418    3.34038E+006    3.43581E+006    3.43581E+006    3.68367E+005   -1.23064E+005    3.55888E+006   -1.22704E+006    3.25756E+006    3.43581E+006    2.62037E+004    2.19098E+005   -5.39537E+001    1.26743E+000   -2.25996E+005
            7419    3.33605E+006    3.45134E+006    3.45134E+006    4.00409E+005   -1.10807E+005    3.56215E+006   -1.24698E+006    3.24617E+006    3.45134E+006   -8.35727E+003    2.97959E+005   -3.34944E+001    1.77442E+001   -2.04641E+005
            7420    3.32832E+006    3.47197E+006    3.47197E+006    4.34227E+005   -8.57342E+004    3.55770E+006   -1.27349E+006    3.23505E+006    3.47197E+006   -2.66686E+004    3.75161E+005   -2.30975E+000    4.76842E+001   -1.64994E+005
            7421    3.34145E+006    3.46566E+006    3.46566E+006    4.66476E+005   -1.36069E+005    3.60173E+006   -1.26536E+006    3.21580E+006    3.46566E+006   -3.63602E+004    3.66768E+005    1.56861E+001   -8.11269E+001   -2.23913E+005
            7422    3.34866E+006    3.44901E+006    3.44901E+006    4.43448E+005   -1.60543E+005    3.60955E+006   -1.24397E+006    3.22267E+006    3.44901E+006   -5.45574E+002    2.83451E+005    3.84612E+001   -8.55972E+001   -2.66529E+005
            7423    3.35291E+006    3.43736E+006    3.43736E+006    4.24224E+005   -1.74611E+005    3.61197E+006   -1.22899E+006    3.22929E+006    3.43736E+006    4.76896E+004    2.01923E+005    6.05560E+001   -2.01098E+001   -2.89317E+005
            7424    3.35246E+006    3.43079E+006    3.43079E+006    4.02565E+005   -1.71718E+005    3.60251E+006   -1.22055E+006    3.23902E+006    3.43079E+006    1.02451E+005    1.28397E+005    8.03291E+001    3.70866E+000   -2.86848E+005
            7425    3.35137E+006    3.42727E+006    3.42727E+006    3.87445E+005   -1.66601E+005    3.59387E+006   -1.21604E+006    3.24593E+006    3.42727E+006    1.63222E+005    5.76228E+004    2.48423E+001    2.19020E+001   -2.71945E+005
            7426    3.34562E+006    3.44002E+006    3.44002E+006    4.04346E+005   -1.47043E+005    3.58706E+006   -1.23244E+006    3.24102E+006    3.44002E+006    2.41810E+005    1.54921E+004   -1.15182E+001    2.35079E+001   -2.51401E+005
            7427    3.33875E+006    3.46030E+006    3.46030E+006    4.40086E+005   -1.24892E+005    3.58519E+006   -1.25850E+006    3.22856E+006    3.46030E+006    3.32879E+005   -1.76857E+004   -3.75101E+001    3.17402E+001   -2.21532E+005
            7428    3.32304E+006    3.46260E+006    3.46260E+006    3.77886E+005   -5.61175E+004    3.51872E+006   -1.26146E+006    3.25837E+006    3.46260E+006    3.33200E+005   -1.14314E+004   -1.66943E+001   -1.29003E+001   -1.31898E+005
            7429    3.31517E+006    3.46317E+006    3.46317E+006    3.35657E+005   -1.22299E+004    3.47540E+006   -1.26220E+006    3.27373E+006    3.46317E+006    3.29122E+005   -5.69411E+003   -2.23301E+001    7.63890E+000   -4.72334E+004
            7430    3.32990E+006    3.43816E+006    3.43816E+006    3.24036E+005   -7.20788E+004    3.51024E+006   -1.23004E+006    3.27627E+006    3.43816E+006    2.47644E+005    4.31344E+003   -3.77756E+000   -1.57794E+001   -1.56283E+005
            7431    3.32264E+006    3.43068E+006    3.43068E+006    2.42258E+005   -1.16180E+004    3.44230E+006   -1.22044E+006    3.30072E+006    3.43068E+006    2.30834E+005   -1.93460E+002   -1.12423E+001    7.60474E+000   -5.26297E+004
            7432    3.33073E+006    3.40262E+006    3.40262E+006    1.61181E+005   -1.07515E+004    3.41337E+006   -1.18435E+006    3.32072E+006    3.40262E+006    1.46023E+005    4.40650E+003   -2.66403E+000   -3.01572E-001   -4.87483E+004
            7433    3.33888E+006    3.37801E+006    3.37801E+006    8.56773E+004   -5.54589E+003    3.38356E+006   -1.15271E+006    3.33608E+006    3.37801E+006    6.95266E+004    1.06048E+004    4.91494E+000    5.14426E+000   -3.48205E+004
            7434    3.34559E+006    3.36050E+006    3.36050E+006    3.07574E+004   -7.15669E+002    3.36121E+006   -1.13018E+006    3.34525E+006    3.36050E+006    2.04239E+004    9.61777E+003    6.12931E+000    1.05224E+000   -1.47799E+004
            7435    3.34926E+006    3.35171E+006    3.35171E+006    4.89653E+003    1.53272E+001    3.35169E+006   -1.11887E+006    3.34925E+006    3.35171E+006    2.59808E+003    2.31378E+003    3.40622E+000    2.62068E+000   -2.43646E+003
            7436    3.33290E+006    3.41645E+006    3.41645E+006    2.54252E+005   -6.42892E+004    3.48074E+006   -1.20214E+006    3.29840E+006    3.41645E+006    1.64045E+005    2.59178E+004   -6.54650E+000    8.85328E+000   -1.43518E+005
            7437    3.33522E+006    3.39446E+006    3.39446E+006    1.61529E+005   -3.44023E+004    3.42886E+006   -1.17386E+006    3.32223E+006    3.39446E+006    8.57199E+004    4.14069E+004    3.97165E+000    5.55828E-001   -9.54273E+004
            7438    3.33945E+006    3.37699E+006    3.37699E+006    8.70175E+004   -9.82952E+003    3.38682E+006   -1.15139E+006    3.33629E+006    3.37699E+006    3.70032E+004    4.01847E+004    7.59624E+000    6.05133E+000   -4.83974E+004
            7439    3.34649E+006    3.35833E+006    3.35833E+006    2.48051E+004   -9.71929E+002    3.35930E+006   -1.12739E+006    3.34626E+006    3.35833E+006    7.90644E+003    1.59267E+004    2.47913E+000    5.16958E+000   -1.22488E+004
            7440    3.33536E+006    3.38814E+006    3.38814E+006    1.17338E+005   -8.21895E+003    3.39636E+006   -1.16575E+006    3.33003E+006    3.38814E+006    9.55251E+003    9.95667E+004   -1.02696E+001   -5.78350E+000   -4.37665E+004
            7441    3.32718E+006    3.41520E+006    3.41520E+006    2.00638E+005   -1.41946E+004    3.42939E+006   -1.20055E+006    3.31152E+006    3.41520E+006    2.60003E+002    1.86183E+005   -1.02291E+001    1.16963E+001   -5.38180E+004
            7442    3.31848E+006    3.44850E+006    3.44850E+006    2.94875E+005   -1.33251E+004    3.46182E+006   -1.24335E+006    3.28605E+006    3.44850E+006   -5.13021E+003    2.86680E+005   -1.45472E+001    2.62773E+001   -4.95832E+004
            7443    3.31082E+006    3.48262E+006    3.48262E+006    3.86677E+005   -7.73949E+003    3.49036E+006   -1.28718E+006    3.25733E+006    3.48262E+006   -3.61260E+003    3.82550E+005   -1.08827E+001    3.01340E+001   -4.01333E+004
            7444    3.33455E+006    3.41097E+006    3.41097E+006    2.41460E+005   -6.71597E+004    3.47813E+006   -1.19509E+006    3.30219E+006    3.41097E+006    4.12501E+004    1.33050E+005    1.21505E+001    2.29353E+000   -1.47325E+005
            7445    3.33186E+006    3.42911E+006    3.42911E+006    3.00208E+005   -7.40955E+004    3.50320E+006   -1.21841E+006    3.28406E+006    3.42911E+006    7.85912E+003    2.18253E+005    1.93919E+001    1.57433E+001   -1.54788E+005
            7446    3.32558E+006    3.45215E+006    3.45215E+006    3.52919E+005   -6.10247E+004    3.51318E+006   -1.24802E+006    3.26687E+006    3.45215E+006   -6.09456E+003    2.97988E+005    2.96143E+001   -3.91061E+000   -1.40430E+005
            7447    3.31911E+006    3.47679E+006    3.47679E+006    4.08535E+005   -4.62666E+004    3.52306E+006   -1.27969E+006    3.24790E+006    3.47679E+006   -1.54556E+004    3.77724E+005    1.42174E+001    2.67107E+001   -1.14296E+005
            7448    3.33598E+006    3.46993E+006    3.46993E+006    4.58711E+005   -1.16116E+005    3.58605E+006   -1.27084E+006    3.22173E+006    3.46993E+006   -3.37030E+004    3.76298E+005   -3.11582E+001    3.58413E+001   -2.01448E+005
            7449    3.34249E+006    3.45254E+006    3.45254E+006    4.30907E+005   -1.37828E+005    3.59037E+006   -1.24854E+006    3.23093E+006    3.45254E+006   -3.98010E+003    2.97060E+005   -4.74796E+001    3.84745E+001   -2.41264E+005
            7450    3.34493E+006    3.43786E+006    3.43786E+006    3.94533E+005   -1.43461E+005    3.58132E+006   -1.22964E+006    3.24545E+006    3.43786E+006    3.88137E+004    2.12258E+005   -3.49873E+001    6.14469E+000   -2.54634E+005
            7451    3.34816E+006    3.42189E+006    3.42189E+006    3.56858E+005   -1.51305E+005    3.57319E+006   -1.20915E+006    3.25970E+006    3.42189E+006    7.90100E+004    1.26542E+005   -2.08671E+001    1.55664E+001   -2.52967E+005
            7452    3.34807E+006    3.42252E+006    3.42252E+006    3.58561E+005   -1.51193E+005    3.57371E+006   -1.20996E+006    3.25905E+006    3.42252E+006    1.43513E+005    6.38559E+004    1.51562E+001   -1.98347E+001   -2.51746E+005
            7453    3.34398E+006    3.44043E+006    3.44043E+006    3.98784E+005   -1.40365E+005    3.58080E+006   -1.23295E+006    3.24403E+006    3.44043E+006    2.35194E+005    2.32247E+004    7.45484E+000   -1.92234E+001   -2.47866E+005
            7454    3.33993E+006    3.45777E+006    3.45777E+006    4.36997E+005   -1.28992E+005    3.58676E+006   -1.25526E+006    3.22938E+006    3.45777E+006    3.23714E+005   -1.57090E+004    3.64890E+001   -3.30590E+001   -2.26459E+005
            7455    3.33223E+006    3.47761E+006    3.47761E+006    4.67734E+005   -1.03200E+005    3.58081E+006   -1.28072E+006    3.21942E+006    3.47761E+006    4.04395E+005   -3.98613E+004    2.63691E+001   -1.09594E+001   -1.79306E+005
            7456    3.31744E+006    3.48281E+006    3.48281E+006    4.21398E+005   -4.19559E+004    3.52476E+006   -1.28742E+006    3.24344E+006    3.48281E+006    3.95660E+005   -1.62175E+004    2.26636E+001   -3.72143E+000   -1.06130E+005
            7457    3.30969E+006    3.48893E+006    3.48893E+006    4.04078E+005   -7.15938E+003    3.49609E+006   -1.29528E+006    3.25146E+006    3.48893E+006    4.00602E+005   -3.68277E+003    2.25441E+001   -7.16386E+000   -3.76514E+004
            7458    3.32404E+006    3.45694E+006    3.45694E+006    3.62333E+005   -5.67772E+004    3.51372E+006   -1.25417E+006    3.26380E+006    3.45694E+006    3.13303E+005   -7.74736E+003   -3.39066E+000    1.21377E+001   -1.34703E+005
            7459    3.31693E+006    3.45467E+006    3.45467E+006    3.11076E+005   -1.19607E+004    3.46663E+006   -1.25126E+006    3.28126E+006    3.45467E+006    3.03965E+005   -4.84956E+003    2.29009E+001   -1.10411E+001   -4.73981E+004
            7460    3.33096E+006    3.43194E+006    3.43194E+006    3.06042E+005   -7.18395E+004    3.50378E+006   -1.22205E+006    3.28222E+006    3.43194E+006    2.30229E+005    3.97254E+003    1.45617E+001    5.49217E+000   -1.51329E+005
            7461    3.32590E+006    3.41976E+006    3.41976E+006    2.13529E+005   -1.41041E+004    3.43387E+006   -1.20640E+006    3.30830E+006    3.41976E+006    2.00425E+005   -9.99796E+002    1.19264E+001   -7.10782E+000   -5.30213E+004
            7462    3.33439E+006    3.41183E+006    3.41183E+006    2.44172E+005   -6.74236E+004    3.47925E+006   -1.19619E+006    3.30140E+006    3.41183E+006    1.41197E+005    3.55510E+004    5.01277E+000    6.20212E+000   -1.46570E+005
            7463    3.33437E+006    3.39104E+006    3.39104E+006    1.25354E+005   -8.01085E+003    3.39905E+006   -1.16946E+006    3.32836E+006    3.39104E+006    1.08587E+005    8.75578E+003   -1.13347E+000   -1.00334E+001   -4.42149E+004
            7464    3.34230E+006    3.36896E+006    3.36896E+006    5.92758E+004   -5.01630E+003    3.37398E+006   -1.14107E+006    3.34091E+006    3.36896E+006    4.45761E+004    9.68340E+003   -2.57284E+000   -2.88246E+000   -2.69999E+004
            7465    3.34735E+006    3.35618E+006    3.35618E+006    1.77241E+004    4.83412E-001    3.35618E+006   -1.12464E+006    3.34725E+006    3.35618E+006    9.29052E+003    8.43409E+003   -4.10090E+000   -6.55557E+000   -8.85147E+003
            7466    3.33531E+006    3.39421E+006    3.39421E+006    1.61148E+005   -3.47231E+004    3.42893E+006   -1.17354E+006    3.32234E+006    3.39421E+006    6.51834E+004    6.12416E+004   -7.18138E+000   -9.61726E+000   -9.79157E+004
            7467    3.34278E+006    3.36775E+006    3.36775E+006    5.61959E+004   -5.40486E+003    3.37315E+006   -1.13951E+006    3.34150E+006    3.36775E+006    1.01356E+004    4.06555E+004   -1.44997E+000   -7.39312E+000   -2.67544E+004
            7468    3.33115E+006    3.48704E+006    3.48704E+006    4.92483E+005   -1.00931E+005    3.58797E+006   -1.29287E+006    3.20898E+006    3.48704E+006   -5.24328E+004    4.43985E+005   -1.81888E+001   -1.18028E+002   -1.62564E+005
            7469    3.32079E+006    3.49345E+006    3.49345E+006    4.71372E+005   -6.15872E+004    3.55504E+006   -1.30108E+006    3.22246E+006    3.49345E+006   -3.38850E+004    4.43670E+005    3.73874E+001    4.32273E+001   -1.18308E+005
            7470    3.31407E+006    3.49801E+006    3.49801E+006    4.57159E+005   -3.43701E+004    3.53238E+006   -1.30693E+006    3.23053E+006    3.49801E+006   -1.83080E+004    4.41097E+005   -1.00520E+001   -5.03285E+001   -8.73897E+004
            7471    3.30900E+006    3.50413E+006    3.50413E+006    4.54606E+005   -1.43314E+004    3.51846E+006   -1.31480E+006    3.23298E+006    3.50413E+006   -7.94168E+003    4.48217E+005    2.13013E+001   -9.70910E-001   -5.43649E+004
            7472    3.30547E+006    3.51265E+006    3.51265E+006    4.67123E+005   -2.53384E+003    3.51518E+006   -1.32575E+006    3.22913E+006    3.51265E+006   -1.76598E+003    4.66355E+005   -2.70157E+000   -2.22111E+001   -1.89748E+004
            7473    3.32259E+006    3.50603E+006    3.50603E+006    5.17606E+005   -7.18306E+004    3.57786E+006   -1.31727E+006    3.20177E+006    3.50603E+006   -5.60626E+004    5.01838E+005   -1.56071E+001   -5.19724E+001   -9.51083E+004
            7474    3.31529E+006    3.51120E+006    3.51120E+006    5.04876E+005   -4.44414E+004    3.55564E+006   -1.32388E+006    3.21051E+006    3.51120E+006   -3.54189E+004    4.95854E+005    7.12188E+001    4.17251E+001   -6.98202E+004
            7475    3.31020E+006    3.51673E+006    3.51673E+006    5.01421E+005   -2.52094E+004    3.54194E+006   -1.33098E+006    3.21391E+006    3.51673E+006   -2.00354E+004    4.96247E+005   -4.21795E+001   -3.48889E+001   -5.19424E+004
            7476    3.30588E+006    3.52442E+006    3.52442E+006    5.08153E+005   -9.90788E+003    3.53433E+006   -1.34089E+006    3.21265E+006    3.52442E+006   -7.85465E+003    5.06100E+005    4.58211E+001   -1.64946E+000   -3.25496E+004
            7477    3.30326E+006    3.53415E+006    3.53415E+006    5.28123E+005   -2.18921E+003    3.53634E+006   -1.35336E+006    3.20539E+006    3.53415E+006   -1.94599E+003    5.27880E+005   -1.09274E+001   -1.48878E+001   -1.13543E+004
            7478    3.31796E+006    3.51660E+006    3.51660E+006    5.32296E+005   -5.62497E+004    3.57285E+006   -1.33088E+006    3.19735E+006    3.51660E+006   -5.47291E+004    5.30775E+005   -1.88065E+001   -3.79539E+001   -2.98772E+004
            7479    3.31264E+006    3.52110E+006    3.52110E+006    5.25034E+005   -3.63577E+004    3.55746E+006   -1.33659E+006    3.20298E+006    3.52110E+006   -3.54209E+004    5.24097E+005    8.72675E+001    4.44298E+000   -2.29132E+004
            7480    3.30808E+006    3.52733E+006    3.52733E+006    5.26217E+005   -1.97795E+004    3.54711E+006   -1.34459E+006    3.20434E+006    3.52733E+006   -1.92488E+004    5.25686E+005   -6.09673E+001   -1.20455E+001   -1.70133E+004
            7481    3.30460E+006    3.53534E+006    3.53534E+006    5.37633E+005   -8.18941E+003    3.54353E+006   -1.35493E+006    3.20082E+006    3.53534E+006   -7.97748E+003    5.37421E+005    5.93619E+001    5.65400E-001   -1.07532E+004
            7482    3.30234E+006    3.54580E+006    3.54580E+006    5.60832E+005   -1.65049E+003    3.54745E+006   -1.36833E+006    3.19188E+006    3.54580E+006   -1.62430E+003    5.60806E+005   -1.45251E+001   -4.63142E+000   -3.83821E+003
            7483    3.33142E+006    3.48055E+006    3.48055E+006    4.73717E+005   -1.00745E+005    3.58130E+006   -1.28451E+006    3.21714E+006    3.48055E+006    4.14178E+005   -4.12061E+004   -2.87010E+001   -1.99127E+001    1.75095E+005
            7484    3.31627E+006    3.48815E+006    3.48815E+006    4.34150E+005   -3.94705E+004    3.52762E+006   -1.29428E+006    3.23887E+006    3.48815E+006    4.12095E+005   -1.74156E+004    6.67219E+000    9.97250E+000    9.97961E+004
            7485    3.30850E+006    3.49695E+006    3.49695E+006    4.27259E+005   -7.38068E+003    3.50434E+006   -1.30561E+006    3.24333E+006    3.49695E+006    4.24360E+005   -4.48179E+003   -2.90861E+001   -8.96298E+000    3.53775E+004
            7486    3.32338E+006    3.50008E+006    3.50008E+006    5.02583E+005   -7.37863E+004    3.57387E+006   -1.30963E+006    3.20803E+006    3.50008E+006    4.78551E+005   -4.97538E+004   -4.55084E+001    1.90004E+000    1.15213E+005
            7487    3.31110E+006    3.51065E+006    3.51065E+006    4.85881E+005   -2.69379E+004    3.53759E+006   -1.32320E+006    3.21994E+006    3.51065E+006    4.77572E+005   -1.86295E+004   -1.54776E+001   -1.39711E+001    6.47430E+004
            7488    3.30511E+006    3.52292E+006    3.52292E+006    5.00058E+005   -6.05552E+003    3.52898E+006   -1.33897E+006    3.21619E+006    3.52292E+006    4.98978E+005   -4.97583E+003   -2.38286E+001   -3.78579E+000    2.33513E+004
            7489    3.31750E+006    3.51495E+006    3.51495E+006    5.25270E+005   -5.40481E+004    3.56900E+006   -1.32872E+006    3.20071E+006    3.51495E+006    5.20133E+005   -4.89107E+004   -1.29087E+001    1.57293E+001    5.43116E+004
            7490    3.30859E+006    3.52495E+006    3.52495E+006    5.21045E+005   -2.13156E+004    3.54626E+006   -1.34156E+006    3.20629E+006    3.52495E+006    5.19323E+005   -1.95933E+004    1.32015E+001   -2.59457E+001    3.05141E+004
            7491    3.30329E+006    3.53990E+006    3.53990E+006    5.46643E+005   -4.17193E+003    3.54407E+006   -1.36079E+006    3.19751E+006    3.53990E+006    5.46430E+005   -3.95820E+003   -1.69512E+001   -2.25858E+000    1.08482E+004
            7492    3.31573E+006    3.51937E+006    3.51937E+006    5.32143E+005   -4.82263E+004    3.56760E+006   -1.33443E+006    3.19844E+006    3.51937E+006    5.32127E+005   -4.82106E+004   -1.02811E+001    1.99380E+001   -3.01771E+003
            7493    3.30769E+006    3.52976E+006    3.52976E+006    5.32395E+005   -1.89698E+004    3.54873E+006   -1.34773E+006    3.20185E+006    3.52976E+006    5.32373E+005   -1.89481E+004   -1.66182E+001   -3.58172E+001   -3.45758E+003
            7494    3.30308E+006    3.54447E+006    3.54447E+006    5.59935E+005   -4.43469E+003    3.54890E+006   -1.36666E+006    3.19189E+006    3.54447E+006    5.59931E+005   -4.43091E+003   -6.15140E-001    2.81286E+000   -1.46156E+003
            7495    3.31779E+006    3.51384E+006    3.51384E+006    5.22961E+005   -5.49401E+004    3.56878E+006   -1.32729E+006    3.20161E+006    3.51384E+006    5.16732E+005   -4.87107E+004    1.73754E+001    1.78766E+001   -5.96755E+004
            7496    3.30897E+006    3.52261E+006    3.52261E+006    5.15230E+005   -2.21619E+004    3.54477E+006   -1.33856E+006    3.20858E+006    3.52261E+006    5.12538E+005   -1.94704E+004    2.04422E+001   -2.94440E+001   -3.79365E+004
            7497    3.30348E+006    3.53684E+006    3.53684E+006    5.37799E+005   -4.07846E+003    3.54092E+006   -1.35685E+006    3.20120E+006    3.53684E+006    5.37461E+005   -3.74077E+003    8.76058E+000   -2.48120E+000   -1.35230E+004
            7498    3.32396E+006    3.49813E+006    3.49813E+006    4.98908E+005   -7.56597E+004    3.57379E+006   -1.30713E+006    3.20937E+006    3.49813E+006    4.72350E+005   -4.91022E+004    2.90117E+001    1.38958E+000   -1.20639E+005
            7499    3.31194E+006    3.50635E+006    3.50635E+006    4.75367E+005   -2.87472E+004    3.53510E+006   -1.31766E+006    3.22393E+006    3.50635E+006    4.64957E+005   -1.83367E+004   -1.44708E+001   -1.69527E+001   -7.16918E+004
            7500    3.30593E+006    3.51665E+006    3.51665E+006    4.82884E+005   -6.80812E+003    3.52346E+006   -1.33091E+006    3.22281E+006    3.51665E+006    4.81465E+005   -5.38919E+003    2.28158E+001   -3.31483E+000   -2.63216E+004
            7501    3.30555E+006    3.51237E+006    3.51237E+006    4.66585E+005   -2.76904E+003    3.51514E+006   -1.32540E+006    3.22931E+006    3.51237E+006   -1.99770E+003    4.65814E+005    8.98046E-001    2.30665E+001    1.90115E+004
            7502    3.30901E+006    3.50411E+006    3.50411E+006    4.54595E+005   -1.43545E+004    3.51847E+006   -1.31478E+006    3.23298E+006    3.50411E+006   -7.91819E+003    4.48158E+005    1.21293E+001    3.04102E+000    5.45608E+004
            7503    3.31415E+006    3.49800E+006    3.49800E+006    4.57524E+005   -3.47611E+004    3.53276E+006   -1.30692E+006    3.23036E+006    3.49800E+006   -1.86332E+004    4.41396E+005    5.01352E-001    5.03169E+001    8.76323E+004
            7504    3.32092E+006    3.49349E+006    3.49349E+006    4.72043E+005   -6.21439E+004    3.55563E+006   -1.30113E+006    3.22213E+006    3.49349E+006   -3.43231E+004    4.44222E+005    2.57197E+001   -4.24815E+001    1.18691E+005
            7505    3.33113E+006    3.48716E+006    3.48716E+006    4.92747E+005   -1.00874E+005    3.58803E+006   -1.29301E+006    3.20888E+006    3.48716E+006   -5.25199E+004    4.44394E+005   -9.72347E+000    1.18554E+002    1.62375E+005
            7506    3.30321E+006    3.53421E+006    3.53421E+006    5.28108E+005   -1.97844E+003    3.53619E+006   -1.35345E+006    3.20541E+006    3.53421E+006   -1.73973E+003    5.27869E+005   -1.06365E+001    1.69633E+001    1.12463E+004
            7507    3.30587E+006    3.52447E+006    3.52447E+006    5.08266E+005   -9.87777E+003    3.53434E+006   -1.34095E+006    3.21260E+006    3.52447E+006   -7.86066E+003    5.06249E+005    4.39884E+001    2.70628E+000    3.22658E+004
            7508    3.31015E+006    3.51674E+006    3.51674E+006    5.01252E+005   -2.50100E+004    3.54175E+006   -1.33099E+006    3.21400E+006    3.51674E+006   -1.98535E+004    4.96096E+005   -4.02528E+001    3.65327E+001    5.18370E+004
            7509    3.31538E+006    3.51119E+006    3.51119E+006    5.05163E+005   -4.47718E+004    3.55596E+006   -1.32386E+006    3.21035E+006    3.51119E+006   -3.57829E+004    4.96174E+005    6.83664E+001   -4.13866E+001    6.97316E+004
            7510    3.32273E+006    3.50593E+006    3.50593E+006    5.17916E+005   -7.23963E+004    3.57832E+006   -1.31715E+006    3.20155E+006    3.50593E+006   -5.65450E+004    5.02064E+005   -1.38915E+001    6.03739E+001    9.54253E+004
            7511    3.30237E+006    3.54577E+006    3.54577E+006    5.60869E+005   -1.78563E+003    3.54755E+006   -1.36828E+006    3.19185E+006    3.54577E+006   -1.75978E+003    5.60843E+005   -1.60173E+001    6.54508E+000    3.81332E+003
            7512    3.30453E+006    3.53541E+006    3.53541E+006    5.37623E+005   -7.96282E+003    3.54337E+006   -1.35502E+006    3.20085E+006    3.53541E+006   -7.74980E+003    5.37410E+005    6.27429E+001    7.99963E-001    1.07784E+004
            7513    3.30807E+006    3.52736E+006    3.52736E+006    5.26306E+005   -1.97671E+004    3.54713E+006   -1.34463E+006    3.20431E+006    3.52736E+006   -1.92382E+004    5.25778E+005   -6.49476E+001    1.51545E+001    1.69857E+004
            7514    3.31255E+006    3.52115E+006    3.52115E+006    5.24798E+005   -3.60053E+004    3.55715E+006   -1.33665E+006    3.20312E+006    3.52115E+006   -3.50817E+004    5.23875E+005    9.05845E+001   -5.67818E+000    2.27397E+004
            7515    3.31784E+006    3.51662E+006    3.51662E+006    5.31900E+005   -5.58075E+004    3.57242E+006   -1.33090E+006    3.19757E+006    3.51662E+006   -5.42686E+004    5.30361E+005   -2.08026E+001    4.16234E+001    3.00341E+004
            7516    3.35138E+006    3.42719E+006    3.42719E+006    3.87199E+005   -1.66585E+005    3.59378E+006   -1.21594E+006    3.24604E+006    3.42719E+006    1.62851E+005    5.77634E+004    2.14674E+001   -2.29286E+001    2.71861E+005
            7517    3.35250E+006    3.43070E+006    3.43070E+006    4.02371E+005   -1.71810E+005    3.60250E+006   -1.22042E+006    3.23909E+006    3.43070E+006    1.02124E+005    1.28437E+005    7.00760E+001   -6.45273E+000    2.86789E+005
            7518    3.35289E+006    3.43739E+006    3.43739E+006    4.24243E+005   -1.74541E+005    3.61193E+006   -1.22903E+006    3.22929E+006    3.43739E+006    4.70185E+004    2.02683E+005    5.49087E+001    1.98760E+001    2.89098E+005
            7519    3.34861E+006    3.44902E+006    3.44902E+006    4.43277E+005   -1.60346E+005    3.60937E+006   -1.24398E+006    3.22278E+006    3.44902E+006   -1.27667E+003    2.84207E+005    3.65293E+001    8.01513E+001    2.65922E+005
            7520    3.34128E+006    3.46584E+006    3.46584E+006    4.66413E+005   -1.35475E+005    3.60132E+006   -1.26559E+006    3.21591E+006    3.46584E+006   -3.64991E+004    3.67437E+005    1.70001E+001    8.15591E+001    2.23106E+005
            7521    3.32839E+006    3.47185E+006    3.47185E+006    4.34187E+005   -8.60166E+004    3.55786E+006   -1.27334E+006    3.23503E+006    3.47185E+006   -2.66432E+004    3.74813E+005   -9.12077E+000   -4.26695E+001    1.65412E+005
            7522    3.32055E+006    3.47410E+006    3.47410E+006    4.05990E+005   -5.14546E+004    3.52555E+006   -1.27621E+006    3.24852E+006    3.47410E+006   -1.55241E+004    3.70060E+005    2.67324E+001    4.68574E+001    1.23066E+005
            7523    3.31419E+006    3.47786E+006    3.47786E+006    3.87067E+005   -2.17843E+004    3.49965E+006   -1.28105E+006    3.25673E+006    3.47786E+006   -6.53652E+003    3.71819E+005   -8.29485E+000    6.42715E+000    7.74697E+004
            7524    3.31021E+006    3.48268E+006    3.48268E+006    3.83328E+005   -4.25459E+003    3.48693E+006   -1.28725E+006    3.25857E+006    3.48268E+006   -2.36419E+003    3.81438E+005    7.47741E+000    2.32144E+001    2.70021E+004
            7525    3.33616E+006    3.45096E+006    3.45096E+006    3.99661E+005   -1.11143E+005    3.56210E+006   -1.24649E+006    3.24643E+006    3.45096E+006   -7.81904E+003    2.96337E+005   -3.36464E+001   -1.53378E+001    2.05189E+005
            7526    3.32723E+006    3.45076E+006    3.45076E+006    3.56473E+005   -6.85584E+004    3.51932E+006   -1.24622E+006    3.26531E+006    3.45076E+006   -4.01317E+003    2.91927E+005    4.59360E+001    3.46962E+001    1.52537E+005
            7527    3.32101E+006    3.45000E+006    3.45000E+006    3.17832E+005   -3.21416E+004    3.48214E+006   -1.24523E+006    3.27914E+006    3.45000E+006   -2.91381E+003    2.88604E+005   -2.27829E+001    6.70429E+000    9.68230E+004
            7528    3.31722E+006    3.44964E+006    3.44964E+006    2.90615E+005   -5.85500E+003    3.45550E+006   -1.24480E+006    3.28721E+006    3.44964E+006   -1.93508E+003    2.86695E+005    1.39954E+001    1.79739E+001    3.38640E+004
            7529    3.34054E+006    3.43542E+006    3.43542E+006    3.67801E+005   -1.23610E+005    3.55903E+006   -1.22654E+006    3.25773E+006    3.43542E+006    2.73665E+004    2.16824E+005   -5.17324E+001    1.01478E+000    2.26711E+005
            7530    3.33280E+006    3.43069E+006    3.43069E+006    3.11776E+005   -8.11614E+004    3.51185E+006   -1.22043E+006    3.28008E+006    3.43069E+006    1.46304E+004    2.15984E+005    4.82953E+001    1.51286E+001    1.68713E+005
            7531    3.32744E+006    3.42548E+006    3.42548E+006    2.55152E+005   -3.94871E+004    3.46496E+006   -1.21371E+006    3.29790E+006    3.42548E+006    6.21302E+003    2.09452E+005   -2.11600E+001    7.42122E+000    1.06661E+005
            7532    3.32583E+006    3.41759E+006    3.41759E+006    2.00273E+005   -7.06342E+003    3.42465E+006   -1.20360E+006    3.31125E+006    3.41759E+006   -3.00278E+002    1.93510E+005    1.17030E+001    9.64149E+000    3.68308E+004
            7533    3.34271E+006    3.42420E+006    3.42420E+006    3.39726E+005   -1.27569E+005    3.55177E+006   -1.21212E+006    3.26801E+006    3.42420E+006    6.99549E+004    1.42201E+005   -5.86877E+001    2.38703E+001    2.30838E+005
            7534    3.33479E+006    3.41698E+006    3.41698E+006    2.69021E+005   -7.75736E+004    3.49455E+006   -1.20281E+006    3.29390E+006    3.41698E+006    4.49120E+004    1.46535E+005    5.72374E+001   -8.66624E+000    1.65681E+005
            7535    3.33256E+006    3.40540E+006    3.40540E+006    1.97629E+005   -3.93059E+004    3.44470E+006   -1.18791E+006    3.31353E+006    3.40540E+006    1.80186E+004    1.40304E+005   -3.00408E+001    1.06386E+001    1.01470E+005
            7536    3.33451E+006    3.39045E+006    3.39045E+006    1.22715E+005   -7.02941E+003    3.39748E+006   -1.16871E+006    3.32882E+006    3.39045E+006    2.66029E+003    1.13025E+005    1.58889E+001   -7.25538E-001    3.41071E+004
            7537    3.33933E+006    3.42103E+006    3.42103E+006    3.11458E+005   -1.08357E+005    3.52939E+006   -1.20804E+006    3.27917E+006    3.42103E+006    1.31407E+005    7.16930E+004   -3.41195E+001    2.01230E+001    2.07773E+005
            7538    3.33460E+006    3.40590E+006    3.40590E+006    2.18021E+005   -5.82399E+004    3.46414E+006   -1.18856E+006    3.30870E+006    3.40590E+006    7.26006E+004    8.71809E+004    3.70263E+001   -2.04384E+001    1.37938E+005
            7539    3.33600E+006    3.39025E+006    3.39025E+006    1.42894E+005   -2.78404E+004    3.41809E+006   -1.16843E+006    3.32615E+006    3.39025E+006    3.01282E+004    8.49258E+004   -2.03478E+001    1.09186E+001    8.08511E+004
            7540    3.34190E+006    3.37010E+006    3.37010E+006    6.36243E+004   -6.14387E+003    3.37624E+006   -1.14253E+006    3.34026E+006    3.37010E+006    5.29110E+003    5.21893E+004    1.34071E+001   -9.65325E+000    2.58271E+004
            7541    3.34633E+006    3.35871E+006    3.35871E+006    2.58535E+004   -9.29974E+002    3.35964E+006   -1.12788E+006    3.34609E+006    3.35871E+006    8.39719E+003    1.65264E+004    2.36577E+000   -4.58567E+000    1.27600E+004
            7542    3.34926E+006    3.35170E+006    3.35170E+006    4.86783E+003    1.82244E+001    3.35168E+006   -1.11886E+006    3.34925E+006    3.35170E+006    2.56959E+003    2.31647E+003    3.58368E+000   -2.61779E+000    2.42150E+003
            7543    3.33947E+006    3.37693E+006    3.37693E+006    8.66216E+004   -9.62440E+003    3.38655E+006   -1.15131E+006    3.33634E+006    3.37693E+006    3.66916E+004    4.03056E+004    7.58662E+000   -6.25617E+000    4.80891E+004
            7544    3.34552E+006    3.36065E+006    3.36065E+006    3.11836E+004   -6.95501E+002    3.36135E+006   -1.13038E+006    3.34518E+006    3.36065E+006    2.04819E+004    1.00062E+004    6.33646E+000   -1.02690E+000    1.50544E+004
            7545    3.33527E+006    3.39425E+006    3.39425E+006    1.60717E+005   -3.42041E+004    3.42845E+006   -1.17359E+006    3.32242E+006    3.39425E+006    8.52217E+004    4.12911E+004    3.26735E+000   -9.34561E-001    9.49530E+004
            7546    3.33893E+006    3.37795E+006    3.37795E+006    8.58623E+004   -5.92150E+003    3.38387E+006   -1.15263E+006    3.33608E+006    3.37795E+006    6.97664E+004    1.01744E+004    4.69828E+000   -5.36378E+000    3.49037E+004
            7547    3.33290E+006    3.41650E+006    3.41650E+006    2.54379E+005   -6.42866E+004    3.48078E+006   -1.20220E+006    3.29836E+006    3.41650E+006    1.64040E+005    2.60522E+004   -7.70786E+000   -9.67147E+000    1.43620E+005
            7548    3.33068E+006    3.40271E+006    3.40271E+006    1.61155E+005   -1.04549E+004    3.41317E+006   -1.18447E+006    3.32071E+006    3.40271E+006    1.46115E+005    4.58565E+003   -3.26751E+000    3.71371E-001    4.85273E+004
            7549    3.32254E+006    3.43104E+006    3.43104E+006    2.43180E+005   -1.15117E+004    3.44256E+006   -1.22090E+006    3.30047E+006    3.43104E+006    2.31805E+005   -1.36551E+002   -1.24610E+001   -8.60976E+000    5.26097E+004
            7550    3.31505E+006    3.46384E+006    3.46384E+006    3.37591E+005   -1.22622E+004    3.47610E+006   -1.26306E+006    3.27313E+006    3.46384E+006    3.31131E+005   -5.80201E+003   -2.35024E+001   -9.29540E+000    4.70996E+004
            7551    3.32982E+006    3.43842E+006    3.43842E+006    3.24475E+005   -7.18003E+004    3.51022E+006   -1.23037E+006    3.27613E+006    3.43842E+006    2.48405E+005    4.26997E+003   -4.16254E+000    1.72088E+001    1.56071E+005
            7552    3.32293E+006    3.46295E+006    3.46295E+006    3.78504E+005   -5.57648E+004    3.51871E+006   -1.26190E+006    3.25817E+006    3.46295E+006    3.34459E+005   -1.17198E+004   -1.67157E+001    1.54500E+001    1.31101E+005
            7553    3.33884E+006    3.46027E+006    3.46027E+006    4.40321E+005   -1.25218E+005    3.58549E+006   -1.25846E+006    3.22843E+006    3.46027E+006    3.32363E+005   -1.72597E+004   -3.80679E+001   -3.53585E+001    2.22260E+005
            7554    3.34567E+006    3.44000E+006    3.44000E+006    4.04436E+005   -1.47207E+005    3.58720E+006   -1.23241E+006    3.24097E+006    3.44000E+006    2.41186E+005    1.60425E+004   -1.40931E+001   -2.87876E+001    2.51803E+005
            7555    3.34810E+006    3.42201E+006    3.42201E+006    3.56997E+005   -1.51101E+005    3.57311E+006   -1.20930E+006    3.25967E+006    3.42201E+006    7.96812E+004    1.26215E+005    5.22888E+001   -7.33278E-001    2.52982E+005
            7556    3.34492E+006    3.43768E+006    3.43768E+006    3.94562E+005   -1.43746E+005    3.58143E+006   -1.22950E+006    3.24531E+006    3.43768E+006    3.84504E+004    2.12366E+005    6.34329E+001   -3.07785E+001    2.54720E+005
            7557    3.34247E+006    3.45244E+006    3.45244E+006    4.30491E+005   -1.37714E+005    3.59015E+006   -1.24841E+006    3.23112E+006    3.45244E+006   -4.20275E+003    2.96980E+005    6.22495E+001   -4.85071E+000    2.40908E+005
            7558    3.33583E+006    3.46985E+006    3.46985E+006    4.58424E+005   -1.15822E+005    3.58568E+006   -1.27082E+006    3.22180E+006    3.46985E+006   -3.37295E+004    3.76332E+005    2.85779E+001   -6.77297E+000    2.01003E+005
            7559    3.31925E+006    3.47650E+006    3.47650E+006    4.08172E+005   -4.67552E+004    3.52325E+006   -1.27930E+006    3.24800E+006    3.47650E+006   -1.53818E+004    3.76798E+005   -4.02665E+001   -3.89149E+001    1.15275E+005
            7560    3.31106E+006    3.48165E+006    3.48165E+006    3.84156E+005   -8.04242E+003    3.48969E+006   -1.28592E+006    3.25819E+006    3.48165E+006   -3.83825E+003    3.79952E+005    7.48961E+000   -3.29903E+001    4.03881E+004
            7561    3.32565E+006    3.45178E+006    3.45178E+006    3.52328E+005   -6.13588E+004    3.51314E+006   -1.24758E+006    3.26701E+006    3.45178E+006   -5.73061E+003    2.96700E+005   -5.97177E+001   -6.18112E+001    1.41132E+005
            7562    3.31873E+006    3.44765E+006    3.44765E+006    2.92458E+005   -1.34274E+004    3.46108E+006   -1.24223E+006    3.28679E+006    3.44765E+006   -5.09942E+003    2.84130E+005    1.08181E+001   -1.96065E+001    4.97800E+004
            7563    3.33180E+006    3.42896E+006    3.42896E+006    2.99713E+005   -7.38878E+004    3.50285E+006   -1.21826E+006    3.28418E+006    3.42896E+006    8.45402E+003    2.17371E+005   -4.80435E+001   -1.43833E+001    1.54864E+005
            7564    3.32730E+006    3.41497E+006    3.41497E+006    2.00033E+005   -1.43283E+004    3.42930E+006   -1.20023E+006    3.31172E+006    3.41497E+006    1.41682E+002    1.85563E+005    2.66224E+000   -8.58461E+000    5.37813E+004
            7565    3.33450E+006    3.41080E+006    3.41080E+006    2.40953E+005   -6.69996E+004    3.47780E+006   -1.19492E+006    3.30228E+006    3.41080E+006    4.13010E+004    1.32653E+005   -3.61585E+001    1.67445E+000    1.47046E+005
            7566    3.33531E+006    3.38832E+006    3.38832E+006    1.17794E+005   -8.21429E+003    3.39653E+006   -1.16597E+006    3.32995E+006    3.38832E+006    9.53905E+003    1.00041E+005    1.29803E+000    3.61552E+000    4.38394E+004
            7567    3.34269E+006    3.36796E+006    3.36796E+006    5.66682E+004   -5.27951E+003    3.37324E+006   -1.13978E+006    3.34140E+006    3.36796E+006    1.02071E+004    4.11816E+004   -8.71575E+000    1.70898E+001    2.68240E+004
            7568    3.34738E+006    3.35621E+006    3.35621E+006    1.77354E+004   -5.70167E+000    3.35621E+006   -1.12465E+006    3.34727E+006    3.35621E+006    9.12294E+003    8.60673E+003   -4.58919E+000    7.69867E+000    8.86678E+003
            7569    3.33531E+006    3.39416E+006    3.39416E+006    1.61026E+005   -3.47131E+004    3.42887E+006   -1.17349E+006    3.32235E+006    3.39416E+006    6.51135E+004    6.11990E+004   -6.60173E+000    1.12850E+001    9.78498E+004
            7570    3.34239E+006    3.36876E+006    3.36876E+006    5.88344E+004   -5.17908E+003    3.37394E+006   -1.14081E+006    3.34101E+006    3.36876E+006    4.40616E+004    9.59373E+003   -1.02654E+001    1.06070E+001    2.69708E+004
            7571    3.33454E+006    3.39057E+006    3.39057E+006    1.24034E+005   -8.04343E+003    3.39862E+006   -1.16885E+006    3.32865E+006    3.39057E+006    1.07278E+005    8.71237E+003    2.11956E+000    2.42859E+000    4.39581E+004
            7572    3.32615E+006    3.41904E+006    3.41904E+006    2.11445E+005   -1.41711E+004    3.43321E+006   -1.20544E+006    3.30887E+006    3.41904E+006    1.98333E+005   -1.05981E+003    1.30755E+001    3.89646E+000    5.27846E+004
            7573    3.31705E+006    3.45441E+006    3.45441E+006    3.10292E+005   -1.20448E+004    3.46645E+006   -1.25088E+006    3.28154E+006    3.45441E+006    3.03303E+005   -5.05515E+003    1.77305E+001   -3.38274E+000    4.69485E+004
            7574    3.30956E+006    3.48945E+006    3.48945E+006    4.05038E+005   -6.72505E+003    3.49617E+006   -1.29592E+006    3.25118E+006    3.48945E+006    4.01661E+005   -3.34811E+003    2.48715E+001    1.16585E+000    3.71362E+004
            7575    3.33438E+006    3.41171E+006    3.41171E+006    2.44034E+005   -6.75154E+004    3.47922E+006   -1.19608E+006    3.30140E+006    3.41171E+006    1.41188E+005    3.53306E+004    5.22217E+000    3.62176E+001    1.46507E+005
            7576    3.33091E+006    3.43197E+006    3.43197E+006    3.06123E+005   -7.17697E+004    3.50374E+006   -1.22211E+006    3.28217E+006    3.43197E+006    2.30792E+005    3.56153E+003    1.80514E+001    3.96282E+001    1.50971E+005
            7577    3.32394E+006    3.45705E+006    3.45705E+006    3.62412E+005   -5.64694E+004    3.51352E+006   -1.25433E+006    3.26376E+006    3.45705E+006    3.13756E+005   -7.81368E+003    5.83240E+001    4.44696E+001    1.34215E+005
            7578    3.31734E+006    3.48290E+006    3.48290E+006    4.20952E+005   -4.13470E+004    3.52424E+006   -1.28750E+006    3.24368E+006    3.48290E+006    3.95311E+005   -1.57055E+004    2.61912E+001    1.86140E+001    1.05814E+005
            7579    3.33222E+006    3.47770E+006    3.47770E+006    4.68250E+005   -1.03337E+005    3.58104E+006   -1.28087E+006    3.21914E+006    3.47770E+006    4.04875E+005   -3.99627E+004    1.65059E+000    2.59882E+001    1.79465E+005
            7580    3.34003E+006    3.45778E+006    3.45778E+006    4.37134E+005   -1.29218E+005    3.58700E+006   -1.25523E+006    3.22934E+006    3.45778E+006    3.23318E+005   -1.54032E+004    3.86531E+000   -2.36647E+001    2.26949E+005
            7581    3.34391E+006    3.44029E+006    3.44029E+006    3.98529E+005   -1.40324E+005    3.58061E+006   -1.23283E+006    3.24407E+006    3.44029E+006    2.34714E+005    2.34913E+004    2.99808E+001   -3.23774E+001    2.47865E+005
            7582    3.34813E+006    3.42242E+006    3.42242E+006    3.58382E+005   -1.51354E+005    3.57377E+006   -1.20981E+006    3.25912E+006    3.42242E+006    1.43766E+005    6.32631E+004    9.03996E+000   -4.08343E+001    2.51670E+005
            7583    3.30679E+006    3.51027E+006    3.51027E+006    4.65078E+005   -7.31257E+003    3.51758E+006   -1.32268E+006    3.22957E+006    3.51027E+006   -5.45325E+003    4.63219E+005   -3.51209E-002   -2.75346E+001    2.95782E+004
            7584    3.31340E+006    3.49998E+006    3.49998E+006    4.60826E+005   -3.23773E+004    3.53235E+006   -1.30948E+006    3.22926E+006    3.49998E+006   -1.85238E+004    4.46972E+005   -2.53413E+001   -8.52949E+001    8.14903E+004
            7585    3.32784E+006    3.48992E+006    3.48992E+006    4.88424E+005   -8.87588E+004    3.57868E+006   -1.29653E+006    3.21232E+006    3.48992E+006   -4.83344E+004    4.48000E+005   -9.03321E+000    7.05589E-001    1.47303E+005
            7586    3.30406E+006    3.53203E+006    3.53203E+006    5.24568E+005   -4.71548E+003    3.53675E+006   -1.35063E+006    3.20659E+006    3.53203E+006   -4.15062E+003    5.24003E+005   -9.77560E+000   -2.65478E+001    1.72816E+004
            7587    3.30969E+006    3.51825E+006    3.51825E+006    5.04212E+005   -2.36436E+004    3.54189E+006   -1.33294E+006    3.21293E+006    3.51825E+006   -1.91080E+004    4.99677E+005   -2.51863E-001   -2.23008E+001    4.87190E+004
            7588    3.32035E+006    3.50798E+006    3.50798E+006    5.14581E+005   -6.34252E+004    3.57141E+006   -1.31971E+006    3.20422E+006    3.50798E+006   -5.02596E+004    5.01415E+005   -5.50542E+001    1.05333E+001    8.62351E+004
            7589    3.30318E+006    3.54328E+006    3.54328E+006    5.56134E+005   -4.24574E+003    3.54752E+006   -1.36505E+006    3.19360E+006    3.54328E+006   -4.18540E+003    5.56074E+005   -2.39919E+001   -7.05801E+000    5.81459E+003
            7590    3.30790E+006    3.52836E+006    3.52836E+006    5.28982E+005   -1.95082E+004    3.54787E+006   -1.34594E+006    3.20319E+006    3.52836E+006   -1.90693E+004    5.28543E+005    2.13481E+001   -4.28270E+001    1.55101E+004
            7591    3.31641E+006    3.51832E+006    3.51832E+006    5.30451E+005   -4.99972E+004    3.56831E+006   -1.33292E+006    3.19912E+006    3.51832E+006   -4.85731E+004    5.29027E+005   -8.52499E+001   -8.34324E+000    2.87156E+004
            7592    3.30863E+006    3.49631E+006    3.49631E+006    4.25505E+005   -7.50418E+003    3.50382E+006   -1.30477E+006    3.24397E+006    3.49631E+006    4.22561E+005   -4.56093E+003   -2.51324E+001   -4.67117E+000   -3.55779E+004
            7593    3.31642E+006    3.48778E+006    3.48778E+006    4.33642E+005   -3.99936E+004    3.52777E+006   -1.29381E+006    3.23901E+006    3.48778E+006    4.11216E+005   -1.75684E+004   -6.46703E+001    3.15536E+001   -1.00591E+005
            7594    3.33125E+006    3.48062E+006    3.48062E+006    4.73543E+005   -1.00254E+005    3.58087E+006   -1.28464E+006    3.21724E+006    3.48062E+006    4.14287E+005   -4.09975E+004   -1.11013E+001   -1.05740E+001   -1.74614E+005
            7595    3.30519E+006    3.52247E+006    3.52247E+006    4.98772E+005   -6.10474E+003    3.52858E+006   -1.33838E+006    3.21672E+006    3.52247E+006    4.97672E+005   -5.00488E+003   -2.62771E+001    5.89622E+000   -2.35389E+004
            7596    3.31114E+006    3.51054E+006    3.51054E+006    4.85638E+005   -2.70413E+004    3.53758E+006   -1.32305E+006    3.22003E+006    3.51054E+006    4.77274E+005   -1.86773E+004   -4.00093E+001    3.40572E+000   -6.49469E+004
            7597    3.32341E+006    3.50012E+006    3.50012E+006    5.02541E+005   -7.37488E+004    3.57387E+006   -1.30964E+006    3.20810E+006    3.50012E+006    4.78466E+005   -4.96734E+004    1.75431E+001    3.06356E+001   -1.15303E+005
            7598    3.30334E+006    3.53976E+006    3.53976E+006    5.46178E+005   -4.20694E+003    3.54397E+006   -1.36058E+006    3.19774E+006    3.53976E+006    5.45957E+005   -3.98627E+003   -1.62143E+001    1.53085E+001   -1.10185E+004
            7599    3.30857E+006    3.52495E+006    3.52495E+006    5.20929E+005   -2.11911E+004    3.54615E+006   -1.34156E+006    3.20635E+006    3.52495E+006    5.19194E+005   -1.94556E+004   -5.07410E+001   -1.50876E+001   -3.06243E+004
            7600    3.31746E+006    3.51504E+006    3.51504E+006    5.25102E+005   -5.37402E+004    3.56878E+006   -1.32880E+006    3.20087E+006    3.51504E+006    5.19861E+005   -4.84997E+004   -9.01366E+000    6.86222E+001   -5.48268E+004
            7601    3.30314E+006    3.54454E+006    3.54454E+006    5.60083E+005   -4.50014E+003    3.54904E+006   -1.36671E+006    3.19186E+006    3.54454E+006    5.60080E+005   -4.49671E+003   -8.72492E+000    2.36344E+001    1.39159E+003
            7602    3.30774E+006    3.52973E+006    3.52973E+006    5.32571E+005   -1.92001E+004    3.54893E+006   -1.34770E+006    3.20174E+006    3.52973E+006    5.32551E+005   -1.91801E+004    3.97826E+000   -2.44737E+001    3.31412E+003
            7603    3.31588E+006    3.51955E+006    3.51955E+006    5.32441E+005   -4.83522E+004    3.56791E+006   -1.33455E+006    3.19843E+006    3.51955E+006    5.32433E+005   -4.83439E+004    1.09692E+001    8.46846E+001    2.19966E+003
            7604    3.30351E+006    3.53715E+006    3.53715E+006    5.38565E+005   -4.08930E+003    3.54124E+006   -1.35721E+006    3.20093E+006    3.53715E+006    5.38231E+005   -3.75525E+003    9.11818E+000    1.86619E+001    1.34596E+004
            7605    3.30897E+006    3.52277E+006    3.52277E+006    5.15559E+005   -2.21078E+004    3.54488E+006   -1.33874E+006    3.20848E+006    3.52277E+006    5.12874E+005   -1.94222E+004   -3.95113E+000   -2.23816E+001    3.79045E+004
            7606    3.31771E+006    3.51406E+006    3.51406E+006    5.22966E+005   -5.44720E+004    3.56853E+006   -1.32752E+006    3.20172E+006    3.51406E+006    5.16977E+005   -4.84835E+004   -1.05414E+001    8.87479E+001    5.84989E+004
            7607    3.30591E+006    3.51719E+006    3.51719E+006    4.84244E+005   -6.76157E+003    3.52395E+006   -1.33156E+006    3.22234E+006    3.51719E+006    4.82850E+005   -5.36723E+003    1.40757E+001    1.38261E+001    2.61282E+004
            7608    3.31188E+006    3.50633E+006    3.50633E+006    4.75021E+005   -2.84604E+004    3.53479E+006   -1.31763E+006    3.22409E+006    3.50633E+006    4.64667E+005   -1.81067E+004    5.37472E+001   -5.50267E+000    7.14542E+004
            7609    3.32395E+006    3.49848E+006    3.49848E+006    4.99294E+005   -7.53117E+004    3.57380E+006   -1.30749E+006    3.20935E+006    3.49848E+006    4.73018E+005   -4.90356E+004    1.84712E+000    6.18656E+001    1.20033E+005
            7610    3.32791E+006    3.48990E+006    3.48990E+006    4.88504E+005   -8.89355E+004    3.57884E+006   -1.29649E+006    3.21228E+006    3.48990E+006   -4.85806E+004    4.48149E+005   -1.98106E+001    1.19891E+000   -1.47221E+005
            7611    3.31329E+006    3.50020E+006    3.50020E+006    4.61066E+005   -3.19876E+004    3.53219E+006   -1.30976E+006    3.22921E+006    3.50020E+006   -1.83258E+004    4.47404E+005   -2.11353E+001    8.44593E+001   -8.09281E+004
            7612    3.30678E+006    3.51061E+006    3.51061E+006    4.66084E+005   -7.38352E+003    3.51799E+006   -1.32310E+006    3.22920E+006    3.51061E+006   -5.55012E+003    4.64251E+005   -2.46638E+000    2.59230E+001   -2.94057E+004
            7613    3.32033E+006    3.50812E+006    3.50812E+006    5.14731E+005   -6.32589E+004    3.57137E+006   -1.31986E+006    3.20420E+006    3.50812E+006   -5.02517E+004    5.01724E+005   -7.17038E+001   -1.06333E+001   -8.57255E+004
            7614    3.30967E+006    3.51822E+006    3.51822E+006    5.04023E+005   -2.35584E+004    3.54177E+006   -1.33289E+006    3.21302E+006    3.51822E+006   -1.90158E+004    4.99481E+005    8.52166E+000    1.49088E+001   -4.87435E+004
            7615    3.30403E+006    3.53221E+006    3.53221E+006    5.24938E+005   -4.60555E+003    3.53682E+006   -1.35085E+006    3.20646E+006    3.53221E+006   -4.04767E+003    5.24380E+005   -1.38349E+001    2.35910E+001   -1.71787E+004
            7616    3.31635E+006    3.51842E+006    3.51842E+006    5.30479E+005   -4.97581E+004    3.56818E+006   -1.33305E+006    3.19914E+006    3.51842E+006   -4.84031E+004    5.29124E+005   -9.30378E+001    9.11929E+000   -2.80076E+004
            7617    3.30786E+006    3.52835E+006    3.52835E+006    5.28810E+005   -1.93547E+004    3.54770E+006   -1.34593E+006    3.20328E+006    3.52835E+006   -1.88864E+004    5.28341E+005    2.66446E+001    3.49846E+001   -1.60162E+004
            7618    3.30319E+006    3.54327E+006    3.54327E+006    5.56152E+005   -4.28166E+003    3.54756E+006   -1.36505E+006    3.19359E+006    3.54327E+006   -4.22005E+003    5.56090E+005   -2.66340E+001    2.86671E+000   -5.87571E+003
            7619    3.34205E+006    3.36975E+006    3.36975E+006    6.20600E+004   -5.62017E+003    3.37537E+006   -1.14206E+006    3.34051E+006    3.36975E+006    5.72837E+003    5.07114E+004   -1.30067E+001   -1.10139E+000   -2.52840E+004
            7620    3.33491E+006    3.38954E+006    3.38954E+006    1.20342E+005   -7.41738E+003    3.39696E+006   -1.16749E+006    3.32940E+006    3.38954E+006    2.30241E+003    1.10622E+005   -1.48900E+001   -2.31454E+000   -3.38722E+004
            7621    3.32609E+006    3.41697E+006    3.41697E+006    1.98374E+005   -7.08170E+003    3.42405E+006   -1.20275E+006    3.31177E+006    3.41697E+006   -4.92871E+002    1.91785E+005   -3.41394E+000   -8.71987E+000   -3.61980E+004
            7622    3.31723E+006    3.44968E+006    3.44968E+006    2.90281E+005   -5.55845E+003    3.45524E+006   -1.24480E+006    3.28735E+006    3.44968E+006   -1.72808E+003    2.86450E+005   -5.29710E+000   -1.87260E+001   -3.34440E+004
            7623    3.31026E+006    3.48269E+006    3.48269E+006    3.83406E+005   -4.38946E+003    3.48708E+006   -1.28723E+006    3.25857E+006    3.48269E+006   -2.53440E+003    3.81551E+005    1.73024E+000   -2.46046E+001   -2.67570E+004
            7624    3.33599E+006    3.39021E+006    3.39021E+006    1.42802E+005   -2.78067E+004    3.41802E+006   -1.16840E+006    3.32615E+006    3.39021E+006    3.03959E+004    8.45997E+004    5.86925E+001    2.37538E+001   -8.08847E+004
            7625    3.33257E+006    3.40500E+006    3.40500E+006    1.96089E+005   -3.87944E+004    3.44379E+006   -1.18743E+006    3.31387E+006    3.40500E+006    1.75664E+004    1.39728E+005    6.96534E+001    9.91020E+000   -1.00308E+005
            7626    3.32737E+006    3.42520E+006    3.42520E+006    2.53864E+005   -3.88600E+004    3.46406E+006   -1.21340E+006    3.29822E+006    3.42520E+006    6.45154E+003    2.08552E+005    4.32800E+001   -1.32219E+001   -1.05880E+005
            7627    3.32094E+006    3.44996E+006    3.44996E+006    3.17612E+005   -3.19208E+004    3.48188E+006   -1.24522E+006    3.27918E+006    3.44996E+006   -3.08305E+003    2.88774E+005    3.78266E+001   -3.05946E+001   -9.61671E+004
            7628    3.31405E+006    3.47805E+006    3.47805E+006    3.87008E+005   -2.11996E+004    3.49925E+006   -1.28129E+006    3.25677E+006    3.47805E+006   -6.18345E+003    3.71992E+005    1.74357E+001   -3.80597E+001   -7.68391E+004
            7629    3.33459E+006    3.40599E+006    3.40599E+006    2.18871E+005   -5.87152E+004    3.46470E+006   -1.18871E+006    3.30844E+006    3.40599E+006    7.32836E+004    8.68720E+004   -4.38070E+001   -1.96941E+001   -1.38627E+005
            7630    3.33473E+006    3.41689E+006    3.41689E+006    2.68559E+005   -7.72811E+004    3.49417E+006   -1.20272E+006    3.29402E+006    3.41689E+006    4.44568E+004    1.46821E+005   -5.80216E+001   -2.60227E+001   -1.65172E+005
            7631    3.33264E+006    3.43095E+006    3.43095E+006    3.11892E+005   -8.05274E+004    3.51148E+006   -1.22077E+006    3.28006E+006    3.43095E+006    1.37759E+004    2.17589E+005   -3.49047E+001   -1.20406E+001   -1.67670E+005
            7632    3.32708E+006    3.45103E+006    3.45103E+006    3.56670E+005   -6.79939E+004    3.51903E+006   -1.24657E+006    3.26527E+006    3.45103E+006   -4.30084E+003    2.92977E+005   -2.75327E+001   -3.69069E+000   -1.51629E+005
            7633    3.32038E+006    3.47429E+006    3.47429E+006    4.05835E+005   -5.07601E+004    3.52505E+006   -1.27645E+006    3.24862E+006    3.47429E+006   -1.53983E+004    3.70474E+005    1.28999E-001    2.58586E+000   -1.22048E+005
            7634    3.33930E+006    3.42107E+006    3.42107E+006    3.11352E+005   -1.08159E+005    3.52923E+006   -1.20809E+006    3.27923E+006    3.42107E+006    1.31258E+005    7.19351E+004    4.09164E+001    2.68712E+001   -2.07647E+005
            7635    3.34266E+006    3.42443E+006    3.42443E+006    3.40212E+005   -1.27435E+005    3.55186E+006   -1.21240E+006    3.26785E+006    3.42443E+006    6.94136E+004    1.43363E+005    7.95519E+001    1.56204E+001   -2.30882E+005
            7636    3.34039E+006    3.43583E+006    3.43583E+006    3.68397E+005   -1.23059E+005    3.55889E+006   -1.22706E+006    3.25756E+006    3.43583E+006    2.62557E+004    2.19083E+005    7.70788E+001   -3.77493E+001   -2.26024E+005
            7637    3.33606E+006    3.45132E+006    3.45132E+006    4.00406E+005   -1.10857E+005    3.56218E+006   -1.24696E+006    3.24616E+006    3.45132E+006   -8.34634E+003    2.97896E+005    6.15703E+001   -6.42894E+001   -2.04698E+005
            7638    3.32836E+006    3.47198E+006    3.47198E+006    4.34225E+005   -8.57786E+004    3.55776E+006   -1.27348E+006    3.23508E+006    3.47198E+006   -2.66529E+004    3.75100E+005    3.04929E+001   -1.00173E+002   -1.65075E+005
            7639    3.34140E+006    3.46563E+006    3.46563E+006    4.66477E+005   -1.36041E+005    3.60167E+006   -1.26535E+006    3.21576E+006    3.46563E+006   -3.63698E+004    3.66806E+005    4.16076E-002    5.26075E+001   -2.23873E+005
            7640    3.34861E+006    3.44902E+006    3.44902E+006    4.43482E+005   -1.60458E+005    3.60948E+006   -1.24401E+006    3.22264E+006    3.44902E+006   -5.03785E+002    2.83528E+005   -4.36967E+001    4.98254E+001   -2.66491E+005
            7641    3.35283E+006    3.43726E+006    3.43726E+006    4.24176E+005   -1.74624E+005    3.61188E+006   -1.22894E+006    3.22922E+006    3.43726E+006    4.76539E+004    2.01898E+005   -7.76408E+001   -1.65321E+001   -2.89297E+005
            7642    3.35236E+006    3.43068E+006    3.43068E+006    4.02529E+005   -1.71719E+005    3.60239E+006   -1.22049E+006    3.23893E+006    3.43068E+006    1.02418E+005    1.28391E+005   -1.09550E+002   -3.66383E+001   -2.86830E+005
            7643    3.35131E+006    3.42721E+006    3.42721E+006    3.87435E+005   -1.66591E+005    3.59380E+006   -1.21602E+006    3.24587E+006    3.42721E+006    1.63227E+005    5.76170E+004   -5.81483E+001   -4.28914E+001   -2.71934E+005
            7644    3.34561E+006    3.43999E+006    3.43999E+006    4.04317E+005   -1.47045E+005    3.58704E+006   -1.23242E+006    3.24102E+006    3.43999E+006    2.41800E+005    1.54721E+004   -2.36333E+001   -4.18249E+001   -2.51384E+005
            7645    3.33873E+006    3.46027E+006    3.46027E+006    4.40080E+005   -1.24904E+005    3.58518E+006   -1.25848E+006    3.22855E+006    3.46027E+006    3.32886E+005   -1.77105E+004    2.89195E+000   -4.23417E+001   -2.21523E+005
            7646    3.32301E+006    3.46263E+006    3.46263E+006    3.77935E+005   -5.60504E+004    3.51868E+006   -1.26150E+006    3.25833E+006    3.46263E+006    3.33226E+005   -1.13414E+004   -3.57624E+001    3.58138E+001   -1.31925E+005
            7647    3.31522E+006    3.46316E+006    3.46316E+006    3.35627E+005   -1.23025E+004    3.47546E+006   -1.26216E+006    3.27376E+006    3.46316E+006    3.29105E+005   -5.78061E+003   -2.10810E+001   -5.22618E+000   -4.71871E+004
            7648    3.32985E+006    3.43812E+006    3.43812E+006    3.24049E+005   -7.20663E+004    3.51019E+006   -1.23004E+006    3.27621E+006    3.43812E+006    2.47636E+005    4.34751E+003   -2.84812E+001    3.63417E+001   -1.56300E+005
            7649    3.32267E+006    3.43069E+006    3.43069E+006    2.42247E+005   -1.16412E+004    3.44233E+006   -1.22043E+006    3.30074E+006    3.43069E+006    2.30834E+005   -2.28571E+002   -1.24808E+001   -5.86426E-001   -5.26050E+004
            7650    3.33073E+006    3.40260E+006    3.40260E+006    1.61179E+005   -1.07629E+004    3.41337E+006   -1.18434E+006    3.32072E+006    3.40260E+006    1.46021E+005    4.39525E+003   -1.70689E+000    1.09665E+001   -4.87499E+004
            7651    3.33889E+006    3.37802E+006    3.37802E+006    8.56856E+004   -5.54537E+003    3.38357E+006   -1.15272E+006    3.33608E+006    3.37802E+006    6.95335E+004    1.06068E+004    7.76635E+000    2.85750E+000   -3.48236E+004
            7652    3.34559E+006    3.36050E+006    3.36050E+006    3.07548E+004   -7.13583E+002    3.36121E+006   -1.13018E+006    3.34526E+006    3.36050E+006    2.04226E+004    9.61858E+003    9.36727E+000    5.26579E+000   -1.47778E+004
            7653    3.34927E+006    3.35172E+006    3.35172E+006    4.89882E+003    1.38842E+001    3.35171E+006   -1.11888E+006    3.34926E+006    3.35172E+006    2.59911E+003    2.31359E+003    5.02406E+000    4.56458E+000   -2.43829E+003
            7654    3.33288E+006    3.41646E+006    3.41646E+006    2.54282E+005   -6.42553E+004    3.48071E+006   -1.20216E+006    3.29837E+006    3.41646E+006    1.64077E+005    2.59504E+004   -1.47119E+000    4.56122E+000   -1.43516E+005
            7655    3.33521E+006    3.39444E+006    3.39444E+006    1.61510E+005   -3.44203E+004    3.42886E+006   -1.17384E+006    3.32222E+006    3.39444E+006    8.56979E+004    4.13919E+004    6.45431E+000    1.50751E+001   -9.54276E+004
            7656    3.33945E+006    3.37701E+006    3.37701E+006    8.70353E+004   -9.81620E+003    3.38682E+006   -1.15141E+006    3.33629E+006    3.37701E+006    3.70227E+004    4.01964E+004    1.09064E+001    8.03492E+000   -4.83997E+004
            7657    3.34649E+006    3.35833E+006    3.35833E+006    2.48077E+004   -9.81831E+002    3.35931E+006   -1.12739E+006    3.34627E+006    3.35833E+006    7.89855E+003    1.59273E+004    4.38981E+000    7.84224E+000   -1.22540E+004
            7658    3.33537E+006    3.38816E+006    3.38816E+006    1.17338E+005   -8.22423E+003    3.39638E+006   -1.16576E+006    3.33005E+006    3.38816E+006    9.53530E+003    9.95781E+004    1.32830E+000   -3.79876E+000   -4.37552E+004
            7659    3.32725E+006    3.41518E+006    3.41518E+006    2.00580E+005   -1.42998E+004    3.42948E+006   -1.20049E+006    3.31158E+006    3.41518E+006    1.35075E+002    1.86145E+005    3.33743E+000    1.02239E+001   -5.37902E+004
            7660    3.31854E+006    3.44850E+006    3.44850E+006    2.94848E+005   -1.34109E+004    3.46192E+006   -1.24331E+006    3.28610E+006    3.44850E+006   -5.23440E+003    2.86671E+005    1.17395E+001    2.12701E+001   -4.95339E+004
            7661    3.31087E+006    3.48261E+006    3.48261E+006    3.86638E+005   -7.81286E+003    3.49042E+006   -1.28714E+006    3.25737E+006    3.48261E+006   -3.69951E+003    3.82525E+005    8.14385E+000    3.40251E+001   -4.00698E+004
            7662    3.33450E+006    3.41091E+006    3.41091E+006    2.41454E+005   -6.71773E+004    3.47808E+006   -1.19506E+006    3.30213E+006    3.41091E+006    4.12567E+004    1.33020E+005   -3.98430E+001    2.23063E-001   -1.47337E+005
            7663    3.33178E+006    3.42914E+006    3.42914E+006    3.00315E+005   -7.39776E+004    3.50312E+006   -1.21849E+006    3.28398E+006    3.42914E+006    7.99704E+003    2.18341E+005   -5.38399E+001    1.56684E+001   -1.54799E+005
            7664    3.32553E+006    3.45213E+006    3.45213E+006    3.52927E+005   -6.09862E+004    3.51311E+006   -1.24802E+006    3.26683E+006    3.45213E+006   -6.02284E+003    2.97964E+005   -6.62385E+001    6.65063E+001   -1.40460E+005
            7665    3.31910E+006    3.47685E+006    3.47685E+006    4.08608E+005   -4.61990E+004    3.52305E+006   -1.27975E+006    3.24789E+006    3.47685E+006   -1.53640E+004    3.77773E+005   -4.42001E+001    3.81149E+001   -1.14338E+005
            7666    3.33591E+006    3.46985E+006    3.46985E+006    4.58704E+005   -1.16118E+005    3.58597E+006   -1.27081E+006    3.22165E+006    3.46985E+006   -3.37307E+004    3.76317E+005    2.38870E+001    5.33228E+000   -2.01422E+005
            7667    3.34250E+006    3.45254E+006    3.45254E+006    4.30889E+005   -1.37834E+005    3.59037E+006   -1.24853E+006    3.23094E+006    3.45254E+006   -3.99230E+003    2.97048E+005    6.62004E+001    6.05729E+000   -2.41258E+005
            7668    3.34485E+006    3.43774E+006    3.43774E+006    3.94487E+005   -1.43496E+005    3.58123E+006   -1.22958E+006    3.24537E+006    3.43774E+006    3.87566E+004    2.12235E+005    6.65167E+001    3.35598E+001   -2.54623E+005
            7669    3.34815E+006    3.42190E+006    3.42190E+006    3.56863E+005   -1.51268E+005    3.57317E+006   -1.20917E+006    3.25971E+006    3.42190E+006    7.90253E+004    1.26570E+005    5.38922E+001    2.20724E+000   -2.52951E+005
            7670    3.34806E+006    3.42255E+006    3.42255E+006    3.58583E+005   -1.51149E+005    3.57370E+006   -1.21000E+006    3.25905E+006    3.42255E+006    1.43549E+005    6.38855E+004    7.07668E+000    4.34032E+001   -2.51734E+005
            7671    3.34392E+006    3.44033E+006    3.44033E+006    3.98743E+005   -1.40404E+005    3.58073E+006   -1.23289E+006    3.24396E+006    3.44033E+006    2.35167E+005    2.31717E+004    3.16694E+001    2.96963E+001   -2.47860E+005
            7672    3.33995E+006    3.45781E+006    3.45781E+006    4.37001E+005   -1.28975E+005    3.58678E+006   -1.25528E+006    3.22941E+006    3.45781E+006    3.23724E+005   -1.56972E+004    1.17834E+000    2.70682E+001   -2.26452E+005
            7673    3.33217E+006    3.47756E+006    3.47756E+006    4.67738E+005   -1.03197E+005    3.58075E+006   -1.28070E+006    3.21936E+006    3.47756E+006    4.04415E+005   -3.98746E+004    8.16165E+000   -1.87198E+001   -1.79286E+005
            7674    3.31746E+006    3.48286E+006    3.48286E+006    4.21447E+005   -4.19294E+004    3.52479E+006   -1.28746E+006    3.24345E+006    3.48286E+006    3.95694E+005   -1.61762E+004    2.69837E+001   -2.06784E+001   -1.06161E+005
            7675    3.30971E+006    3.48893E+006    3.48893E+006    4.04057E+005   -7.19114E+003    3.49612E+006   -1.29526E+006    3.25149E+006    3.48893E+006    4.00588E+005   -3.72300E+003    2.64460E+001   -8.44300E-001   -3.76063E+004
            7676    3.32401E+006    3.45690E+006    3.45690E+006    3.62311E+005   -5.67773E+004    3.51368E+006   -1.25415E+006    3.26378E+006    3.45690E+006    3.13260E+005   -7.72568E+003    5.88156E+001   -4.37179E+001   -1.34725E+005
            7677    3.31697E+006    3.45468E+006    3.45468E+006    3.11068E+005   -1.20065E+004    3.46669E+006   -1.25125E+006    3.28129E+006    3.45468E+006    3.03970E+005   -4.90836E+003    1.77661E+001    2.64207E+000   -4.73588E+004
            7678    3.33090E+006    3.43198E+006    3.43198E+006    3.06132E+005   -7.17517E+004    3.50373E+006   -1.22212E+006    3.28216E+006    3.43198E+006    2.30306E+005    4.07428E+003    1.65174E+001   -3.64601E+001   -1.51340E+005
            7679    3.32594E+006    3.41975E+006    3.41975E+006    2.13490E+005   -1.41689E+004    3.43392E+006   -1.20636E+006    3.30834E+006    3.41975E+006    2.00399E+005   -1.07860E+003    1.24679E+001   -5.37980E+000   -5.29977E+004
            7680    3.33436E+006    3.41176E+006    3.41176E+006    2.44147E+005   -6.74522E+004    3.47922E+006   -1.19615E+006    3.30136E+006    3.41176E+006    1.41159E+005    3.55364E+004    3.12953E+000   -3.62393E+001   -1.46576E+005
            7681    3.33437E+006    3.39105E+006    3.39105E+006    1.25369E+005   -7.99459E+003    3.39905E+006   -1.16948E+006    3.32836E+006    3.39105E+006    1.08608E+005    8.76632E+003    1.70091E+000   -2.41817E+000   -4.42082E+004
            7682    3.34230E+006    3.36897E+006    3.36897E+006    5.92754E+004   -5.02625E+003    3.37399E+006   -1.14107E+006    3.34091E+006    3.36897E+006    4.45747E+004    9.67448E+003   -1.03750E+001   -1.09013E+001   -2.70031E+004
            7683    3.34738E+006    3.35620E+006    3.35620E+006    1.77231E+004   -6.16599E+000    3.35621E+006   -1.12464E+006    3.34727E+006    3.35620E+006    9.28721E+003    8.42975E+003   -4.49868E+000   -8.37616E+000   -8.85427E+003
            7684    3.33529E+006    3.39422E+006    3.39422E+006    1.61182E+005   -3.46894E+004    3.42891E+006   -1.17357E+006    3.32231E+006    3.39422E+006    6.52173E+004    6.12755E+004   -7.34623E+000   -1.17142E+001   -9.79160E+004
            7685    3.34278E+006    3.36775E+006    3.36775E+006    5.61956E+004   -5.41314E+003    3.37316E+006   -1.13951E+006    3.34150E+006    3.36775E+006    1.01270E+004    4.06555E+004   -9.38470E+000   -1.80911E+001   -2.67565E+004
            7686    3.33119E+006    3.48712E+006    3.48712E+006    4.92523E+005   -1.00894E+005    3.58802E+006   -1.29292E+006    3.20902E+006    3.48712E+006   -5.24235E+004    4.44053E+005    5.78579E+001    9.54792E+001   -1.62523E+005
            7687    3.32081E+006    3.49345E+006    3.49345E+006    4.71362E+005   -6.16126E+004    3.55506E+006   -1.30107E+006    3.22247E+006    3.49345E+006   -3.38722E+004    4.43621E+005   -1.20901E+001   -8.96445E+001   -1.18387E+005
            7688    3.31406E+006    3.49801E+006    3.49801E+006    4.57158E+005   -3.43456E+004    3.53236E+006   -1.30694E+006    3.23053E+006    3.49801E+006   -1.83138E+004    4.41126E+005    3.71080E+001    6.92105E+000   -8.73079E+004
            7689    3.30904E+006    3.50415E+006    3.50415E+006    4.54612E+005   -1.43568E+004    3.51850E+006   -1.31480E+006    3.23300E+006    3.50415E+006   -7.95136E+003    4.48206E+005   -3.34549E+000   -3.84508E+001   -5.44328E+004
            7690    3.30546E+006    3.51266E+006    3.51266E+006    4.67136E+005   -2.49502E+003    3.51516E+006   -1.32577E+006    3.22912E+006    3.51266E+006   -1.73153E+003    4.66372E+005    7.09778E+000   -2.53393E+001   -1.89202E+004
            7691    3.32269E+006    3.50609E+006    3.50609E+006    5.17611E+005   -7.18989E+004    3.57799E+006   -1.31727E+006    3.20185E+006    3.50609E+006   -5.61399E+004    5.01852E+005    7.78105E+001    4.02149E+001   -9.50880E+004
            7692    3.31529E+006    3.51124E+006    3.51124E+006    5.04903E+005   -4.43798E+004    3.55562E+006   -1.32392E+006    3.21051E+006    3.51124E+006   -3.53438E+004    4.95867E+005   -4.78212E+001   -7.31657E+001   -6.98690E+004
            7693    3.31018E+006    3.51670E+006    3.51670E+006    5.01395E+005   -2.52172E+004    3.54192E+006   -1.33096E+006    3.21390E+006    3.51670E+006   -2.00535E+004    4.96231E+005    7.55747E+001    4.56404E+000   -5.18902E+004
            7694    3.30596E+006    3.52448E+006    3.52448E+006    5.08161E+005   -9.94284E+003    3.53442E+006   -1.34090E+006    3.21271E+006    3.52448E+006   -7.88445E+003    5.06102E+005   -2.16298E+001   -2.54530E+001   -3.25918E+004
            7695    3.30322E+006    3.53416E+006    3.53416E+006    5.28145E+005   -2.11289E+003    3.53627E+006   -1.35340E+006    3.20536E+006    3.53416E+006   -1.87098E+003    5.27903E+005    1.26044E+001   -1.85339E+001   -1.13233E+004
            7696    3.31815E+006    3.51672E+006    3.51672E+006    5.32290E+005   -5.63581E+004    3.57308E+006   -1.33088E+006    3.19750E+006    3.51672E+006   -5.48384E+004    5.30770E+005    9.53974E+001    3.28615E+001   -2.98708E+004
            7697    3.31261E+006    3.52115E+006    3.52115E+006    5.25067E+005   -3.62610E+004    3.55741E+006   -1.33665E+006    3.20298E+006    3.52115E+006   -3.53229E+004    5.24129E+005   -6.48379E+001   -1.42508E+001   -2.29274E+004
            7698    3.30805E+006    3.52728E+006    3.52728E+006    5.26185E+005   -1.97952E+004    3.54707E+006   -1.34456E+006    3.20432E+006    3.52728E+006   -1.92655E+004    5.25655E+005    9.79670E+001    3.23085E+000   -1.69977E+004
            7699    3.30471E+006    3.53542E+006    3.53542E+006    5.37639E+005   -8.23701E+003    3.54366E+006   -1.35494E+006    3.20091E+006    3.53542E+006   -8.02458E+003    5.37427E+005   -3.02153E+001   -8.84564E+000   -1.07664E+004
            7700    3.30228E+006    3.54581E+006    3.54581E+006    5.60859E+005   -1.55389E+003    3.54737E+006   -1.36837E+006    3.19185E+006    3.54581E+006   -1.52781E+003    5.60832E+005    1.40648E+001   -5.96065E+000   -3.82952E+003
            7701    3.33140E+006    3.48052E+006    3.48052E+006    4.73714E+005   -1.00747E+005    3.58127E+006   -1.28450E+006    3.21712E+006    3.48052E+006    4.14188E+005   -4.12216E+004   -8.75304E+000    3.25964E+000    1.75077E+005
            7702    3.31627E+006    3.48815E+006    3.48815E+006    4.34160E+005   -3.94664E+004    3.52761E+006   -1.29428E+006    3.23886E+006    3.48815E+006    4.12085E+005   -1.73918E+004   -6.53288E+001   -2.93557E+001    9.98390E+004
            7703    3.30854E+006    3.49696E+006    3.49696E+006    4.27244E+005   -7.41980E+003    3.50438E+006   -1.30560E+006    3.24337E+006    3.49696E+006    4.24354E+005   -4.52993E+003   -2.50608E+001    3.74111E+000    3.53237E+004
            7704    3.32343E+006    3.50017E+006    3.50017E+006    5.02619E+005   -7.37434E+004    3.57391E+006   -1.30968E+006    3.20808E+006    3.50017E+006    4.78594E+005   -4.97181E+004    1.60082E+001   -4.26901E+001    1.15196E+005
            7705    3.31112E+006    3.51065E+006    3.51065E+006    4.85863E+005   -2.69596E+004    3.53761E+006   -1.32319E+006    3.21995E+006    3.51065E+006    4.77545E+005   -1.86418E+004   -3.77470E+001    1.25118E+000    6.47795E+004
            7706    3.30515E+006    3.52294E+006    3.52294E+006    5.00049E+005   -6.08707E+003    3.52903E+006   -1.33897E+006    3.21623E+006    3.52294E+006    4.98974E+005   -5.01206E+003   -2.46471E+001   -8.31419E+000    2.33012E+004
            7707    3.31754E+006    3.51504E+006    3.51504E+006    5.25322E+005   -5.40127E+004    3.56905E+006   -1.32878E+006    3.20075E+006    3.51504E+006    5.20187E+005   -4.88773E+004   -5.47625E+000   -7.73904E+001    5.43023E+004
            7708    3.30861E+006    3.52493E+006    3.52493E+006    5.21016E+005   -2.13537E+004    3.54629E+006   -1.34153E+006    3.20630E+006    3.52493E+006    5.19291E+005   -1.96292E+004   -4.43419E+001    1.85468E+001    3.05342E+004
            7709    3.30334E+006    3.53994E+006    3.53994E+006    5.46639E+005   -4.18695E+003    3.54412E+006   -1.36080E+006    3.19756E+006    3.53994E+006    5.46426E+005   -3.97406E+003   -1.28859E+001   -1.72089E+001    1.08267E+004
            7710    3.31584E+006    3.51955E+006    3.51955E+006    5.32201E+005   -4.81617E+004    3.56771E+006   -1.33453E+006    3.19857E+006    3.51955E+006    5.32185E+005   -4.81460E+004    7.98890E+000   -8.96438E+001   -3.02160E+003
            7711    3.30770E+006    3.52970E+006    3.52970E+006    5.32340E+005   -1.90265E+004    3.54873E+006   -1.34767E+006    3.20185E+006    3.52970E+006    5.32318E+005   -1.90049E+004    1.14507E+001    2.83695E+001   -3.45202E+003
            7712    3.30313E+006    3.54451E+006    3.54451E+006    5.59939E+005   -4.44403E+003    3.54896E+006   -1.36667E+006    3.19193E+006    3.54451E+006    5.59935E+005   -4.44020E+003   -4.47584E+000   -2.58951E+001   -1.46933E+003
            7713    3.31782E+006    3.51391E+006    3.51391E+006    5.23017E+005   -5.48997E+004    3.56881E+006   -1.32734E+006    3.20163E+006    3.51391E+006    5.16790E+005   -4.86725E+004   -5.03361E+000   -8.59194E+001   -5.96659E+004
            7714    3.30900E+006    3.52262E+006    3.52262E+006    5.15212E+005   -2.21956E+004    3.54481E+006   -1.33854E+006    3.20861E+006    3.52262E+006    5.12519E+005   -1.95027E+004    2.01739E+000    1.98401E+001   -3.79461E+004
            7715    3.30353E+006    3.53687E+006    3.53687E+006    5.37791E+005   -4.09216E+003    3.54097E+006   -1.35686E+006    3.20124E+006    3.53687E+006    5.37454E+005   -3.75520E+003    1.32620E+001   -1.73590E+001   -1.35085E+004
            7716    3.32403E+006    3.49824E+006    3.49824E+006    4.98942E+005   -7.56086E+004    3.57385E+006   -1.30719E+006    3.20945E+006    3.49824E+006    4.72386E+005   -4.90535E+004   -1.76724E+000   -5.27986E+001   -1.20632E+005
            7717    3.31195E+006    3.50631E+006    3.50631E+006    4.75317E+005   -2.88010E+004    3.53511E+006   -1.31761E+006    3.22394E+006    3.50631E+006    4.64899E+005   -1.83833E+004    6.02998E+001    7.45407E-001   -7.17163E+004
            7718    3.30597E+006    3.51668E+006    3.51668E+006    4.82888E+005   -6.82576E+003    3.52351E+006   -1.33091E+006    3.22285E+006    3.51668E+006    4.81473E+005   -5.41059E+003    1.70683E+001   -1.20014E+001   -2.62873E+004
            7719    3.30555E+006    3.51239E+006    3.51239E+006    4.66594E+005   -2.74879E+003    3.51514E+006   -1.32541E+006    3.22931E+006    3.51239E+006   -1.98178E+003    4.65827E+005    3.82098E+000    2.70710E+001    1.89580E+004
            7720    3.30903E+006    3.50413E+006    3.50413E+006    4.54597E+005   -1.43749E+004    3.51850E+006   -1.31478E+006    3.23300E+006    3.50413E+006   -7.92298E+003    4.48146E+005    4.66287E+000    3.88582E+001    5.46274E+004
            7721    3.31414E+006    3.49801E+006    3.49801E+006    4.57527E+005   -3.47313E+004    3.53274E+006   -1.30693E+006    3.23036E+006    3.49801E+006   -1.86336E+004    4.41429E+005    2.43525E+001   -4.27059E+000    8.75504E+004
            7722    3.32094E+006    3.49349E+006    3.49349E+006    4.72035E+005   -6.21789E+004    3.55566E+006   -1.30111E+006    3.22214E+006    3.49349E+006   -3.43196E+004    4.44176E+005    1.53799E-001    9.08158E+001    1.18772E+005
            7723    3.33115E+006    3.48723E+006    3.48723E+006    4.92794E+005   -1.00828E+005    3.58806E+006   -1.29306E+006    3.20890E+006    3.48723E+006   -5.25030E+004    4.44469E+005    4.46033E+001   -9.37656E+001    1.62332E+005
            7724    3.30316E+006    3.53422E+006    3.53422E+006    5.28130E+005   -1.90481E+003    3.53613E+006   -1.35348E+006    3.20539E+006    3.53422E+006   -1.66752E+003    5.27892E+005    1.20631E+001    2.06183E+001    1.12122E+004
            7725    3.30595E+006    3.52453E+006    3.52453E+006    5.08274E+005   -9.91204E+003    3.53444E+006   -1.34096E+006    3.21267E+006    3.52453E+006   -7.88931E+003    5.06251E+005   -2.04448E+001    2.81793E+001    3.23119E+004
            7726    3.31013E+006    3.51671E+006    3.51671E+006    5.01230E+005   -2.50157E+004    3.54173E+006   -1.33097E+006    3.21399E+006    3.51671E+006   -1.98703E+004    4.96085E+005    7.29143E+001   -2.77987E+000    5.17810E+004
            7727    3.31537E+006    3.51122E+006    3.51122E+006    5.05180E+005   -4.47143E+004    3.55593E+006   -1.32390E+006    3.21036E+006    3.51122E+006   -3.57105E+004    4.96176E+005   -4.66748E+001    7.63898E+001    6.97860E+004
            7728    3.32285E+006    3.50601E+006    3.50601E+006    5.17917E+005   -7.24684E+004    3.57847E+006   -1.31715E+006    3.20165E+006    3.50601E+006   -5.66275E+004    5.02076E+005    7.60210E+001   -4.66634E+001    9.54006E+004
            7729    3.30231E+006    3.54578E+006    3.54578E+006    5.60896E+005   -1.68453E+003    3.54746E+006   -1.36833E+006    3.19181E+006    3.54578E+006   -1.65881E+003    5.60871E+005    1.51348E+001    8.97740E+000    3.80383E+003
            7730    3.30465E+006    3.53550E+006    3.53550E+006    5.37631E+005   -8.01027E+003    3.54351E+006   -1.35504E+006    3.20094E+006    3.53550E+006   -7.79670E+003    5.37417E+005   -3.35745E+001    1.19292E+001    1.07929E+004
            7731    3.30804E+006    3.52731E+006    3.52731E+006    5.26268E+005   -1.97880E+004    3.54709E+006   -1.34460E+006    3.20428E+006    3.52731E+006   -1.92603E+004    5.25741E+005    1.02310E+002   -1.54848E+000    1.69678E+004
            7732    3.31251E+006    3.52119E+006    3.52119E+006    5.24843E+005   -3.58953E+004    3.55709E+006   -1.33671E+006    3.20311E+006    3.52119E+006   -3.49703E+004    5.23918E+005   -7.05493E+001    1.97692E+001    2.27562E+004
            7733    3.31804E+006    3.51674E+006    3.51674E+006    5.31903E+005   -5.59267E+004    3.57267E+006   -1.33090E+006    3.19772E+006    3.51674E+006   -5.43888E+004    5.30365E+005    9.88759E+001   -3.33277E+001    3.00274E+004
            7734    3.35131E+006    3.42713E+006    3.42713E+006    3.87190E+005   -1.66575E+005    3.59370E+006   -1.21591E+006    3.24598E+006    3.42713E+006    1.62859E+005    5.77561E+004   -5.92306E+001    4.26579E+001    2.71849E+005
            7735    3.35239E+006    3.43057E+006    3.43057E+006    4.02334E+005   -1.71813E+005    3.60238E+006   -1.22036E+006    3.23899E+006    3.43057E+006    1.02093E+005    1.28428E+005   -1.01670E+002    3.75802E+001    2.86771E+005
            7736    3.35280E+006    3.43728E+006    3.43728E+006    4.24193E+005   -1.74550E+005    3.61183E+006   -1.22898E+006    3.22922E+006    3.43728E+006    4.69875E+004    2.02655E+005   -7.51442E+001    1.60478E+001    2.89076E+005
            7737    3.34855E+006    3.44902E+006    3.44902E+006    4.43311E+005   -1.60265E+005    3.60928E+006   -1.24402E+006    3.22273E+006    3.44902E+006   -1.23594E+003    2.84282E+005   -4.51903E+001   -4.39328E+001    2.65887E+005
            7738    3.34123E+006    3.46581E+006    3.46581E+006    4.66407E+005   -1.35442E+005    3.60125E+006   -1.26559E+006    3.21587E+006    3.46581E+006   -3.65024E+004    3.67467E+005   -4.71560E+000   -5.16623E+001    2.23065E+005
            7739    3.32844E+006    3.47186E+006    3.47186E+006    4.34179E+005   -8.60710E+004    3.55793E+006   -1.27332E+006    3.23507E+006    3.47186E+006   -2.66382E+004    3.74746E+005    3.59916E+001    9.51918E+001    1.65492E+005
            7740    3.32054E+006    3.47410E+006    3.47410E+006    4.05987E+005   -5.14264E+004    3.52553E+006   -1.27622E+006    3.24852E+006    3.47410E+006   -1.55473E+004    3.70108E+005   -7.16770E+000    2.08687E+000    1.22981E+005
            7741    3.31418E+006    3.47787E+006    3.47787E+006    3.87085E+005   -2.17713E+004    3.49964E+006   -1.28106E+006    3.25671E+006    3.47787E+006   -6.49601E+003    3.71809E+005    2.21044E+001    3.63677E+001    7.75374E+004
            7742    3.31024E+006    3.48269E+006    3.48269E+006    3.83317E+005   -4.30046E+003    3.48699E+006   -1.28723E+006    3.25860E+006    3.48269E+006   -2.41858E+003    3.81436E+005    1.26535E-001    2.57357E+001    2.69427E+004
            7743    3.33617E+006    3.45094E+006    3.45094E+006    3.99664E+005   -1.11194E+005    3.56214E+006   -1.24647E+006    3.24642E+006    3.45094E+006   -7.81083E+003    2.96281E+005    5.90106E+001    6.11425E+001    2.05246E+005
            7744    3.32722E+006    3.45077E+006    3.45077E+006    3.56468E+005   -6.85302E+004    3.51930E+006   -1.24623E+006    3.26531E+006    3.45077E+006   -4.04199E+003    2.91980E+005   -3.02760E+001    6.62702E+000    1.52475E+005
            7745    3.32097E+006    3.44998E+006    3.44998E+006    3.17860E+005   -3.21151E+004    3.48210E+006   -1.24524E+006    3.27910E+006    3.44998E+006   -2.85375E+003    2.88598E+005    4.00453E+001    2.81025E+001    9.68738E+004
            7746    3.31728E+006    3.44965E+006    3.44965E+006    2.90589E+005   -5.93234E+003    3.45558E+006   -1.24477E+006    3.28726E+006    3.44965E+006   -2.02458E+003    2.86681E+005   -6.46144E+000    1.92323E+001    3.38152E+004
            7747    3.34056E+006    3.43544E+006    3.43544E+006    3.67826E+005   -1.23610E+005    3.55905E+006   -1.22655E+006    3.25774E+006    3.43544E+006    2.74091E+004    2.16806E+005    7.12987E+001    3.36016E+001    2.26737E+005
            7748    3.33280E+006    3.43066E+006    3.43066E+006    3.11739E+005   -8.11833E+004    3.51184E+006   -1.22041E+006    3.28008E+006    3.43066E+006    1.45653E+004    2.15990E+005   -3.40147E+001    1.33162E+001    1.68683E+005
            7749    3.32738E+006    3.42548E+006    3.42548E+006    2.55208E+005   -3.94155E+004    3.46489E+006   -1.21376E+006    3.29784E+006    3.42548E+006    6.31260E+003    2.09480E+005    4.30924E+001    1.17221E+001    1.06684E+005
            7750    3.32591E+006    3.41759E+006    3.41759E+006    2.00231E+005   -7.17630E+003    3.42476E+006   -1.20355E+006    3.31131E+006    3.41759E+006   -4.25389E+002    1.93480E+005   -3.60458E+000    9.58429E+000    3.68051E+004
            7751    3.34271E+006    3.42424E+006    3.42424E+006    3.39788E+005   -1.27538E+005    3.55178E+006   -1.21216E+006    3.26800E+006    3.42424E+006    7.00016E+004    1.42248E+005    7.16930E+001   -1.76625E+001    2.30854E+005
            7752    3.33477E+006    3.41691E+006    3.41691E+006    2.68978E+005   -7.76194E+004    3.49453E+006   -1.20276E+006    3.29388E+006    3.41691E+006    4.48576E+004    1.46501E+005   -5.70644E+001    2.66895E+001    1.65679E+005
            7753    3.33250E+006    3.40541E+006    3.40541E+006    1.97678E+005   -3.92190E+004    3.44463E+006   -1.18796E+006    3.31348E+006    3.40541E+006    1.81080E+004    1.40351E+005    6.75474E+001   -1.06899E+001    1.01460E+005
            7754    3.33457E+006    3.39045E+006    3.39045E+006    1.22682E+005   -7.12621E+003    3.39758E+006   -1.16867E+006    3.32888E+006    3.39045E+006    2.56170E+003    1.12994E+005   -1.39383E+001    2.70232E+000    3.41132E+004
            7755    3.33935E+006    3.42104E+006    3.42104E+006    3.11451E+005   -1.08370E+005    3.52941E+006   -1.20804E+006    3.27919E+006    3.42104E+006    1.31399E+005    7.16820E+004    3.64622E+001   -2.87387E+001    2.07776E+005
            7756    3.33456E+006    3.40586E+006    3.40586E+006    2.18025E+005   -5.82335E+004    3.46409E+006   -1.18855E+006    3.30866E+006    3.40586E+006    7.26033E+004    8.71887E+004   -4.26932E+001    1.96505E+001    1.37937E+005
            7757    3.33598E+006    3.39024E+006    3.39024E+006    1.42907E+005   -2.78198E+004    3.41806E+006   -1.16844E+006    3.32613E+006    3.39024E+006    3.01509E+004    8.49359E+004    5.91066E+001   -2.45081E+001    8.08488E+004
            7758    3.34192E+006    3.37011E+006    3.37011E+006    6.36272E+004   -6.16860E+003    3.37628E+006   -1.14252E+006    3.34028E+006    3.37011E+006    5.27284E+003    5.21858E+004   -1.33547E+001    2.38266E+000    2.58391E+004
            7759    3.34633E+006    3.35871E+006    3.35871E+006    2.58583E+004   -9.38236E+002    3.35965E+006   -1.12788E+006    3.34609E+006    3.35871E+006    8.39230E+003    1.65278E+004    4.35708E+000   -7.27938E+000    1.27659E+004
            7760    3.34928E+006    3.35172E+006    3.35172E+006    4.86945E+003    1.58571E+001    3.35170E+006   -1.11887E+006    3.34927E+006    3.35172E+006    2.56971E+003    2.31560E+003    5.54774E+000   -4.11370E+000    2.42347E+003
            7761    3.33947E+006    3.37694E+006    3.37694E+006    8.66387E+004   -9.61086E+003    3.38655E+006   -1.15132E+006    3.33635E+006    3.37694E+006    3.67103E+004    4.03175E+004    1.12874E+001   -7.93683E+000    4.80910E+004
            7762    3.34553E+006    3.36066E+006    3.36066E+006    3.11814E+004   -6.93409E+002    3.36135E+006   -1.13038E+006    3.34518E+006    3.36066E+006    2.04815E+004    1.00065E+004    9.94190E+000   -5.28467E+000    1.50522E+004
            7763    3.33526E+006    3.39422E+006    3.39422E+006    1.60699E+005   -3.42233E+004    3.42844E+006   -1.17357E+006    3.32241E+006    3.39422E+006    8.52010E+004    4.12744E+004    5.64741E+000   -1.53818E+001    9.49540E+004
            7764    3.33893E+006    3.37796E+006    3.37796E+006    8.58715E+004   -5.91946E+003    3.38388E+006   -1.15264E+006    3.33609E+006    3.37796E+006    6.97740E+004    1.01780E+004    7.96275E+000   -2.78772E+000    3.49067E+004
            7765    3.33287E+006    3.41651E+006    3.41651E+006    2.54411E+005   -6.42516E+004    3.48076E+006   -1.20222E+006    3.29834E+006    3.41651E+006    1.64073E+005    2.60864E+004   -2.76196E+000   -4.69623E+000    1.43619E+005
            7766    3.33068E+006    3.40270E+006    3.40270E+006    1.61153E+005   -1.04665E+004    3.41317E+006   -1.18446E+006    3.32071E+006    3.40270E+006    1.46113E+005    4.57368E+003   -3.05628E+000   -1.14490E+001    4.85282E+004
            7767    3.32257E+006    3.43105E+006    3.43105E+006    2.43165E+005   -1.15431E+004    3.44260E+006   -1.22089E+006    3.30050E+006    3.43105E+006    2.31803E+005   -1.81109E+002   -1.41507E+001    1.70759E+000    5.25823E+004
            7768    3.31510E+006    3.46383E+006    3.46383E+006    3.37557E+005   -1.23453E+004    3.47617E+006   -1.26301E+006    3.27317E+006    3.46383E+006    3.31111E+005   -5.90011E+003   -2.24593E+001    6.98567E+000    4.70495E+004
            7769    3.32976E+006    3.43838E+006    3.43838E+006    3.24495E+005   -7.17836E+004    3.51017E+006   -1.23036E+006    3.27608E+006    3.43838E+006    2.48401E+005    4.31111E+003   -3.20006E+001   -4.05608E+001    1.56091E+005
            7770    3.32290E+006    3.46298E+006    3.46298E+006    3.78552E+005   -5.56943E+004    3.51867E+006   -1.26194E+006    3.25814E+006    3.46298E+006    3.34482E+005   -1.16248E+004   -3.79081E+001   -4.13514E+001    1.31129E+005
            7771    3.33882E+006    3.46025E+006    3.46025E+006    4.40314E+005   -1.25231E+005    3.58548E+006   -1.25844E+006    3.22841E+006    3.46025E+006    3.32370E+005   -1.72868E+004    1.46483E+000    4.39145E+001    2.22251E+005
            7772    3.34565E+006    3.43997E+006    3.43997E+006    4.04404E+005   -1.47211E+005    3.58718E+006   -1.23239E+006    3.24097E+006    3.43997E+006    2.41174E+005    1.60185E+004   -2.29894E+001    4.64476E+001    2.51786E+005
            7773    3.34798E+006    3.42189E+006    3.42189E+006    3.57026E+005   -1.51110E+005    3.57300E+006   -1.20927E+006    3.25953E+006    3.42189E+006    7.97088E+004    1.26206E+005   -6.49066E+001   -2.71097E+001    2.53002E+005
            7774    3.34493E+006    3.43778E+006    3.43778E+006    3.94642E+005   -1.43651E+005    3.58144E+006   -1.22959E+006    3.24533E+006    3.43778E+006    3.85760E+004    2.12415E+005   -1.02579E+002   -3.04229E+001    2.54725E+005
            7775    3.34239E+006    3.45241E+006    3.45241E+006    4.30541E+005   -1.37663E+005    3.59007E+006   -1.24843E+006    3.23104E+006    3.45241E+006   -4.14303E+003    2.97021E+005   -1.04345E+002   -8.40831E+001    2.40913E+005
            7776    3.33590E+006    3.46995E+006    3.46995E+006    4.58438E+005   -1.15797E+005    3.58574E+006   -1.27086E+006    3.22188E+006    3.46995E+006   -3.36673E+004    3.76309E+005   -6.31463E+001   -1.03760E+002    2.01038E+005
            7777    3.31924E+006    3.47640E+006    3.47640E+006    4.08081E+005   -4.68374E+004    3.52324E+006   -1.27922E+006    3.24800E+006    3.47640E+006   -1.55067E+004    3.76750E+005    2.70789E+001   -4.12429E+001    1.15201E+005
            7778    3.31099E+006    3.48168E+006    3.48168E+006    3.84235E+005   -7.92640E+003    3.48960E+006   -1.28600E+006    3.25812E+006    3.48168E+006   -3.70161E+003    3.80010E+005   -3.15401E+001   -6.43514E+001    4.04840E+004
            7779    3.32568E+006    3.45179E+006    3.45179E+006    3.52314E+005   -6.13938E+004    3.51318E+006   -1.24757E+006    3.26704E+006    3.45179E+006   -5.82684E+003    2.96747E+005    5.69236E+001    9.29727E+000    1.41070E+005
            7780    3.31861E+006    3.44764E+006    3.44764E+006    2.92531E+005   -1.32899E+004    3.46093E+006   -1.24229E+006    3.28668E+006    3.44764E+006   -4.93398E+003    2.84175E+005   -4.05198E+001   -4.72255E+001    4.98558E+004
            7781    3.33185E+006    3.42886E+006    3.42886E+006    2.99553E+005   -7.40507E+004    3.50291E+006   -1.21812E+006    3.28423E+006    3.42886E+006    8.24562E+003    2.17257E+005    3.54850E+001   -2.11381E+001    1.54834E+005
            7782    3.32718E+006    3.41500E+006    3.41500E+006    2.00151E+005   -1.41538E+004    3.42915E+006   -1.20033E+006    3.31160E+006    3.41500E+006    3.45847E+002    1.85652E+005   -3.66188E+001   -1.14608E+001    5.38249E+004
            7783    3.33452E+006    3.41082E+006    3.41082E+006    2.40962E+005   -6.69836E+004    3.47781E+006   -1.19493E+006    3.30230E+006    3.41082E+006    4.12791E+004    1.32700E+005    1.60388E+001    7.86165E+000    1.47031E+005
            7784    3.33526E+006    3.38830E+006    3.38830E+006    1.17825E+005   -8.17913E+003    3.39648E+006   -1.16598E+006    3.32990E+006    3.38830E+006    9.59392E+003    1.00052E+005   -3.30953E+001    1.34237E+001    4.38588E+004
            7785    3.34270E+006    3.36798E+006    3.36798E+006    5.66863E+004   -5.26317E+003    3.37324E+006   -1.13980E+006    3.34141E+006    3.36798E+006    1.02277E+004    4.11954E+004   -1.15572E+001    2.13105E+001    2.68269E+004
            7786    3.34739E+006    3.35623E+006    3.35623E+006    1.77396E+004    1.18231E+000    3.35623E+006   -1.12466E+006    3.34729E+006    3.35623E+006    9.12835E+003    8.61243E+003   -9.19187E+000    1.27275E+001    8.86546E+003
            7787    3.33532E+006    3.39412E+006    3.39412E+006    1.60990E+005   -3.47598E+004    3.42888E+006   -1.17345E+006    3.32235E+006    3.39412E+006    6.50741E+004    6.11562E+004   -1.79999E+001    2.47243E+001    9.78554E+004
            7788    3.34240E+006    3.36878E+006    3.36878E+006    5.88515E+004   -5.16229E+003    3.37394E+006   -1.14082E+006    3.34102E+006    3.36878E+006    4.40766E+004    9.61257E+003   -1.25430E+001    1.22938E+001    2.69722E+004
            7789    3.33452E+006    3.39056E+006    3.39056E+006    1.24043E+005   -8.04456E+003    3.39860E+006   -1.16885E+006    3.32863E+006    3.39056E+006    1.07276E+005    8.72293E+003   -2.90592E+000    3.01097E+001    4.39730E+004
            7790    3.32607E+006    3.41907E+006    3.41907E+006    2.11536E+005   -1.40531E+004    3.43312E+006   -1.20552E+006    3.30879E+006    3.41907E+006    1.98402E+005   -9.18885E+002    1.78438E+001    2.70149E+001    5.28245E+004
            7791    3.31697E+006    3.45440E+006    3.45440E+006    3.10341E+005   -1.19512E+004    3.46636E+006   -1.25093E+006    3.28147E+006    3.45440E+006    3.03331E+005   -4.94111E+003    4.67122E+001    2.65142E+001    4.70124E+004
            7792    3.30954E+006    3.48948E+006    3.48948E+006    4.05084E+005   -6.67262E+003    3.49615E+006   -1.29596E+006    3.25116E+006    3.48948E+006    4.01695E+005   -3.28364E+003    4.92910E+001    1.38627E+001    3.72015E+004
            7793    3.33439E+006    3.41174E+006    3.41174E+006    2.44064E+005   -6.74866E+004    3.47923E+006   -1.19611E+006    3.30141E+006    3.41174E+006    1.41246E+005    3.53310E+004    1.02141E+000   -3.60896E+000    1.46497E+005
            7794    3.33096E+006    3.43189E+006    3.43189E+006    3.05988E+005   -7.18995E+004    3.50379E+006   -1.22199E+006    3.28221E+006    3.43189E+006    2.30695E+005    3.39419E+003    2.96539E+001   -8.97855E+000    1.50942E+005
            7795    3.32397E+006    3.45710E+006    3.45710E+006    3.62431E+005   -5.64641E+004    3.51356E+006   -1.25435E+006    3.26379E+006    3.45710E+006    3.13819E+005   -7.85159E+003   -9.77536E+000   -1.45779E+001    1.34166E+005
            7796    3.31732E+006    3.48285E+006    3.48285E+006    4.20911E+005   -4.13600E+004    3.52421E+006   -1.28747E+006    3.24367E+006    3.48285E+006    3.95295E+005   -1.57440E+004    3.60604E+001    2.62987E+001    1.05761E+005
            7797    3.33229E+006    3.47775E+006    3.47775E+006    4.68220E+005   -1.03352E+005    3.58110E+006   -1.28087E+006    3.21922E+006    3.47775E+006    4.04823E+005   -3.99545E+004    8.54532E+001    5.59431E+000    1.79490E+005
            7798    3.33994E+006    3.45770E+006    3.45770E+006    4.37141E+005   -1.29212E+005    3.58691E+006   -1.25521E+006    3.22925E+006    3.45770E+006    3.23322E+005   -1.53935E+004    8.57033E+001    6.28097E+001    2.26951E+005
            7799    3.34393E+006    3.44039E+006    3.44039E+006    3.98590E+005   -1.40237E+005    3.58062E+006   -1.23291E+006    3.24410E+006    3.44039E+006    2.34757E+005    2.35964E+004    4.03035E+001    7.74875E+001    2.47863E+005
            7800    3.34801E+006    3.42229E+006    3.42229E+006    3.58390E+005   -1.51374E+005    3.57366E+006   -1.20977E+006    3.25898E+006    3.42229E+006    1.43749E+005    6.32666E+004    3.86887E+001    7.09394E+001    2.51685E+005
            7801    3.30675E+006    3.51028E+006    3.51028E+006    4.65101E+005   -7.25692E+003    3.51753E+006   -1.32271E+006    3.22954E+006    3.51028E+006   -5.38597E+003    4.63230E+005   -1.02072E+001   -7.95266E+001    2.96691E+004
            7802    3.31343E+006    3.50005E+006    3.50005E+006    4.60863E+005   -3.23479E+004    3.53239E+006   -1.30952E+006    3.22930E+006    3.50005E+006   -1.85204E+004    4.47035E+005   -1.25758E+001    8.63554E+000    8.14168E+004
            7803    3.32780E+006    3.48987E+006    3.48987E+006    4.88418E+005   -8.87590E+004    3.57863E+006   -1.29651E+006    3.21228E+006    3.48987E+006   -4.83242E+004    4.47983E+005   -2.49697E+001   -9.90224E+001    1.47320E+005
            7804    3.30406E+006    3.53206E+006    3.53206E+006    5.24578E+005   -4.68422E+003    3.53674E+006   -1.35065E+006    3.20660E+006    3.53206E+006   -4.11493E+003    5.24009E+005    9.70061E+000   -5.64098E+001    1.73488E+004
            7805    3.30975E+006    3.51833E+006    3.51833E+006    5.04240E+005   -2.36346E+004    3.54197E+006   -1.33298E+006    3.21299E+006    3.51833E+006   -1.91071E+004    4.99712E+005   -7.30619E+001   -3.52868E+001    4.86772E+004
            7806    3.32031E+006    3.50788E+006    3.50788E+006    5.14489E+005   -6.34653E+004    3.57134E+006   -1.31963E+006    3.20420E+006    3.50788E+006   -5.02879E+004    5.01312E+005    1.91872E+001   -8.80774E+001    8.62688E+004
            7807    3.30319E+006    3.54329E+006    3.54329E+006    5.56122E+005   -4.23615E+003    3.54753E+006   -1.36506E+006    3.19362E+006    3.54329E+006   -4.17543E+003    5.56062E+005    3.50743E+001   -3.02905E+001    5.83229E+003
            7808    3.30805E+006    3.52855E+006    3.52855E+006    5.29052E+005   -1.94797E+004    3.54803E+006   -1.34604E+006    3.20333E+006    3.52855E+006   -1.90417E+004    5.28614E+005   -1.25228E+002    1.33881E+001    1.54944E+004
            7809    3.31624E+006    3.51809E+006    3.51809E+006    5.30353E+005   -5.00162E+004    3.56811E+006   -1.33281E+006    3.19897E+006    3.51809E+006   -4.85918E+004    5.28928E+005    4.30362E+001   -2.05510E+001    2.87173E+004
            7810    3.30860E+006    3.49632E+006    3.49632E+006    4.25537E+005   -7.45954E+003    3.50378E+006   -1.30480E+006    3.24393E+006    3.49632E+006    4.22580E+005   -4.50220E+003   -6.09677E+001    2.01478E+001   -3.56619E+004
            7811    3.31641E+006    3.48777E+006    3.48777E+006    4.33633E+005   -3.99865E+004    3.52776E+006   -1.29381E+006    3.23901E+006    3.48777E+006    4.11242E+005   -1.75953E+004   -4.45282E+000   -1.58454E+001   -1.00516E+005
            7812    3.33129E+006    3.48068E+006    3.48068E+006    4.73562E+005   -1.00241E+005    3.58092E+006   -1.28467E+006    3.21728E+006    3.48068E+006    4.14283E+005   -4.09629E+004   -8.14826E+001    3.90549E+001   -1.74643E+005
            7813    3.30519E+006    3.52249E+006    3.52249E+006    4.98780E+005   -6.08534E+003    3.52858E+006   -1.33840E+006    3.21672E+006    3.52249E+006    4.97672E+005   -4.97749E+003   -6.11783E+001   -9.62246E-001   -2.36238E+004
            7814    3.31116E+006    3.51058E+006    3.51058E+006    4.85664E+005   -2.70140E+004    3.53760E+006   -1.32308E+006    3.22005E+006    3.51058E+006    4.77316E+005   -1.86660E+004   -2.17514E+001    3.64653E+001   -6.48856E+004
            7815    3.32338E+006    3.50003E+006    3.50003E+006    5.02485E+005   -7.38070E+004    3.57384E+006   -1.30957E+006    3.20806E+006    3.50003E+006    4.78395E+005   -4.97173E+004   -1.03836E+002   -2.59345E+000   -1.15336E+005
            7816    3.30337E+006    3.53978E+006    3.53978E+006    5.46170E+005   -4.22069E+003    3.54400E+006   -1.36058E+006    3.19777E+006    3.53978E+006    5.45947E+005   -3.99828E+003   -4.58958E+001   -1.98837E+001   -1.10617E+004
            7817    3.30862E+006    3.52505E+006    3.52505E+006    5.20968E+005   -2.11558E+004    3.54620E+006   -1.34162E+006    3.20641E+006    3.52505E+006    5.19237E+005   -1.94243E+004    2.44017E+000    8.31083E+001   -3.05884E+004
            7818    3.31743E+006    3.51497E+006    3.51497E+006    5.25034E+005   -5.37723E+004    3.56874E+006   -1.32874E+006    3.20086E+006    3.51497E+006    5.19789E+005   -4.85279E+004   -4.88726E+001   -3.67914E+001   -5.48453E+004
            7819    3.30319E+006    3.54455E+006    3.54455E+006    5.60055E+005   -4.54135E+003    3.54909E+006   -1.36669E+006    3.19191E+006    3.54455E+006    5.60052E+005   -4.53802E+003   -1.23739E+001   -2.92152E+001    1.37132E+003
            7820    3.30783E+006    3.52989E+006    3.52989E+006    5.32647E+005   -1.91314E+004    3.54902E+006   -1.34780E+006    3.20183E+006    3.52989E+006    5.32627E+005   -1.91114E+004   -1.86544E+001    1.01020E+002    3.32727E+003
            7821    3.31578E+006    3.51937E+006    3.51937E+006    5.32343E+005   -4.84379E+004    3.56780E+006   -1.33442E+006    3.19833E+006    3.51937E+006    5.32334E+005   -4.84296E+004   -3.12361E+001   -3.93940E+001    2.18902E+003
            7822    3.30355E+006    3.53718E+006    3.53718E+006    5.38555E+005   -4.11130E+003    3.54129E+006   -1.35721E+006    3.20096E+006    3.53718E+006    5.38220E+005   -3.77650E+003    1.42874E+001   -2.45491E+001    1.34748E+004
            7823    3.30902E+006    3.52286E+006    3.52286E+006    5.15596E+005   -2.20691E+004    3.54493E+006   -1.33880E+006    3.20853E+006    3.52286E+006    5.12911E+005   -1.93849E+004    1.82134E+001    1.03788E+002    3.78945E+004
            7824    3.31769E+006    3.51396E+006    3.51396E+006    5.22872E+005   -5.45224E+004    3.56848E+006   -1.32744E+006    3.20171E+006    3.51396E+006    5.16882E+005   -4.85322E+004    3.53531E+001   -5.08127E+001    5.85051E+004
            7825    3.30592E+006    3.51719E+006    3.51719E+006    4.84235E+005   -6.75984E+003    3.52395E+006   -1.33156E+006    3.22235E+006    3.51719E+006    4.82835E+005   -5.36061E+003    4.81341E+001   -1.53102E+001    2.61736E+004
            7826    3.31194E+006    3.50647E+006    3.50647E+006    4.75101E+005   -2.83750E+004    3.53485E+006   -1.31773E+006    3.22415E+006    3.50647E+006    4.64757E+005   -1.80315E+004   -1.19068E+001    7.35148E+001    7.14192E+004
            7827    3.32387E+006    3.49832E+006    3.49832E+006    4.99218E+005   -7.53914E+004    3.57371E+006   -1.30738E+006    3.20926E+006    3.49832E+006    4.72938E+005   -4.91109E+004    5.71247E+001   -2.84434E+001    1.20043E+005
            7828    3.32784E+006    3.48982E+006    3.48982E+006    4.88469E+005   -8.89527E+004    3.57877E+006   -1.29644E+006    3.21223E+006    3.48982E+006   -4.85879E+004    4.48104E+005   -1.53450E+001    9.33126E+001   -1.47235E+005
            7829    3.31335E+006    3.50030E+006    3.50030E+006    4.61112E+005   -3.19503E+004    3.53225E+006   -1.30982E+006    3.22926E+006    3.50030E+006   -1.83122E+004    4.47474E+005   -2.95914E+001   -1.17394E+001   -8.08605E+004
            7830    3.30674E+006    3.51062E+006    3.51062E+006    4.66105E+005   -7.32342E+003    3.51794E+006   -1.32313E+006    3.22917E+006    3.51062E+006   -5.47901E+003    4.64260E+005   -4.69658E+000    7.96203E+001   -2.94922E+004
            7831    3.32024E+006    3.50797E+006    3.50797E+006    5.14632E+005   -6.32989E+004    3.57127E+006   -1.31977E+006    3.20414E+006    3.50797E+006   -5.02822E+004    5.01615E+005    3.83042E+001    7.90646E+001   -8.57515E+004
            7832    3.30976E+006    3.51833E+006    3.51833E+006    5.04065E+005   -2.35411E+004    3.54187E+006   -1.33295E+006    3.21310E+006    3.51833E+006   -1.90048E+004    4.99528E+005   -9.76581E+001    3.39854E+001   -4.87116E+004
            7833    3.30403E+006    3.53224E+006    3.53224E+006    5.24945E+005   -4.57303E+003    3.53681E+006   -1.35087E+006    3.20648E+006    3.53224E+006   -4.01155E+003    5.24383E+005    1.91674E+001    4.87397E+001   -1.72337E+004
            7834    3.31616E+006    3.51816E+006    3.51816E+006    5.30355E+005   -4.97904E+004    3.56796E+006   -1.33291E+006    3.19899E+006    3.51816E+006   -4.84356E+004    5.29000E+005    5.09823E+001    6.71656E+000   -2.80032E+004
            7835    3.30803E+006    3.52857E+006    3.52857E+006    5.28885E+005   -1.93181E+004    3.54789E+006   -1.34604E+006    3.20343E+006    3.52857E+006   -1.88502E+004    5.28417E+005   -1.37086E+002   -1.84913E+001   -1.60084E+004
            7836    3.30321E+006    3.54329E+006    3.54329E+006    5.56137E+005   -4.27563E+003    3.54756E+006   -1.36505E+006    3.19362E+006    3.54329E+006   -4.21391E+003    5.56075E+005    4.02579E+001    1.83908E+001   -5.88076E+003
            7837    3.34199E+006    3.36976E+006    3.36976E+006    6.20913E+004   -5.52543E+003    3.37529E+006   -1.14211E+006    3.34045E+006    3.36976E+006    5.81718E+003    5.07487E+004    4.26358E+001    2.41159E+001   -2.52645E+004
            7838    3.33478E+006    3.38955E+006    3.38955E+006    1.20422E+005   -7.22266E+003    3.39677E+006   -1.16758E+006    3.32928E+006    3.38955E+006    2.49755E+003    1.10702E+005    4.05591E+001    7.22013E+000   -3.38563E+004
            7839    3.32597E+006    3.41698E+006    3.41698E+006    1.98455E+005   -6.91529E+003    3.42389E+006   -1.20284E+006    3.31166E+006    3.41698E+006   -3.10449E+002    1.91850E+005    1.60235E+001   -9.50535E+000   -3.62328E+004
            7840    3.31714E+006    3.44967E+006    3.44967E+006    2.90335E+005   -5.46012E+003    3.45513E+006   -1.24485E+006    3.28727E+006    3.44967E+006   -1.61341E+003    2.86488E+005    1.35102E+001   -2.49827E+001   -3.35118E+004
            7841    3.31023E+006    3.48270E+006    3.48270E+006    3.83433E+005   -4.34558E+003    3.48704E+006   -1.28726E+006    3.25854E+006    3.48270E+006   -2.47941E+003    3.81567E+005    5.02482E+000   -3.70707E+001   -2.68362E+004
            7842    3.33601E+006    3.39020E+006    3.39020E+006    1.42785E+005   -2.78606E+004    3.41806E+006   -1.16837E+006    3.32617E+006    3.39020E+006    3.03430E+004    8.45816E+004   -5.22390E+001   -1.62587E+001   -8.08984E+004
            7843    3.33264E+006    3.40497E+006    3.40497E+006    1.96027E+005   -3.89334E+004    3.44391E+006   -1.18736E+006    3.31393E+006    3.40497E+006    1.74245E+004    1.39669E+005   -5.11494E+001   -1.95748E+001   -1.00328E+005
            7844    3.32745E+006    3.42520E+006    3.42520E+006    2.53796E+005   -3.89580E+004    3.46416E+006   -1.21335E+006    3.29829E+006    3.42520E+006    6.30572E+003    2.08532E+005   -3.98823E+000   -1.66372E+001   -1.05841E+005
            7845    3.32100E+006    3.44999E+006    3.44999E+006    3.17587E+005   -3.19561E+004    3.48195E+006   -1.24521E+006    3.27924E+006    3.44999E+006   -3.17299E+003    2.88804E+005   -2.26721E+000   -2.33027E+001   -9.60858E+004
            7846    3.31407E+006    3.47806E+006    3.47806E+006    3.87000E+005   -2.12098E+004    3.49927E+006   -1.28128E+006    3.25679E+006    3.47806E+006   -6.23582E+003    3.72026E+005    9.81099E+000   -3.40345E+001   -7.67353E+004
            7847    3.33460E+006    3.40600E+006    3.40600E+006    2.18869E+005   -5.87231E+004    3.46472E+006   -1.18871E+006    3.30845E+006    3.40600E+006    7.32784E+004    8.68677E+004    9.56048E+001    4.64924E+001   -1.38630E+005
            7848    3.33469E+006    3.41692E+006    3.41692E+006    2.68621E+005   -7.72074E+004    3.49413E+006   -1.20278E+006    3.29398E+006    3.41692E+006    4.45400E+004    1.46873E+005    1.12701E+002    2.82943E+001   -1.65170E+005
            7849    3.33256E+006    3.43093E+006    3.43093E+006    3.11950E+005   -8.04766E+004    3.51140E+006   -1.22080E+006    3.27998E+006    3.43093E+006    1.38915E+004    2.17582E+005    7.58236E+001   -2.16881E+001   -1.67712E+005
            7850    3.32703E+006    3.45098E+006    3.45098E+006    3.56682E+005   -6.80057E+004    3.51898E+006   -1.24655E+006    3.26521E+006    3.45098E+006   -4.23160E+003    2.92908E+005    6.64518E+001   -5.02449E+001   -1.51713E+005
            7851    3.32038E+006    3.47428E+006    3.47428E+006    4.05849E+005   -5.07853E+004    3.52507E+006   -1.27645E+006    3.24861E+006    3.47428E+006   -1.53515E+004    3.70415E+005    3.12099E+001   -6.63727E+001   -1.22167E+005
            7852    3.33919E+006    3.42100E+006    3.42100E+006    3.11376E+005   -1.08119E+005    3.52912E+006   -1.20809E+006    3.27913E+006    3.42100E+006    1.31288E+005    7.19691E+004   -5.82936E+001   -2.34424E+001   -2.07640E+005
            7853    3.34260E+006    3.42431E+006    3.42431E+006    3.40141E+005   -1.27462E+005    3.55178E+006   -1.21233E+006    3.26779E+006    3.42431E+006    6.93570E+004    1.43323E+005   -8.27007E+001   -5.10550E+001   -2.30858E+005
            7854    3.34034E+006    3.43578E+006    3.43578E+006    3.68364E+005   -1.23050E+005    3.55883E+006   -1.22703E+006    3.25753E+006    3.43578E+006    2.61806E+004    2.19133E+005   -6.82375E+001   -8.02443E+000   -2.25974E+005
            7855    3.33603E+006    3.45134E+006    3.45134E+006    4.00416E+005   -1.10780E+005    3.56212E+006   -1.24699E+006    3.24615E+006    3.45134E+006   -8.36981E+003    2.98006E+005   -4.65102E+001   -3.67668E-001   -2.04606E+005
            7856    3.32831E+006    3.47197E+006    3.47197E+006    4.34231E+005   -8.57071E+004    3.55768E+006   -1.27350E+006    3.23504E+006    3.47197E+006   -2.66788E+004    3.75203E+005   -2.82000E+000    3.65548E+001   -1.64945E+005
            7857    3.34146E+006    3.46566E+006    3.46566E+006    4.66469E+005   -1.36078E+005    3.60173E+006   -1.26535E+006    3.21580E+006    3.46566E+006   -3.63493E+004    3.66741E+005    3.31222E+001   -1.57631E+002   -2.23931E+005
            7858    3.34861E+006    3.44895E+006    3.44895E+006    4.43441E+005   -1.60561E+005    3.60951E+006   -1.24394E+006    3.22262E+006    3.44895E+006   -5.46288E+002    2.83426E+005    7.82461E+001   -1.38997E+002   -2.66541E+005
            7859    3.35285E+006    3.43732E+006    3.43732E+006    4.24242E+005   -1.74593E+005    3.61191E+006   -1.22899E+006    3.22923E+006    3.43732E+006    4.77191E+004    2.01930E+005    9.87032E+001   -5.24255E+001   -2.89319E+005
            7860    3.35239E+006    3.43074E+006    3.43074E+006    4.02587E+005   -1.71706E+005    3.60244E+006   -1.22054E+006    3.23894E+006    3.43074E+006    1.02473E+005    1.28408E+005    1.13636E+002    5.96499E-001   -2.86854E+005
            7861    3.35130E+006    3.42721E+006    3.42721E+006    3.87453E+005   -1.66585E+005    3.59380E+006   -1.21603E+006    3.24586E+006    3.42721E+006    1.63220E+005    5.76478E+004    3.01040E+001    3.93822E+001   -2.71944E+005
            7862    3.34555E+006    3.43998E+006    3.43998E+006    4.04380E+005   -1.47004E+005    3.58699E+006   -1.23245E+006    3.24095E+006    3.43998E+006    2.41833E+005    1.55421E+004   -3.47596E+001    6.91640E+001   -2.51404E+005
            7863    3.33870E+006    3.46028E+006    3.46028E+006    4.40102E+005   -1.24856E+005    3.58514E+006   -1.25851E+006    3.22852E+006    3.46028E+006    3.32891E+005   -1.76446E+004   -9.07252E+001    7.72402E+001   -2.21530E+005
            7864    3.32302E+006    3.46256E+006    3.46256E+006    3.77868E+005   -5.61379E+004    3.51870E+006   -1.26143E+006    3.25834E+006    3.46256E+006    3.33203E+005   -1.14724E+004   -1.63796E+001   -2.84627E+001   -1.31872E+005
            7865    3.31513E+006    3.46317E+006    3.46317E+006    3.35697E+005   -1.21788E+004    3.47535E+006   -1.26223E+006    3.27369E+006    3.46317E+006    3.29153E+005   -5.63488E+003   -4.31841E+001    2.74010E+001   -4.72615E+004
            7866    3.32988E+006    3.43814E+006    3.43814E+006    3.24019E+005   -7.20793E+004    3.51021E+006   -1.23003E+006    3.27625E+006    3.43814E+006    2.47650E+005    4.28943E+003   -5.20667E+000   -1.93375E+001   -1.56260E+005
            7867    3.32261E+006    3.43067E+006    3.43067E+006    2.42289E+005   -1.15921E+004    3.44227E+006   -1.22046E+006    3.30068E+006    3.43067E+006    2.30857E+005   -1.59717E+002   -1.53954E+001    2.41811E+001   -5.26476E+004
            7868    3.33073E+006    3.40262E+006    3.40262E+006    1.61192E+005   -1.07463E+004    3.41337E+006   -1.18436E+006    3.32072E+006    3.40262E+006    1.46035E+005    4.41125E+003    4.12253E+000    7.09082E+000   -4.87485E+004
            7869    3.33889E+006    3.37802E+006    3.37802E+006    8.56785E+004   -5.54520E+003    3.38357E+006   -1.15272E+006    3.33608E+006    3.37802E+006    6.95287E+004    1.06046E+004    1.01773E+001    1.33802E+001   -3.48199E+004
            7870    3.34561E+006    3.36052E+006    3.36052E+006    3.07642E+004   -7.17135E+002    3.36124E+006   -1.13019E+006    3.34527E+006    3.36052E+006    2.04260E+004    9.62104E+003    1.27584E+001    8.27029E+000   -1.47845E+004
            7871    3.34929E+006    3.35174E+006    3.35174E+006    4.89560E+003    1.05145E+001    3.35173E+006   -1.11888E+006    3.34928E+006    3.35174E+006    2.59414E+003    2.31198E+003    2.85917E+000    3.89266E+000   -2.43846E+003
            7872    3.33287E+006    3.41640E+006    3.41640E+006    2.54245E+005   -6.42955E+004    3.48070E+006   -1.20212E+006    3.29836E+006    3.41640E+006    1.64039E+005    2.59106E+004   -1.49679E+000    2.99742E+001   -1.43517E+005
            7873    3.33521E+006    3.39447E+006    3.39447E+006    1.61543E+005   -3.43966E+004    3.42886E+006   -1.17387E+006    3.32222E+006    3.39447E+006    8.57264E+004    4.14201E+004    1.18314E+001    1.70449E+001   -9.54323E+004
            7874    3.33944E+006    3.37698E+006    3.37698E+006    8.70193E+004   -9.84087E+003    3.38682E+006   -1.15139E+006    3.33628E+006    3.37698E+006    3.69966E+004    4.01818E+004    9.87695E+000    1.34143E+001   -4.84039E+004
            7875    3.34651E+006    3.35836E+006    3.35836E+006    2.48145E+004   -9.63953E+002    3.35932E+006   -1.12740E+006    3.34628E+006    3.35836E+006    7.91638E+003    1.59341E+004    1.10477E+001    1.55216E+001   -1.22499E+004
            7876    3.33532E+006    3.38814E+006    3.38814E+006    1.17374E+005   -8.18424E+003    3.39632E+006   -1.16578E+006    3.32999E+006    3.38814E+006    9.59660E+003    9.95932E+004   -3.48310E+001   -1.37726E+001   -4.37764E+004
            7877    3.32711E+006    3.41520E+006    3.41520E+006    2.00707E+005   -1.41097E+004    3.42931E+006   -1.20060E+006    3.31145E+006    3.41520E+006    3.56621E+002    1.86241E+005   -3.97142E+001    1.38773E+001   -5.38361E+004
            7878    3.31841E+006    3.44849E+006    3.44849E+006    2.94930E+005   -1.32565E+004    3.46175E+006   -1.24339E+006    3.28598E+006    3.44849E+006   -5.05042E+003    2.86724E+005   -4.32694E+001    5.29548E+001   -4.96151E+004
            7879    3.31079E+006    3.48264E+006    3.48264E+006    3.86720E+005   -7.68708E+003    3.49033E+006   -1.28722E+006    3.25731E+006    3.48264E+006   -3.55279E+003    3.82586E+005   -3.30446E+001    6.81501E+001   -4.01685E+004
            7880    3.33452E+006    3.41093E+006    3.41093E+006    2.41459E+005   -6.71631E+004    3.47810E+006   -1.19508E+006    3.30215E+006    3.41093E+006    4.12287E+004    1.33067E+005    1.70051E+001   -7.92193E+000   -1.47321E+005
            7881    3.33184E+006    3.42903E+006    3.42903E+006    3.00149E+005   -7.41540E+004    3.50318E+006   -1.21834E+006    3.28404E+006    3.42903E+006    7.77165E+003    2.18223E+005    4.04253E+001    2.57586E+001   -1.54768E+005
            7882    3.32557E+006    3.45213E+006    3.45213E+006    3.52905E+005   -6.10320E+004    3.51316E+006   -1.24800E+006    3.26686E+006    3.45213E+006   -6.13398E+003    2.98007E+005    6.24971E+001   -9.43144E+000   -1.40394E+005
            7883    3.31909E+006    3.47676E+006    3.47676E+006    4.08519E+005   -4.62828E+004    3.52304E+006   -1.27967E+006    3.24788E+006    3.47676E+006   -1.54902E+004    3.77727E+005    2.66344E+001    4.54086E+001   -1.14264E+005
            7884    3.33599E+006    3.46995E+006    3.46995E+006    4.58717E+005   -1.16097E+005    3.58605E+006   -1.27086E+006    3.22174E+006    3.46995E+006   -3.36707E+004    3.76291E+005   -6.33353E+001    1.07268E+002   -2.01459E+005
            7885    3.34242E+006    3.45251E+006    3.45251E+006    4.30940E+005   -1.37777E+005    3.59029E+006   -1.24856E+006    3.23086E+006    3.45251E+006   -3.92823E+003    2.97091E+005   -1.16273E+002    9.00995E+001   -2.41260E+005
            7886    3.34487E+006    3.43786E+006    3.43786E+006    3.94572E+005   -1.43395E+005    3.58125E+006   -1.22968E+006    3.24540E+006    3.43786E+006    3.88910E+004    2.12286E+005   -1.15634E+002    3.37147E+001   -2.54629E+005
            7887    3.34802E+006    3.42178E+006    3.42178E+006    3.56895E+005   -1.51275E+005    3.57306E+006   -1.20913E+006    3.25956E+006    3.42178E+006    7.90552E+004    1.26565E+005   -7.49166E+001    3.27771E+001   -2.52972E+005
            7888    3.34794E+006    3.42242E+006    3.42242E+006    3.58585E+005   -1.51169E+005    3.57359E+006   -1.20994E+006    3.25891E+006    3.42242E+006    1.43529E+005    6.38865E+004    3.56506E+001   -6.81817E+001   -2.51747E+005
            7889    3.34393E+006    3.44043E+006    3.44043E+006    3.98810E+005   -1.40312E+005    3.58074E+006   -1.23297E+006    3.24399E+006    3.44043E+006    2.35216E+005    2.32815E+004    3.56673E+001   -6.93470E+001   -2.47859E+005
            7890    3.33987E+006    3.45772E+006    3.45772E+006    4.37004E+005   -1.28975E+005    3.58670E+006   -1.25525E+006    3.22932E+006    3.45772E+006    3.23722E+005   -1.56925E+004    8.83159E+001   -6.75821E+001   -2.26457E+005
            7891    3.33225E+006    3.47763E+006    3.47763E+006    4.67723E+005   -1.03198E+005    3.58083E+006   -1.28072E+006    3.21945E+006    3.47763E+006    4.04376E+005   -3.98522E+004    8.23607E+001   -1.60482E+001   -1.79313E+005
            7892    3.31743E+006    3.48280E+006    3.48280E+006    4.21395E+005   -4.19524E+004    3.52475E+006   -1.28741E+006    3.24344E+006    3.48280E+006    3.95670E+005   -1.62265E+004    3.95026E+001   -1.89519E+001   -1.06105E+005
            7893    3.30970E+006    3.48896E+006    3.48896E+006    4.04103E+005   -7.14282E+003    3.49610E+006   -1.29531E+006    3.25147E+006    3.48896E+006    4.00623E+005   -3.66188E+003    4.94724E+001   -1.73038E+001   -3.76750E+004
            7894    3.32403E+006    3.45695E+006    3.45695E+006    3.62338E+005   -5.67620E+004    3.51371E+006   -1.25417E+006    3.26380E+006    3.45695E+006    3.13330E+005   -7.75446E+003   -1.09707E+001    1.55494E+001   -1.34675E+005
            7895    3.31691E+006    3.45468E+006    3.45468E+006    3.11110E+005   -1.19299E+004    3.46661E+006   -1.25129E+006    3.28123E+006    3.45468E+006    3.03992E+005   -4.81139E+003    4.46481E+001   -2.74675E+001   -4.74226E+004
            7896    3.33094E+006    3.43189E+006    3.43189E+006    3.05994E+005   -7.18797E+004    3.50377E+006   -1.22200E+006    3.28220E+006    3.43189E+006    2.30204E+005    3.91100E+003    2.87864E+001    2.96231E+000   -1.51311E+005
            7897    3.32587E+006    3.41978E+006    3.41978E+006    2.13576E+005   -1.40588E+004    3.43384E+006   -1.20643E+006    3.30827E+006    3.41978E+006    2.00465E+005   -9.47396E+002    1.57731E+001   -2.58784E+001   -5.30350E+004
            7898    3.33436E+006    3.41180E+006    3.41180E+006    2.44183E+005   -6.74219E+004    3.47922E+006   -1.19619E+006    3.30136E+006    3.41180E+006    1.41220E+005    3.55413E+004   -4.46915E-001    2.40477E+000   -1.46569E+005
            7899    3.33435E+006    3.39104E+006    3.39104E+006    1.25374E+005   -7.99554E+003    3.39904E+006   -1.16947E+006    3.32834E+006    3.39104E+006    1.08603E+005    8.77555E+003   -3.20915E+000   -3.12979E+001   -4.42209E+004
            7900    3.34231E+006    3.36899E+006    3.36899E+006    5.92924E+004   -5.00904E+003    3.37400E+006   -1.14109E+006    3.34092E+006    3.36899E+006    4.45895E+004    9.69380E+003   -1.19300E+001   -1.34601E+001   -2.70044E+004
            7901    3.34740E+006    3.35622E+006    3.35622E+006    1.77272E+004    1.18121E+000    3.35622E+006   -1.12465E+006    3.34729E+006    3.35622E+006    9.29236E+003    8.43598E+003   -8.69307E+000   -1.39959E+001   -8.85264E+003
            7902    3.33529E+006    3.39418E+006    3.39418E+006    1.61146E+005   -3.47380E+004    3.42892E+006   -1.17353E+006    3.32231E+006    3.39418E+006    6.51759E+004    6.12321E+004   -1.99165E+001   -2.47755E+001   -9.79221E+004
            7903    3.34278E+006    3.36777E+006    3.36777E+006    5.62141E+004   -5.39695E+003    3.37316E+006   -1.13953E+006    3.34150E+006    3.36777E+006    1.01470E+004    4.06701E+004   -1.16010E+001   -2.40886E+001   -2.67594E+004
            7904    3.33117E+006    3.48705E+006    3.48705E+006    4.92468E+005   -1.00952E+005    3.58800E+006   -1.29286E+006    3.20901E+006    3.48705E+006   -5.24391E+004    4.43956E+005   -2.85765E+001   -1.86011E+002   -1.62588E+005
            7905    3.32080E+006    3.49347E+006    3.49347E+006    4.71371E+005   -6.15746E+004    3.55504E+006   -1.30109E+006    3.22247E+006    3.49347E+006   -3.38946E+004    4.43691E+005    5.84784E+001    3.46088E+001   -1.18261E+005
            7906    3.31412E+006    3.49805E+006    3.49805E+006    4.57167E+005   -3.43867E+004    3.53244E+006   -1.30694E+006    3.23058E+006    3.49805E+006   -1.83122E+004    4.41093E+005   -8.87276E+000   -6.60436E+001   -8.74249E+004
            7907    3.30901E+006    3.50414E+006    3.50414E+006    4.54611E+005   -1.43171E+004    3.51846E+006   -1.31481E+006    3.23299E+006    3.50414E+006   -7.93365E+003    4.48227E+005    2.05272E+001   -3.48038E+001   -5.43383E+004
            7908    3.30551E+006    3.51269E+006    3.51269E+006    4.67133E+005   -2.54414E+003    3.51523E+006   -1.32576E+006    3.22916E+006    3.51269E+006   -1.77530E+003    4.66364E+005    3.82628E+000   -3.73468E+001   -1.89873E+004
            7909    3.32263E+006    3.50608E+006    3.50608E+006    5.17601E+005   -7.18181E+004    3.57789E+006   -1.31729E+006    3.20182E+006    3.50608E+006   -5.60451E+004    5.01828E+005   -5.07984E+001   -1.04776E+002   -9.51217E+004
            7910    3.31532E+006    3.51121E+006    3.51121E+006    5.04853E+005   -4.44643E+004    3.55567E+006   -1.32387E+006    3.21053E+006    3.51121E+006   -3.54493E+004    4.95838E+005    1.14010E+002    3.70826E+001   -6.97914E+004
            7911    3.31029E+006    3.51682E+006    3.51682E+006    5.01436E+005   -2.52301E+004    3.54205E+006   -1.33101E+006    3.21400E+006    3.51682E+006   -2.00516E+004    4.96258E+005   -4.48202E+001   -4.52439E+001   -5.19666E+004
            7912    3.30589E+006    3.52444E+006    3.52444E+006    5.08153E+005   -9.88545E+003    3.53433E+006   -1.34090E+006    3.21266E+006    3.52444E+006   -7.83388E+003    5.06101E+005    3.24091E+001   -2.74215E+001   -3.25358E+004
            7913    3.30333E+006    3.53421E+006    3.53421E+006    5.28127E+005   -2.20192E+003    3.53641E+006   -1.35338E+006    3.20545E+006    3.53421E+006   -1.95847E+003    5.27883E+005    3.06429E+000   -2.72805E+001   -1.13599E+004
            7914    3.31800E+006    3.51666E+006    3.51666E+006    5.32300E+005   -5.62231E+004    3.57288E+006   -1.33091E+006    3.19739E+006    3.51666E+006   -5.47018E+004    5.30779E+005   -6.87949E+001   -4.91051E+001   -2.98831E+004
            7915    3.31267E+006    3.52111E+006    3.52111E+006    5.25004E+005   -3.63935E+004    3.55750E+006   -1.33657E+006    3.20302E+006    3.52111E+006   -3.54574E+004    5.24068E+005    1.43391E+002    3.95173E+000   -2.29052E+004
            7916    3.30820E+006    3.52744E+006    3.52744E+006    5.26230E+005   -1.98061E+004    3.54725E+006   -1.34462E+006    3.20446E+006    3.52744E+006   -1.92749E+004    5.25698E+005   -6.31277E+001   -1.64666E+001   -1.70222E+004
            7917    3.30461E+006    3.53537E+006    3.53537E+006    5.37632E+005   -8.15901E+003    3.54353E+006   -1.35495E+006    3.20084E+006    3.53537E+006   -7.94725E+003    5.37420E+005    3.68932E+001   -8.51222E+000   -1.07484E+004
            7918    3.30242E+006    3.54587E+006    3.54587E+006    5.60832E+005   -1.66517E+003    3.54754E+006   -1.36835E+006    3.19196E+006    3.54587E+006   -1.63895E+003    5.60806E+005    4.75423E+000   -8.25437E+000   -3.83997E+003
            7919    3.33142E+006    3.48055E+006    3.48055E+006    4.73714E+005   -1.00742E+005    3.58130E+006   -1.28451E+006    3.21715E+006    3.48055E+006    4.14166E+005   -4.11939E+004   -8.64948E+001   -2.86952E+001    1.75105E+005
            7920    3.31628E+006    3.48816E+006    3.48816E+006    4.34153E+005   -3.94599E+004    3.52762E+006   -1.29428E+006    3.23888E+006    3.48816E+006    4.12112E+005   -1.74184E+004   -3.53959E+000    4.95327E+000    9.97663E+004
            7921    3.30849E+006    3.49697E+006    3.49697E+006    4.27280E+005   -7.36258E+003    3.50433E+006   -1.30563E+006    3.24333E+006    3.49697E+006    4.24376E+005   -4.45861E+003   -6.45166E+001   -1.63319E+001    3.54084E+004
            7922    3.32338E+006    3.50006E+006    3.50006E+006    5.02558E+005   -7.38050E+004    3.57386E+006   -1.30960E+006    3.20803E+006    3.50006E+006    4.78520E+005   -4.97671E+004   -9.68990E+001    1.64961E+001    1.15225E+005
            7923    3.31115E+006    3.51072E+006    3.51072E+006    4.85897E+005   -2.69262E+004    3.53764E+006   -1.32323E+006    3.21998E+006    3.51072E+006    4.77594E+005   -1.86228E+004   -1.94360E+001   -5.15396E+001    6.47240E+004
            7924    3.30516E+006    3.52296E+006    3.52296E+006    5.00056E+005   -6.06380E+003    3.52902E+006   -1.33898E+006    3.21624E+006    3.52296E+006    4.98974E+005   -4.98148E+003   -5.85665E+001    6.43376E+000    2.33798E+004
            7925    3.31751E+006    3.51494E+006    3.51494E+006    5.25233E+005   -5.40593E+004    3.56900E+006   -1.32871E+006    3.20074E+006    3.51494E+006    5.20094E+005   -4.89203E+004   -4.32959E+001    4.29472E+001    5.43194E+004
            7926    3.30867E+006    3.52504E+006    3.52504E+006    5.21065E+005   -2.13066E+004    3.54635E+006   -1.34160E+006    3.20637E+006    3.52504E+006    5.19344E+005   -1.95856E+004    4.83077E+000   -9.26700E+001    3.05038E+004
            7927    3.30337E+006    3.53995E+006    3.53995E+006    5.46625E+005   -4.21180E+003    3.54416E+006   -1.36079E+006    3.19759E+006    3.53995E+006    5.46411E+005   -3.99753E+003   -3.92622E+001    2.27824E+001    1.08621E+004
            7928    3.31572E+006    3.51934E+006    3.51934E+006    5.32107E+005   -4.82402E+004    3.56758E+006   -1.33440E+006    3.19845E+006    3.51934E+006    5.32091E+005   -4.82245E+004   -1.47921E+001    4.56459E+001   -3.01467E+003
            7929    3.30780E+006    3.52988E+006    3.52988E+006    5.32415E+005   -1.89606E+004    3.54884E+006   -1.34778E+006    3.20195E+006    3.52988E+006    5.32393E+005   -1.89389E+004   -1.53522E+001   -1.10608E+002   -3.45834E+003
            7930    3.30318E+006    3.54453E+006    3.54453E+006    5.59911E+005   -4.48310E+003    3.54901E+006   -1.36665E+006    3.19198E+006    3.54453E+006    5.59907E+005   -4.47934E+003   -2.56946E+000    3.31401E+001   -1.45703E+003
            7931    3.31781E+006    3.51383E+006    3.51383E+006    5.22921E+005   -5.49534E+004    3.56879E+006   -1.32727E+006    3.20164E+006    3.51383E+006    5.16691E+005   -4.87232E+004    4.13795E+001    4.58685E+001   -5.96776E+004
            7932    3.30905E+006    3.52270E+006    3.52270E+006    5.15249E+005   -2.21547E+004    3.54486E+006   -1.33860E+006    3.20866E+006    3.52270E+006    5.12558E+005   -1.94640E+004    2.37122E+001   -9.82193E+001   -3.79303E+004
            7933    3.30357E+006    3.53690E+006    3.53690E+006    5.37782E+005   -4.11740E+003    3.54102E+006   -1.35685E+006    3.20128E+006    3.53690E+006    5.37444E+005   -3.77921E+003    2.35358E+001    2.15620E+001   -1.35332E+004
            7934    3.32396E+006    3.49810E+006    3.49810E+006    4.98881E+005   -7.56807E+004    3.57378E+006   -1.30710E+006    3.20937E+006    3.49810E+006    4.72321E+005   -4.91208E+004    7.06442E+001    1.65542E+001   -1.20644E+005
            7935    3.31200E+006    3.50644E+006    3.50644E+006    4.75390E+005   -2.87193E+004    3.53516E+006   -1.31770E+006    3.22399E+006    3.50644E+006    4.64985E+005   -1.83140E+004   -1.08678E+001   -6.16349E+001   -7.16739E+004
            7936    3.30598E+006    3.51669E+006    3.51669E+006    4.82880E+005   -6.82665E+003    3.52352E+006   -1.33091E+006    3.22286E+006    3.51669E+006    4.81459E+005   -5.40579E+003    5.32080E+001    9.81045E+000   -2.63398E+004
            7937    3.30558E+006    3.51241E+006    3.51241E+006    4.66597E+005   -2.77398E+003    3.51518E+006   -1.32541E+006    3.22933E+006    3.51241E+006   -2.00169E+003    4.65825E+005    5.97300E+000    3.85645E+001    1.90235E+004
            7938    3.30902E+006    3.50413E+006    3.50413E+006    4.54601E+005   -1.43437E+004    3.51848E+006   -1.31480E+006    3.23299E+006    3.50413E+006   -7.91357E+003    4.48171E+005    1.42071E+001    3.74348E+001    5.45347E+004
            7939    3.31419E+006    3.49803E+006    3.49803E+006    4.57531E+005   -3.47752E+004    3.53281E+006   -1.30693E+006    3.23039E+006    3.49803E+006   -1.86350E+004    4.41391E+005    4.60208E+000    6.63993E+001    8.76664E+004
            7940    3.32093E+006    3.49350E+006    3.49350E+006    4.72042E+005   -6.21265E+004    3.55563E+006   -1.30114E+006    3.22214E+006    3.49350E+006   -3.43282E+004    4.44244E+005    4.09078E+001   -3.13294E+001    1.18643E+005
            7941    3.33115E+006    3.48716E+006    3.48716E+006    4.92730E+005   -1.00898E+005    3.58806E+006   -1.29300E+006    3.20890E+006    3.48716E+006   -5.25286E+004    4.44361E+005   -1.42886E+001    1.87103E+002    1.62400E+005
            7942    3.30327E+006    3.53427E+006    3.53427E+006    5.28113E+005   -1.99016E+003    3.53626E+006   -1.35347E+006    3.20547E+006    3.53427E+006   -1.75118E+003    5.27874E+005    3.29099E+000    3.05862E+001    1.12529E+004
            7943    3.30587E+006    3.52449E+006    3.52449E+006    5.08267E+005   -9.85503E+003    3.53434E+006   -1.34097E+006    3.21262E+006    3.52449E+006   -7.83985E+003    5.06252E+005    3.10073E+001    3.05053E+001    3.22498E+004
            7944    3.31024E+006    3.51683E+006    3.51683E+006    5.01265E+005   -2.50312E+004    3.54186E+006   -1.33102E+006    3.21409E+006    3.51683E+006   -1.98699E+004    4.96104E+005   -4.25526E+001    4.92036E+001    5.18629E+004
            7945    3.31540E+006    3.51119E+006    3.51119E+006    5.05144E+005   -4.47905E+004    3.55598E+006   -1.32385E+006    3.21037E+006    3.51119E+006   -3.58098E+004    4.96164E+005    1.12420E+002   -3.56381E+001    6.97005E+004
            7946    3.32277E+006    3.50597E+006    3.50597E+006    5.17913E+005   -7.23824E+004    3.57835E+006   -1.31717E+006    3.20160E+006    3.50597E+006   -5.65250E+004    5.02055E+005   -5.39175E+001    1.18393E+002    9.54415E+004
            7947    3.30245E+006    3.54584E+006    3.54584E+006    5.60869E+005   -1.80175E+003    3.54764E+006   -1.36830E+006    3.19193E+006    3.54584E+006   -1.77588E+003    5.60844E+005    4.15424E+000    1.24602E+001    3.81512E+003
            7948    3.30454E+006    3.53544E+006    3.53544E+006    5.37620E+005   -7.93141E+003    3.54337E+006   -1.35504E+006    3.20087E+006    3.53544E+006   -7.71857E+003    5.37407E+005    3.92121E+001    1.24859E+001    1.07735E+004
            7949    3.30820E+006    3.52748E+006    3.52748E+006    5.26323E+005   -1.97930E+004    3.54728E+006   -1.34467E+006    3.20443E+006    3.52748E+006   -1.92636E+004    5.25793E+005   -6.80735E+001    2.06154E+001    1.69954E+004
            7950    3.31258E+006    3.52115E+006    3.52115E+006    5.24762E+005   -3.60458E+004    3.55719E+006   -1.33662E+006    3.20316E+006    3.52115E+006   -3.51230E+004    5.23839E+005    1.51977E+002   -3.17188E+000    2.27299E+004
            7951    3.31787E+006    3.51667E+006    3.51667E+006    5.31902E+005   -5.57754E+004    3.57245E+006   -1.33093E+006    3.19762E+006    3.51667E+006   -5.42357E+004    5.30362E+005   -7.68164E+001    5.68376E+001    3.00406E+004
            7952    3.35131E+006    3.42713E+006    3.42713E+006    3.87206E+005   -1.66572E+005    3.59371E+006   -1.21592E+006    3.24597E+006    3.42713E+006    1.62847E+005    5.77876E+004    2.48026E+001   -4.42229E+001    2.71860E+005
            7953    3.35243E+006    3.43064E+006    3.43064E+006    4.02395E+005   -1.71797E+005    3.60244E+006   -1.22041E+006    3.23902E+006    3.43064E+006    1.02147E+005    1.28451E+005    9.61427E+001   -4.81781E+000    2.86795E+005
            7954    3.35282E+006    3.43735E+006    3.43735E+006    4.24261E+005   -1.74526E+005    3.61187E+006   -1.22903E+006    3.22922E+006    3.43735E+006    4.70456E+004    2.02689E+005    8.85868E+001    4.92389E+001    2.89103E+005
            7955    3.34856E+006    3.44896E+006    3.44896E+006    4.43270E+005   -1.60362E+005    3.60932E+006   -1.24396E+006    3.22273E+006    3.44896E+006   -1.27578E+003    2.84184E+005    7.44956E+001    1.31005E+002    2.65934E+005
            7956    3.34128E+006    3.46584E+006    3.46584E+006    4.66409E+005   -1.35486E+005    3.60132E+006   -1.26559E+006    3.21590E+006    3.46584E+006   -3.64900E+004    3.67412E+005    3.46351E+001    1.56808E+002    2.23126E+005
            7957    3.32837E+006    3.47185E+006    3.47185E+006    4.34195E+005   -8.59838E+004    3.55783E+006   -1.27335E+006    3.23502E+006    3.47185E+006   -2.66471E+004    3.74858E+005   -1.19567E+001   -2.82669E+001    1.65363E+005
            7958    3.32054E+006    3.47409E+006    3.47409E+006    4.05996E+005   -5.14529E+004    3.52554E+006   -1.27621E+006    3.24851E+006    3.47409E+006   -1.55038E+004    3.70047E+005    3.87649E+001    6.17315E+001    1.23096E+005
            7959    3.31421E+006    3.47788E+006    3.47788E+006    3.87075E+005   -2.17893E+004    3.49967E+006   -1.28105E+006    3.25674E+006    3.47788E+006   -6.55369E+003    3.71839E+005    6.47614E+000    3.62319E+001    7.74414E+004
            7960    3.31020E+006    3.48269E+006    3.48269E+006    3.83350E+005   -4.24077E+003    3.48694E+006   -1.28727E+006    3.25856E+006    3.48269E+006   -2.34856E+003    3.81457E+005    5.91852E+000    3.67704E+001    2.70152E+004
            7961    3.33613E+006    3.45095E+006    3.45095E+006    3.99667E+005   -1.11114E+005    3.56206E+006   -1.24650E+006    3.24640E+006    3.45095E+006   -7.82741E+003    2.96381E+005   -4.67773E+001    3.31948E+000    2.05156E+005
            7962    3.32717E+006    3.45071E+006    3.45071E+006    3.56479E+005   -6.85467E+004    3.51926E+006   -1.24622E+006    3.26526E+006    3.45071E+006   -3.98174E+003    2.91914E+005    6.96297E+001    4.59520E+001    1.52555E+005
            7963    3.32102E+006    3.45001E+006    3.45001E+006    3.17836E+005   -3.21506E+004    3.48216E+006   -1.24523E+006    3.27915E+006    3.45001E+006   -2.93987E+003    2.88625E+005   -5.55328E+000    2.51881E+001    9.67994E+004
            7964    3.31719E+006    3.44965E+006    3.44965E+006    2.90644E+005   -5.83007E+003    3.45548E+006   -1.24482E+006    3.28719E+006    3.44965E+006   -1.90749E+003    2.86722E+005    1.55086E+001    2.36837E+001    3.38756E+004
            7965    3.34049E+006    3.43538E+006    3.43538E+006    3.67802E+005   -1.23592E+005    3.55897E+006   -1.22653E+006    3.25769E+006    3.43538E+006    2.73509E+004    2.16858E+005   -6.57692E+001    9.98644E+000    2.26691E+005
            7966    3.33273E+006    3.43064E+006    3.43064E+006    3.11791E+005   -8.11413E+004    3.51178E+006   -1.22043E+006    3.28001E+006    3.43064E+006    1.46671E+004    2.15982E+005    7.39304E+001    1.75280E+001    1.68722E+005
            7967    3.32745E+006    3.42547E+006    3.42547E+006    2.55146E+005   -3.95078E+004    3.46498E+006   -1.21370E+006    3.29791E+006    3.42547E+006    6.17749E+003    2.09461E+005   -5.47432E+000    1.77776E+001    1.06650E+005
            7968    3.32580E+006    3.41759E+006    3.41759E+006    2.00307E+005   -7.01576E+003    3.42461E+006   -1.20363E+006    3.31121E+006    3.41759E+006   -2.50771E+002    1.93542E+005    1.69869E+001    8.25455E+000    3.68344E+004
            7969    3.34263E+006    3.42412E+006    3.42412E+006    3.39714E+005   -1.27558E+005    3.55168E+006   -1.21209E+006    3.26794E+006    3.42412E+006    6.99550E+004    1.42201E+005   -7.89428E+001    5.11542E+001    2.30827E+005
            7970    3.33474E+006    3.41695E+006    3.41695E+006    2.69036E+005   -7.75524E+004    3.49450E+006   -1.20281E+006    3.29386E+006    3.41695E+006    4.49272E+004    1.46556E+005    1.10210E+002   -3.13088E+001    1.65677E+005
            7971    3.33257E+006    3.40538E+006    3.40538E+006    1.97621E+005   -3.93516E+004    3.44473E+006   -1.18788E+006    3.31353E+006    3.40538E+006    1.79796E+004    1.40290E+005   -5.11899E+001    2.06201E+001    1.01484E+005
            7972    3.33446E+006    3.39047E+006    3.39047E+006    1.22753E+005   -6.94484E+003    3.39741E+006   -1.16876E+006    3.32877E+006    3.39047E+006    2.74013E+003    1.13068E+005    4.04994E+001   -6.44732E+000    3.40929E+004
            7973    3.33924E+006    3.42096E+006    3.42096E+006    3.11485E+005   -1.08328E+005    3.52929E+006   -1.20804E+006    3.27908E+006    3.42096E+006    1.31439E+005    7.17180E+004   -5.88997E+001    2.30599E+001    2.07772E+005
            7974    3.33458E+006    3.40587E+006    3.40587E+006    2.18014E+005   -5.82483E+004    3.46412E+006   -1.18854E+006    3.30869E+006    3.40587E+006    7.25855E+004    8.71804E+004    9.28063E+001   -4.77624E+001    1.37938E+005
            7975    3.33600E+006    3.39023E+006    3.39023E+006    1.42899E+005   -2.78670E+004    3.41810E+006   -1.16842E+006    3.32614E+006    3.39023E+006    3.01116E+004    8.49209E+004   -5.55115E+001    1.79937E+001    8.08658E+004
            7976    3.34188E+006    3.37011E+006    3.37011E+006    6.36482E+004   -6.08386E+003    3.37620E+006   -1.14256E+006    3.34024E+006    3.37011E+006    5.34685E+003    5.22175E+004    4.41059E+001   -2.32556E+001    2.58152E+004
            7977    3.34635E+006    3.35874E+006    3.35874E+006    2.58624E+004   -9.21834E+002    3.35966E+006   -1.12789E+006    3.34611E+006    3.35874E+006    8.40756E+003    1.65330E+004    1.20012E+001   -1.36890E+001    1.27610E+004
            7978    3.34929E+006    3.35173E+006    3.35173E+006    4.86699E+003    1.34249E+001    3.35172E+006   -1.11887E+006    3.34928E+006    3.35173E+006    2.56580E+003    2.31462E+003    3.66839E+000   -3.18097E+000    2.42353E+003
            7979    3.33946E+006    3.37691E+006    3.37691E+006    8.66230E+004   -9.63628E+003    3.38655E+006   -1.15130E+006    3.33633E+006    3.37691E+006    3.66856E+004    4.03011E+004    9.09490E+000   -1.26191E+001    4.80957E+004
            7980    3.34554E+006    3.36068E+006    3.36068E+006    3.11910E+004   -6.96510E+002    3.36137E+006   -1.13039E+006    3.34520E+006    3.36068E+006    2.04849E+004    1.00096E+004    1.50220E+001   -8.10474E+000    1.50589E+004
            7981    3.33526E+006    3.39425E+006    3.39425E+006    1.60731E+005   -3.41983E+004    3.42845E+006   -1.17359E+006    3.32241E+006    3.39425E+006    8.52287E+004    4.13040E+004    1.17192E+001   -1.65621E+001    9.49579E+004
            7982    3.33893E+006    3.37796E+006    3.37796E+006    8.58645E+004   -5.92065E+003    3.38388E+006   -1.15263E+006    3.33609E+006    3.37796E+006    6.97702E+004    1.01736E+004    1.05197E+001   -1.34273E+001    3.49026E+004
            7983    3.33286E+006    3.41645E+006    3.41645E+006    2.54372E+005   -6.42938E+004    3.48075E+006   -1.20218E+006    3.29832E+006    3.41645E+006    1.64036E+005    2.60426E+004   -4.44342E+000   -3.02940E+001    1.43619E+005
            7984    3.33068E+006    3.40272E+006    3.40272E+006    1.61168E+005   -1.04498E+004    3.41317E+006   -1.18448E+006    3.32071E+006    3.40272E+006    1.46128E+005    4.59035E+003    3.38879E+000   -6.18174E+000    4.85279E+004
            7985    3.32250E+006    3.43104E+006    3.43104E+006    2.43217E+005   -1.14799E+004    3.44252E+006   -1.22092E+006    3.30043E+006    3.43104E+006    2.31833E+005   -9.57971E+001   -1.91511E+001   -2.60786E+001    5.26298E+004
            7986    3.31500E+006    3.46384E+006    3.46384E+006    3.37633E+005   -1.22055E+004    3.47605E+006   -1.26309E+006    3.27309E+006    3.46384E+006    3.31164E+005   -5.73667E+003   -4.81430E+001   -2.97347E+001    4.71298E+004
            7987    3.32980E+006    3.43839E+006    3.43839E+006    3.24455E+005   -7.18045E+004    3.51020E+006   -1.23035E+006    3.27612E+006    3.43839E+006    2.48410E+005    4.23954E+003   -6.14419E+000    2.53912E+001    1.56046E+005
            7988    3.32291E+006    3.46291E+006    3.46291E+006    3.78487E+005   -5.57886E+004    3.51870E+006   -1.26187E+006    3.25815E+006    3.46291E+006    3.34463E+005   -1.17644E+004   -1.87695E+001    3.48595E+001    1.31075E+005
            7989    3.33880E+006    3.46026E+006    3.46026E+006    4.40336E+005   -1.25185E+005    3.58544E+006   -1.25847E+006    3.22840E+006    3.46026E+006    3.32373E+005   -1.72212E+004   -9.19337E+001   -8.29067E+001    2.22260E+005
            7990    3.34560E+006    3.43997E+006    3.43997E+006    4.04472E+005   -1.47168E+005    3.58714E+006   -1.23242E+006    3.24091E+006    3.43997E+006    2.41211E+005    1.60933E+004   -4.37219E+001   -7.91629E+001    2.51808E+005
            7991    3.34801E+006    3.42187E+006    3.42187E+006    3.56924E+005   -1.51140E+005    3.57301E+006   -1.20922E+006    3.25959E+006    3.42187E+006    7.96237E+004    1.26161E+005    1.63080E+002   -1.56339E+000    2.52964E+005
            7992    3.34472E+006    3.43743E+006    3.43743E+006    3.94509E+005   -1.43793E+005    3.58123E+006   -1.22938E+006    3.24511E+006    3.43743E+006    3.83836E+004    2.12333E+005    1.85349E+002   -3.53585E+001    2.54711E+005
            7993    3.34234E+006    3.45229E+006    3.45229E+006    4.30449E+005   -1.37707E+005    3.59000E+006   -1.24834E+006    3.23100E+006    3.45229E+006   -4.21280E+003    2.96954E+005    1.41587E+002   -2.53022E+001    2.40883E+005
            7994    3.33574E+006    3.46979E+006    3.46979E+006    4.58428E+005   -1.15778E+005    3.58556E+006   -1.27081E+006    3.22172E+006    3.46979E+006   -3.37160E+004    3.76365E+005    5.04253E+001   -3.56452E+000    2.00964E+005
            7995    3.31925E+006    3.47653E+006    3.47653E+006    4.08194E+005   -4.67049E+004    3.52324E+006   -1.27934E+006    3.24801E+006    3.47653E+006   -1.53216E+004    3.76811E+005   -1.03074E+002   -1.03365E+002    1.15288E+005
            7996    3.31110E+006    3.48165E+006    3.48165E+006    3.84151E+005   -8.11552E+003    3.48976E+006   -1.28589E+006    3.25821E+006    3.48165E+006   -3.92623E+003    3.79962E+005    2.13862E+001   -3.98031E+001    4.03208E+004
            7997    3.32554E+006    3.45173E+006    3.45173E+006    3.52374E+005   -6.12921E+004    3.51302E+006   -1.24760E+006    3.26691E+006    3.45173E+006   -5.64528E+003    2.96728E+005   -1.86675E+002   -1.16470E+002    1.41148E+005
            7998    3.31880E+006    3.44766E+006    3.44766E+006    2.92432E+005   -1.35240E+004    3.46119E+006   -1.24219E+006    3.28685E+006    3.44766E+006   -5.21976E+003    2.84128E+005    2.48080E+001   -3.64698E+000    4.97170E+004
            7999    3.33167E+006    3.42896E+006    3.42896E+006    2.99805E+005   -7.37449E+004    3.50270E+006   -1.21834E+006    3.28406E+006    3.42896E+006    8.62564E+003    2.17435E+005   -1.71076E+002   -9.49716E+000    1.54870E+005
            8000    3.32739E+006    3.41498E+006    3.41498E+006    1.99976E+005   -1.44397E+004    3.42942E+006   -1.20017E+006    3.31180E+006    3.41498E+006    2.91931E+000    1.85533E+005    5.53579E+000    1.11695E+001    5.37414E+004
            8001    3.33438E+006    3.41071E+006    3.41071E+006    2.40983E+005   -6.69536E+004    3.47766E+006   -1.19491E+006    3.30216E+006    3.41071E+006    4.13860E+004    1.32643E+005   -1.27175E+002   -9.81335E-001    1.47052E+005
            8002    3.33541E+006    3.38836E+006    3.38836E+006    1.17759E+005   -8.27114E+003    3.39664E+006   -1.16595E+006    3.33004E+006    3.38836E+006    9.46492E+003    1.00023E+005   -9.36404E+000    2.34789E+001    4.38260E+004
            8003    3.34274E+006    3.36799E+006    3.36799E+006    5.66646E+004   -5.30010E+003    3.37329E+006   -1.13979E+006    3.34145E+006    3.36799E+006    1.01979E+004    4.11667E+004   -2.88338E+001    1.47262E+001    2.68354E+004
            8004    3.34742E+006    3.35625E+006    3.35625E+006    1.77489E+004   -1.54239E+001    3.35627E+006   -1.12466E+006    3.34732E+006    3.35625E+006    9.12474E+003    8.60873E+003   -2.96201E+000    7.22359E+000    8.87841E+003
            8005    3.33525E+006    3.39412E+006    3.39412E+006    1.61067E+005   -3.47082E+004    3.42882E+006   -1.17349E+006    3.32228E+006    3.39412E+006    6.51410E+004    6.12176E+004   -2.92130E+001    3.42702E+001    9.78679E+004
            8006    3.34244E+006    3.36880E+006    3.36880E+006    5.88322E+004   -5.19944E+003    3.37400E+006   -1.14081E+006    3.34106E+006    3.36880E+006    4.40496E+004    9.58319E+003   -6.56829E+000    2.78690E+001    2.69820E+004
            8007    3.33461E+006    3.39062E+006    3.39062E+006    1.24017E+005   -8.07933E+003    3.39870E+006   -1.16885E+006    3.32872E+006    3.39062E+006    1.07274E+005    8.66365E+003   -1.30068E+001    9.93364E+000    4.39472E+004
            8008    3.32621E+006    3.41905E+006    3.41905E+006    2.11413E+005   -1.42373E+004    3.43329E+006   -1.20541E+006    3.30892E+006    3.41905E+006    1.98322E+005   -1.14668E+003    9.67731E-001    3.33349E+000    5.27497E+004
            8009    3.31710E+006    3.45444E+006    3.45444E+006    3.10292E+005   -1.20872E+004    3.46652E+006   -1.25088E+006    3.28158E+006    3.45444E+006    3.03320E+005   -5.11454E+003    7.65451E+000   -3.68572E+000    4.68960E+004
            8010    3.30958E+006    3.48948E+006    3.48948E+006    4.05058E+005   -6.72568E+003    3.49620E+006   -1.29594E+006    3.25120E+006    3.48948E+006    4.01691E+005   -3.35798E+003    3.18574E+001    1.08594E+001    3.70867E+004
            8011    3.33428E+006    3.41163E+006    3.41163E+006    2.44047E+005   -6.74821E+004    3.47911E+006   -1.19607E+006    3.30130E+006    3.41163E+006    1.41182E+005    3.53837E+004    1.79358E+001    1.16001E+002    1.46507E+005
            8012    3.33084E+006    3.43199E+006    3.43199E+006    3.06189E+005   -7.16702E+004    3.50366E+006   -1.22217E+006    3.28210E+006    3.43199E+006    2.30846E+005    3.67324E+003    2.15869E+001    1.17641E+002    1.50972E+005
            8013    3.32388E+006    3.45701E+006    3.45701E+006    3.62420E+005   -5.64655E+004    3.51347E+006   -1.25432E+006    3.26371E+006    3.45701E+006    3.13757E+005   -7.80180E+003    1.23480E+002    9.19550E+001    1.34225E+005
            8014    3.31738E+006    3.48292E+006    3.48292E+006    4.20933E+005   -4.13565E+004    3.52428E+006   -1.28750E+006    3.24373E+006    3.48292E+006    3.95287E+005   -1.57102E+004    8.06605E+001   -7.33516E+000    1.05822E+005
            8015    3.33225E+006    3.47775E+006    3.47775E+006    4.68269E+005   -1.03324E+005    3.58107E+006   -1.28090E+006    3.21917E+006    3.47775E+006    4.04916E+005   -3.99712E+004    2.70015E+000    5.69120E+001    1.79439E+005
            8016    3.34001E+006    3.45775E+006    3.45775E+006    4.37109E+005   -1.29214E+005    3.58696E+006   -1.25521E+006    3.22933E+006    3.45775E+006    3.23308E+005   -1.54131E+004    2.39381E+001   -3.73985E+001    2.26930E+005
            8017    3.34377E+006    3.44010E+006    3.44010E+006    3.98481E+005   -1.40377E+005    3.58048E+006   -1.23273E+006    3.24392E+006    3.44010E+006    2.34685E+005    2.34190E+004    5.84097E+001   -1.05437E+002    2.47858E+005
            8018    3.34805E+006    3.42229E+006    3.42229E+006    3.58320E+005   -1.51393E+005    3.57368E+006   -1.20974E+006    3.25904E+006    3.42229E+006    1.43727E+005    6.32005E+004    2.80492E+001   -1.27611E+002    2.51656E+005
            8019    3.30683E+006    3.51032E+006    3.51032E+006    4.65100E+005   -7.30769E+003    3.51762E+006   -1.32270E+006    3.22960E+006    3.51032E+006   -5.45561E+003    4.63248E+005   -1.16031E+001   -4.75121E+001    2.95213E+004
            8020    3.31339E+006    3.49996E+006    3.49996E+006    4.60822E+005   -3.23912E+004    3.53235E+006   -1.30946E+006    3.22926E+006    3.49996E+006   -1.85279E+004    4.46959E+005   -8.54461E+000   -1.54121E+002    8.15191E+004
            8021    3.32789E+006    3.48998E+006    3.48998E+006    4.88435E+005   -8.87447E+004    3.57873E+006   -1.29656E+006    3.21237E+006    3.48998E+006   -4.83378E+004    4.48028E+005   -2.14569E+001   -1.23101E+001    1.47273E+005
            8022    3.30409E+006    3.53212E+006    3.53212E+006    5.24610E+005   -4.64888E+003    3.53677E+006   -1.35069E+006    3.20664E+006    3.53212E+006   -4.08642E+003    5.24048E+005   -5.07243E+001   -4.95671E+001    1.72444E+004
            8023    3.30973E+006    3.51827E+006    3.51827E+006    5.04187E+005   -2.36545E+004    3.54193E+006   -1.33293E+006    3.21298E+006    3.51827E+006   -1.91152E+004    4.99647E+005    9.15151E+001   -8.56391E+001    4.87382E+004
            8024    3.32053E+006    3.50814E+006    3.50814E+006    5.14610E+005   -6.34634E+004    3.57161E+006   -1.31976E+006    3.20437E+006    3.50814E+006   -5.03057E+004    5.01453E+005   -9.98444E+001    1.18348E+001    8.62147E+004
            8025    3.30320E+006    3.54341E+006    3.54341E+006    5.56195E+005   -4.11774E+003    3.54753E+006   -1.36516E+006    3.19365E+006    3.54341E+006   -4.05757E+003    5.56135E+005   -9.67617E+001   -1.91100E+001    5.80572E+003
            8026    3.30793E+006    3.52836E+006    3.52836E+006    5.28951E+005   -1.95187E+004    3.54788E+006   -1.34593E+006    3.20323E+006    3.52836E+006   -1.90791E+004    5.28511E+005    1.69036E+002   -5.75146E+001    1.55214E+004
            8027    3.31668E+006    3.51853E+006    3.51853E+006    5.30461E+005   -5.01011E+004    3.56863E+006   -1.33296E+006    3.19936E+006    3.51853E+006   -4.86779E+004    5.29038E+005   -1.49802E+002   -1.81582E+001    2.87094E+004
            8028    3.30866E+006    3.49633E+006    3.49633E+006    4.25509E+005   -7.53284E+003    3.50386E+006   -1.30477E+006    3.24398E+006    3.49633E+006    4.22575E+005   -4.59904E+003   -3.44251E+001   -1.06815E+001   -3.55225E+004
            8029    3.31641E+006    3.48778E+006    3.48778E+006    4.33647E+005   -3.99901E+004    3.52777E+006   -1.29381E+006    3.23901E+006    3.48778E+006    4.11211E+005   -1.75540E+004   -1.16313E+002    6.20177E+001   -1.00614E+005
            8030    3.33120E+006    3.48059E+006    3.48059E+006    4.73542E+005   -1.00226E+005    3.58081E+006   -1.28463E+006    3.21720E+006    3.48059E+006    4.14308E+005   -4.09915E+004   -1.62386E+001   -1.80720E+001   -1.74581E+005
            8031    3.30521E+006    3.52252E+006    3.52252E+006    4.98797E+005   -6.07878E+003    3.52860E+006   -1.33841E+006    3.21673E+006    3.52252E+006    4.97701E+005   -4.98326E+003   -4.10897E+001    2.25863E+001   -2.34926E+004
            8032    3.31116E+006    3.51054E+006    3.51054E+006    4.85625E+005   -2.70512E+004    3.53759E+006   -1.32304E+006    3.22004E+006    3.51054E+006    4.77255E+005   -1.86811E+004   -1.03972E+002   -3.43050E+001   -6.49698E+004
            8033    3.32349E+006    3.50021E+006    3.50021E+006    5.02560E+005   -7.37463E+004    3.57396E+006   -1.30968E+006    3.20818E+006    3.50021E+006    4.78497E+005   -4.96833E+004    2.05230E+001    4.66474E+001   -1.15276E+005
            8034    3.30336E+006    3.53984E+006    3.53984E+006    5.46221E+005   -4.12397E+003    3.54396E+006   -1.36065E+006    3.19777E+006    3.53984E+006    5.46001E+005   -3.90425E+003   -3.44511E+001    5.91271E+001   -1.09943E+004
            8035    3.30859E+006    3.52497E+006    3.52497E+006    5.20909E+005   -2.12034E+004    3.54617E+006   -1.34156E+006    3.20638E+006    3.52497E+006    5.19171E+005   -1.94657E+004   -8.26721E+001   -1.10733E+002   -3.06438E+004
            8036    3.31762E+006    3.51517E+006    3.51517E+006    5.25116E+005   -5.38006E+004    3.56897E+006   -1.32883E+006    3.20101E+006    3.51517E+006    5.19879E+005   -4.85635E+004   -1.27149E+001    1.03440E+002   -5.48128E+004
            8037    3.30316E+006    3.54464E+006    3.54464E+006    5.60131E+005   -4.39854E+003    3.54904E+006   -1.36679E+006    3.19191E+006    3.54464E+006    5.60128E+005   -4.39507E+003   -1.53004E+001    7.13696E+001    1.40069E+003
            8038    3.30776E+006    3.52973E+006    3.52973E+006    5.32547E+005   -1.92179E+004    3.54895E+006   -1.34769E+006    3.20176E+006    3.52973E+006    5.32527E+005   -1.91981E+004   -1.46328E+001   -1.27915E+002    3.30994E+003
            8039    3.31611E+006    3.51973E+006    3.51973E+006    5.32448E+005   -4.84313E+004    3.56817E+006   -1.33458E+006    3.19862E+006    3.51973E+006    5.32440E+005   -4.84229E+004    8.29203E+000    1.06155E+002    2.20323E+003
            8040    3.30352E+006    3.53724E+006    3.53724E+006    5.38615E+005   -3.98799E+003    3.54123E+006   -1.35729E+006    3.20096E+006    3.53724E+006    5.38282E+005   -3.65459E+003    1.67441E+001    7.03632E+001    1.34459E+004
            8041    3.30902E+006    3.52279E+006    3.52279E+006    5.15528E+005   -2.21230E+004    3.54492E+006   -1.33873E+006    3.20853E+006    3.52279E+006    5.12841E+005   -1.94364E+004    2.23417E+001   -1.42184E+002    3.79104E+004
            8042    3.31793E+006    3.51423E+006    3.51423E+006    5.22982E+005   -5.45514E+004    3.56878E+006   -1.32755E+006    3.20190E+006    3.51423E+006    5.16994E+005   -4.85641E+004   -1.65098E+001    1.34359E+002    5.84977E+004
            8043    3.30592E+006    3.51727E+006    3.51727E+006    4.84288E+005   -6.68554E+003    3.52395E+006   -1.33162E+006    3.22236E+006    3.51727E+006    4.82897E+005   -5.29459E+003    2.30395E+001    5.43595E+001    2.60957E+004
            8044    3.31188E+006    3.50630E+006    3.50630E+006    4.74992E+005   -2.84990E+004    3.53480E+006   -1.31760E+006    3.22409E+006    3.50630E+006    4.64633E+005   -1.81410E+004    1.01433E+002   -9.94873E+001    7.14694E+004
            8045    3.32413E+006    3.49866E+006    3.49866E+006    4.99314E+005   -7.53402E+004    3.57400E+006   -1.30754E+006    3.20952E+006    3.49866E+006    4.73047E+005   -4.90732E+004    6.16775E+000    1.05497E+002    1.20019E+005
            8046    3.32800E+006    3.49001E+006    3.49001E+006    4.88523E+005   -8.89293E+004    3.57894E+006   -1.29653E+006    3.21238E+006    3.49001E+006   -4.85912E+004    4.48185E+005   -4.36734E+001    1.48720E+001   -1.47194E+005
            8047    3.31329E+006    3.50018E+006    3.50018E+006    4.61052E+005   -3.20069E+004    3.53218E+006   -1.30974E+006    3.22920E+006    3.50018E+006   -1.83360E+004    4.47381E+005    2.27333E+001    1.57334E+002   -8.09547E+004
            8048    3.30682E+006    3.51067E+006    3.51067E+006    4.66111E+005   -7.35884E+003    3.51803E+006   -1.32314E+006    3.22924E+006    3.51067E+006   -5.53234E+003    4.64285E+005   -2.58488E+001    4.53683E+001   -2.93506E+004
            8049    3.32055E+006    3.50831E+006    3.50831E+006    5.14759E+005   -6.33166E+004    3.57163E+006   -1.31992E+006    3.20439E+006    3.50831E+006   -5.03162E+004    5.01758E+005   -1.36260E+002   -1.49093E+001   -8.57098E+004
            8050    3.30971E+006    3.51823E+006    3.51823E+006    5.03985E+005   -2.35714E+004    3.54180E+006   -1.33288E+006    3.21307E+006    3.51823E+006   -1.90257E+004    4.99439E+005    1.34745E+002    7.24639E+001   -4.87592E+004
            8051    3.30406E+006    3.53232E+006    3.53232E+006    5.24989E+005   -4.50946E+003    3.53683E+006   -1.35093E+006    3.20651E+006    3.53232E+006   -3.95370E+003    5.24433E+005   -7.23150E+001    4.25849E+001   -1.71453E+004
            8052    3.31665E+006    3.51866E+006    3.51866E+006    5.30494E+005   -4.98665E+004    3.56852E+006   -1.33310E+006    3.19940E+006    3.51866E+006   -4.85119E+004    5.29139E+005   -1.62964E+002    1.36077E+001   -2.80060E+004
            8053    3.30788E+006    3.52835E+006    3.52835E+006    5.28775E+005   -1.93662E+004    3.54771E+006   -1.34592E+006    3.20331E+006    3.52835E+006   -1.88974E+004    5.28306E+005    1.87643E+002    4.02361E+001   -1.60235E+004
            8054    3.30322E+006    3.54342E+006    3.54342E+006    5.56216E+005   -4.13946E+003    3.54755E+006   -1.36516E+006    3.19365E+006    3.54342E+006   -4.07795E+003    5.56155E+005   -1.06801E+002    6.51642E+000   -5.87054E+003
            8055    3.34216E+006    3.36979E+006    3.36979E+006    6.20284E+004   -5.74529E+003    3.37553E+006   -1.14202E+006    3.34062E+006    3.36979E+006    5.61452E+003    5.06686E+004   -4.10989E+001   -3.96950E+000   -2.53150E+004
            8056    3.33502E+006    3.38957E+006    3.38957E+006    1.20313E+005   -7.54557E+003    3.39712E+006   -1.16745E+006    3.32950E+006    3.38957E+006    2.18234E+003    1.10585E+005   -2.09506E+001    1.03582E+001   -3.38993E+004
            8057    3.32613E+006    3.41700E+006    3.41700E+006    1.98378E+005   -7.12018E+003    3.42412E+006   -1.20275E+006    3.31180E+006    3.41700E+006   -5.34773E+002    1.91793E+005    1.62530E+001    2.47059E-001   -3.61928E+004
            8058    3.31724E+006    3.44970E+006    3.44970E+006    2.90301E+005   -5.56794E+003    3.45526E+006   -1.24481E+006    3.28736E+006    3.44970E+006   -1.74184E+003    2.86475E+005    1.24292E+001   -2.44394E+001   -3.34273E+004
            8059    3.31027E+006    3.48270E+006    3.48270E+006    3.83428E+005   -4.39644E+003    3.48710E+006   -1.28724E+006    3.25857E+006    3.48270E+006   -2.54347E+003    3.81575E+005    7.67081E+000   -4.79750E+001   -2.67431E+004
            8060    3.33596E+006    3.39019E+006    3.39019E+006    1.42792E+005   -2.77885E+004    3.41798E+006   -1.16840E+006    3.32613E+006    3.39019E+006    3.04037E+004    8.45996E+004    1.31092E+002    5.75919E+001   -8.08709E+004
            8061    3.33250E+006    3.40497E+006    3.40497E+006    1.96096E+005   -3.87429E+004    3.44371E+006   -1.18744E+006    3.31381E+006    3.40497E+006    1.76079E+004    1.39746E+005    1.20234E+002    3.73773E+001   -1.00289E+005
            8062    3.32730E+006    3.42516E+006    3.42516E+006    2.53876E+005   -3.88276E+004    3.46398E+006   -1.21340E+006    3.29815E+006    3.42516E+006    6.49233E+003    2.08556E+005    4.48343E+001   -2.14593E-001   -1.05884E+005
            8063    3.32088E+006    3.44993E+006    3.44993E+006    3.17624E+005   -3.18937E+004    3.48182E+006   -1.24522E+006    3.27912E+006    3.44993E+006   -3.04905E+003    2.88780E+005    2.94745E+001   -2.45687E+001   -9.61754E+004
            8064    3.31404E+006    3.47805E+006    3.47805E+006    3.87021E+005   -2.11923E+004    3.49924E+006   -1.28129E+006    3.25676E+006    3.47805E+006   -6.17140E+003    3.72000E+005    6.85795E+000   -3.41329E+001   -7.68513E+004
            8065    3.33456E+006    3.40597E+006    3.40597E+006    2.18891E+005   -5.87178E+004    3.46469E+006   -1.18871E+006    3.30841E+006    3.40597E+006    7.32965E+004    8.68765E+004   -7.68587E+001   -2.91051E+001   -1.38638E+005
            8066    3.33473E+006    3.41686E+006    3.41686E+006    2.68548E+005   -7.73123E+004    3.49418E+006   -1.20270E+006    3.29401E+006    3.41686E+006    4.44227E+004    1.46813E+005   -7.36850E+001   -4.15177E+001   -1.65178E+005
            8067    3.33266E+006    3.43095E+006    3.43095E+006    3.11878E+005   -8.05527E+004    3.51150E+006   -1.22076E+006    3.28007E+006    3.43095E+006    1.37082E+004    2.17617E+005   -1.54640E+001   -2.39574E+001   -1.67648E+005
            8068    3.32711E+006    3.45105E+006    3.45105E+006    3.56662E+005   -6.80105E+004    3.51906E+006   -1.24657E+006    3.26530E+006    3.45105E+006   -4.36503E+003    2.93016E+005   -1.44840E+001   -3.66143E+001   -1.51584E+005
            8069    3.32040E+006    3.47430E+006    3.47430E+006    4.05829E+005   -5.07610E+004    3.52506E+006   -1.27646E+006    3.24864E+006    3.47430E+006   -1.54390E+004    3.70507E+005    5.02845E+000   -4.12127E+001   -1.21984E+005
            8070    3.33924E+006    3.42098E+006    3.42098E+006    3.11307E+005   -1.08190E+005    3.52917E+006   -1.20803E+006    3.27917E+006    3.42098E+006    1.31206E+005    7.19105E+004    9.94242E+001    6.24077E+001   -2.07643E+005
            8071    3.34256E+006    3.42433E+006    3.42433E+006    3.40209E+005   -1.27429E+005    3.55175E+006   -1.21237E+006    3.26775E+006    3.42433E+006    6.94177E+004    1.43363E+005    1.39939E+002    5.23795E+001   -2.30877E+005
            8072    3.34026E+006    3.43571E+006    3.43571E+006    3.68396E+005   -1.23051E+005    3.55876E+006   -1.22702E+006    3.25743E+006    3.43571E+006    2.62993E+004    2.19046E+005    1.39147E+002   -5.62442E+001   -2.26036E+005
            8073    3.33598E+006    3.45123E+006    3.45123E+006    4.00395E+005   -1.10862E+005    3.56210E+006   -1.24692E+006    3.24608E+006    3.45123E+006   -8.31403E+003    2.97847E+005    1.18220E+002   -1.00448E+002   -2.04725E+005
            8074    3.32838E+006    3.47197E+006    3.47197E+006    4.34214E+005   -8.58099E+004    3.55778E+006   -1.27346E+006    3.23508E+006    3.47197E+006   -2.66444E+004    3.75049E+005    5.33028E+001   -1.58594E+002   -1.65127E+005
            8075    3.34137E+006    3.46562E+006    3.46562E+006    4.66493E+005   -1.36016E+005    3.60164E+006   -1.26537E+006    3.21573E+006    3.46562E+006   -3.63850E+004    3.66862E+005   -3.63416E+000    7.99272E+001   -2.23835E+005
            8076    3.34855E+006    3.44899E+006    3.44899E+006    4.43488E+005   -1.60412E+005    3.60940E+006   -1.24402E+006    3.22260E+006    3.44899E+006   -4.98099E+002    2.83574E+005   -9.01386E+001    4.47520E+001   -2.66458E+005
            8077    3.35271E+006    3.43715E+006    3.43715E+006    4.24162E+005   -1.74609E+005    3.61176E+006   -1.22890E+006    3.22912E+006    3.43715E+006    4.76273E+004    2.01926E+005   -1.30736E+002   -2.45746E+001   -2.89274E+005
            8078    3.35225E+006    3.43057E+006    3.43057E+006    4.02503E+005   -1.71694E+005    3.60226E+006   -1.22046E+006    3.23883E+006    3.43057E+006    1.02405E+005    1.28404E+005   -1.61571E+002   -6.24657E+001   -2.86804E+005
            8079    3.35117E+006    3.42708E+006    3.42708E+006    3.87438E+005   -1.66566E+005    3.59365E+006   -1.21599E+006    3.24574E+006    3.42708E+006    1.63253E+005    5.76195E+004   -8.33689E+001   -7.98540E+001   -2.71920E+005
            8080    3.34548E+006    3.43983E+006    3.43983E+006    4.04265E+005   -1.47057E+005    3.58689E+006   -1.23235E+006    3.24090E+006    3.43983E+006    2.41773E+005    1.54343E+004   -3.53090E+001   -1.01932E+002   -2.51360E+005
            8081    3.33863E+006    3.46017E+006    3.46017E+006    4.40056E+005   -1.24897E+005    3.58506E+006   -1.25844E+006    3.22845E+006    3.46017E+006    3.32880E+005   -1.77202E+004    7.81778E+000   -8.60531E+001   -2.21501E+005
            8082    3.32296E+006    3.46263E+006    3.46263E+006    3.77966E+005   -5.59896E+004    3.51862E+006   -1.26154E+006    3.25830E+006    3.46263E+006    3.33245E+005   -1.12683E+004   -8.45928E+001    1.16734E+002   -1.31936E+005
            8083    3.31526E+006    3.46315E+006    3.46315E+006    3.35609E+005   -1.23780E+004    3.47553E+006   -1.26213E+006    3.27379E+006    3.46315E+006    3.29103E+005   -5.87266E+003   -1.27199E+001   -1.60803E+001   -4.71322E+004
            8084    3.32976E+006    3.43808E+006    3.43808E+006    3.24089E+005   -7.20200E+004    3.51010E+006   -1.23005E+006    3.27613E+006    3.43808E+006    2.47649E+005    4.41965E+003   -3.91202E+001    1.19369E+002   -1.56318E+005
            8085    3.32272E+006    3.43070E+006    3.43070E+006    2.42224E+005   -1.16845E+004    3.44239E+006   -1.22041E+006    3.30078E+006    3.43070E+006    2.30830E+005   -2.90507E+002    1.51125E+000    3.82331E-002   -5.25663E+004
            8086    3.33075E+006    3.40262E+006    3.40262E+006    1.61177E+005   -1.07616E+004    3.41339E+006   -1.18435E+006    3.32074E+006    3.40262E+006    1.46020E+005    4.39490E+003    1.10995E+001    3.34515E+001   -4.87470E+004
            8087    3.33893E+006    3.37807E+006    3.37807E+006    8.56893E+004   -5.55207E+003    3.38362E+006   -1.15273E+006    3.33613E+006    3.37807E+006    6.95259E+004    1.06113E+004    1.52790E+001    1.67466E+001   -3.48355E+004
            8088    3.34563E+006    3.36053E+006    3.36053E+006    3.07475E+004   -7.30062E+002    3.36126E+006   -1.13018E+006    3.34530E+006    3.36053E+006    2.04101E+004    9.60739E+003   -9.34654E-001    1.18834E+000   -1.47829E+004
            8089    3.34930E+006    3.35175E+006    3.35175E+006    4.90234E+003    1.73782E+001    3.35174E+006   -1.11889E+006    3.34929E+006    3.35175E+006    2.60222E+003    2.31750E+003    1.69225E+000    5.55359E+000   -2.43833E+003
            8090    3.33284E+006    3.41643E+006    3.41643E+006    2.54299E+005   -6.42396E+004    3.48067E+006   -1.20216E+006    3.29833E+006    3.41643E+006    1.64084E+005    2.59756E+004   -2.24063E+000    3.50307E+001   -1.43521E+005
            8091    3.33518E+006    3.39439E+006    3.39439E+006    1.61504E+005   -3.44448E+004    3.42884E+006   -1.17382E+006    3.32219E+006    3.39439E+006    8.56844E+004    4.13749E+004    2.51855E+001    2.53414E+001   -9.54367E+004
            8092    3.33949E+006    3.37704E+006    3.37704E+006    8.70344E+004   -9.83479E+003    3.38687E+006   -1.15141E+006    3.33633E+006    3.37704E+006    3.70084E+004    4.01912E+004    2.72287E+001    2.21401E+001   -4.84084E+004
            8093    3.34653E+006    3.35835E+006    3.35835E+006    2.47983E+004   -1.01150E+003    3.35936E+006   -1.12738E+006    3.34631E+006    3.35835E+006    7.87284E+003    1.59139E+004   -6.71707E+000    9.51899E-001   -1.22626E+004
            8094    3.33547E+006    3.38820E+006    3.38820E+006    1.17301E+005   -8.28628E+003    3.39649E+006   -1.16574E+006    3.33014E+006    3.38820E+006    9.45327E+003    9.95615E+004   -8.25407E+000   -2.63204E+001   -4.37398E+004
            8095    3.32734E+006    3.41518E+006    3.41518E+006    2.00521E+005   -1.44219E+004    3.42960E+006   -1.20043E+006    3.31166E+006    3.41518E+006   -1.66408E+001    1.86116E+005    1.02095E+001   -8.22336E+000   -5.37475E+004
            8096    3.31862E+006    3.44851E+006    3.44851E+006    2.94821E+005   -1.35186E+004    3.46203E+006   -1.24327E+006    3.28616E+006    3.44851E+006   -5.36677E+003    2.86669E+005    2.91497E+001    9.53967E+000   -4.94680E+004
            8097    3.31092E+006    3.48262E+006    3.48262E+006    3.86633E+005   -7.88645E+003    3.49050E+006   -1.28712E+006    3.25741E+006    3.48262E+006   -3.78804E+003    3.82534E+005    2.13726E+001    4.63573E+001   -4.00013E+004
            8098    3.33437E+006    3.41082E+006    3.41082E+006    2.41489E+005   -6.71267E+004    3.47794E+006   -1.19506E+006    3.30200E+006    3.41082E+006    4.13477E+004    1.33015E+005   -1.37095E+002    4.67507E+000   -1.47344E+005
            8099    3.33165E+006    3.42914E+006    3.42914E+006    3.00415E+005   -7.38244E+004    3.50297E+006   -1.21858E+006    3.28386E+006    3.42914E+006    8.17870E+003    2.18412E+005   -1.86363E+002    1.28891E+001   -1.54804E+005
            8100    3.32542E+006    3.45208E+006    3.45208E+006    3.52977E+005   -6.09150E+004    3.51300E+006   -1.24805E+006    3.26672E+006    3.45208E+006   -5.93288E+003    2.97995E+005   -1.97652E+002    1.29576E+002   -1.40476E+005
            8101    3.31911E+006    3.47690E+006    3.47690E+006    4.08626E+005   -4.61511E+004    3.52305E+006   -1.27979E+006    3.24790E+006    3.47690E+006   -1.53068E+004    3.77781E+005   -9.95115E+001    1.05885E+002   -1.14350E+005
            8102    3.33583E+006    3.46980E+006    3.46980E+006    4.58709E+005   -1.16076E+005    3.58588E+006   -1.27081E+006    3.22158E+006    3.46980E+006   -3.37204E+004    3.76353E+005    4.38779E+001    7.73557E+000   -2.01381E+005
            8103    3.34238E+006    3.45240E+006    3.45240E+006    4.30844E+005   -1.37831E+005    3.59023E+006   -1.24847E+006    3.23083E+006    3.45240E+006   -4.00715E+003    2.97020E+005    1.49516E+002    2.94819E+001   -2.41233E+005
            8104    3.34465E+006    3.43748E+006    3.43748E+006    3.94431E+005   -1.43545E+005    3.58103E+006   -1.22946E+006    3.24516E+006    3.43748E+006    3.86830E+004    2.12202E+005    1.96883E+002    4.63132E+001   -2.54612E+005
            8105    3.34805E+006    3.42175E+006    3.42175E+006    3.56787E+005   -1.51309E+005    3.57306E+006   -1.20908E+006    3.25962E+006    3.42175E+006    7.89627E+004    1.26515E+005    1.69817E+002    2.11785E+000   -2.52933E+005
            8106    3.34798E+006    3.42242E+006    3.42242E+006    3.58521E+005   -1.51186E+005    3.57361E+006   -1.20992E+006    3.25897E+006    3.42242E+006    1.43509E+005    6.38255E+004    2.47488E+001    1.30276E+002   -2.51720E+005
            8107    3.34377E+006    3.44012E+006    3.44012E+006    3.98691E+005   -1.40459E+005    3.58058E+006   -1.23279E+006    3.24381E+006    3.44012E+006    2.35132E+005    2.31000E+004    5.73952E+001    9.86836E+001   -2.47853E+005
            8108    3.33991E+006    3.45776E+006    3.45776E+006    4.36973E+005   -1.28966E+005    3.58672E+006   -1.25525E+006    3.22938E+006    3.45776E+006    3.23711E+005   -1.57037E+004    2.11483E+001    4.99157E+001   -2.26431E+005
            8109    3.33218E+006    3.47757E+006    3.47757E+006    4.67748E+005   -1.03184E+005    3.58076E+006   -1.28071E+006    3.21936E+006    3.47757E+006    4.04447E+005   -3.98834E+004    1.13733E+001   -3.90022E+001   -1.79258E+005
            8110    3.31750E+006    3.48289E+006    3.48289E+006    4.21438E+005   -4.19271E+004    3.52482E+006   -1.28747E+006    3.24350E+006    3.48289E+006    3.95680E+005   -1.61691E+004    7.76481E+001   -1.59305E+001   -1.06169E+005
            8111    3.30974E+006    3.48895E+006    3.48895E+006    4.04073E+005   -7.20311E+003    3.49616E+006   -1.29527E+006    3.25150E+006    3.48895E+006    4.00615E+005   -3.74460E+003    3.13394E+001   -4.31898E+000   -3.75558E+004
            8112    3.32395E+006    3.45685E+006    3.45685E+006    3.62321E+005   -5.67691E+004    3.51362E+006   -1.25413E+006    3.26372E+006    3.45685E+006    3.13260E+005   -7.70886E+003    1.20014E+002   -1.05024E+002   -1.34736E+005
            8113    3.31703E+006    3.45471E+006    3.45471E+006    3.11068E+005   -1.20483E+004    3.46676E+006   -1.25124E+006    3.28134E+006    3.45471E+006    3.03987E+005   -4.96723E+003    4.73849E+000    3.68895E+000   -4.73061E+004
            8114    3.33083E+006    3.43199E+006    3.43199E+006    3.06198E+005   -7.16520E+004    3.50364E+006   -1.22218E+006    3.28209E+006    3.43199E+006    2.30359E+005    4.18695E+003    1.53819E+001   -1.13607E+002   -1.51341E+005
            8115    3.32600E+006    3.41977E+006    3.41977E+006    2.13460E+005   -1.42286E+004    3.43400E+006   -1.20633E+006    3.30840E+006    3.41977E+006    2.00389E+005   -1.15761E+003   -7.80874E-001   -9.38532E+000   -5.29647E+004
            8116    3.33425E+006    3.41168E+006    3.41168E+006    2.44156E+005   -6.74201E+004    3.47910E+006   -1.19614E+006    3.30126E+006    3.41168E+006    1.41148E+005    3.55875E+004    1.45516E+001   -1.16374E+002   -1.46575E+005
            8117    3.33445E+006    3.39111E+006    3.39111E+006    1.25353E+005   -8.02922E+003    3.39914E+006   -1.16948E+006    3.32844E+006    3.39111E+006    1.08602E+005    8.72115E+003   -1.35823E+001   -1.23042E+001   -4.41998E+004
            8118    3.34236E+006    3.36901E+006    3.36901E+006    5.92716E+004   -5.04844E+003    3.37405E+006   -1.14108E+006    3.34096E+006    3.36901E+006    4.45604E+004    9.66274E+003   -3.90660E+000   -2.89611E+001   -2.70149E+004
            8119    3.34743E+006    3.35625E+006    3.35625E+006    1.77375E+004   -1.58852E+001    3.35627E+006   -1.12466E+006    3.34732E+006    3.35625E+006    9.28897E+003    8.43263E+003   -1.42605E+000   -9.65455E+000   -8.86635E+003
            8120    3.33522E+006    3.39418E+006    3.39418E+006    1.61225E+005   -3.46842E+004    3.42886E+006   -1.17357E+006    3.32224E+006    3.39418E+006    6.52447E+004    6.12964E+004   -3.08201E+001   -3.75381E+001   -9.79349E+004
            8121    3.34283E+006    3.36778E+006    3.36778E+006    5.61931E+004   -5.43402E+003    3.37321E+006   -1.13951E+006    3.34155E+006    3.36778E+006    1.01175E+004    4.06417E+004   -2.92725E+001   -1.81798E+001   -2.67684E+004
            8122    3.33123E+006    3.48718E+006    3.48718E+006    4.92532E+005   -1.00887E+005    3.58806E+006   -1.29294E+006    3.20907E+006    3.48718E+006   -5.24453E+004    4.44091E+005    1.00309E+002    1.16663E+002   -1.62479E+005
            8123    3.32092E+006    3.49354E+006    3.49354E+006    4.71364E+005   -6.16591E+004    3.55520E+006   -1.30108E+006    3.22257E+006    3.49354E+006   -3.38937E+004    4.43599E+005   -3.77366E+001   -1.44744E+002   -1.18443E+005
            8124    3.31406E+006    3.49802E+006    3.49802E+006    4.57148E+005   -3.43341E+004    3.53235E+006   -1.30694E+006    3.23054E+006    3.49802E+006   -1.83249E+004    4.41139E+005    2.56602E+001   -3.79659E+001   -8.72464E+004
            8125    3.30908E+006    3.50418E+006    3.50418E+006    4.54623E+005   -1.43821E+004    3.51856E+006   -1.31481E+006    3.23304E+006    3.50418E+006   -7.97334E+003    4.48214E+005   -2.19948E+000   -3.58371E+001   -5.44489E+004
            8126    3.30548E+006    3.51269E+006    3.51269E+006    4.67151E+005   -2.49159E+003    3.51519E+006   -1.32578E+006    3.22914E+006    3.51269E+006   -1.72884E+003    4.66389E+005   -3.71933E+000   -5.95144E+001   -1.89114E+004
            8127    3.32280E+006    3.50616E+006    3.50616E+006    5.17602E+005   -7.19686E+004    3.57812E+006   -1.31726E+006    3.20194E+006    3.50616E+006   -5.62194E+004    5.01853E+005    1.55621E+002    6.69011E+001   -9.50645E+004
            8128    3.31547E+006    3.51141E+006    3.51141E+006    5.04933E+005   -4.44206E+004    3.55583E+006   -1.32397E+006    3.21067E+006    3.51141E+006   -3.53752E+004    4.95887E+005   -1.15059E+002   -1.10141E+002   -6.99091E+004
            8129    3.31016E+006    3.51669E+006    3.51669E+006    5.01374E+005   -2.52047E+004    3.54189E+006   -1.33095E+006    3.21390E+006    3.51669E+006   -2.00480E+004    4.96218E+005    4.79500E+001   -2.81083E+001   -5.18541E+004
            8130    3.30605E+006    3.52455E+006    3.52455E+006    5.08165E+005   -9.98376E+003    3.53453E+006   -1.34091E+006    3.21279E+006    3.52455E+006   -7.92443E+003    5.06106E+005   -4.91925E+000   -2.63793E+001   -3.26006E+004
            8131    3.30327E+006    3.53422E+006    3.53422E+006    5.28154E+005   -2.11605E+003    3.53633E+006   -1.35342E+006    3.20541E+006    3.53422E+006   -1.87415E+003    5.27912E+005   -7.52233E+000   -4.55628E+001   -1.13233E+004
            8132    3.31831E+006    3.51680E+006    3.51680E+006    5.32258E+005   -5.64699E+004    3.57327E+006   -1.33086E+006    3.19763E+006    3.51680E+006   -5.49513E+004    5.30739E+005    1.93889E+002    3.31313E+001   -2.98610E+004
            8133    3.31283E+006    3.52136E+006    3.52136E+006    5.25104E+005   -3.63050E+004    3.55767E+006   -1.33672E+006    3.20318E+006    3.52136E+006   -3.53661E+004    5.24165E+005   -1.53711E+002   -2.76769E+001   -2.29396E+004
            8134    3.30802E+006    3.52725E+006    3.52725E+006    5.26164E+005   -1.97746E+004    3.54702E+006   -1.34455E+006    3.20430E+006    3.52725E+006   -1.92457E+004    5.25635E+005    5.92690E+001   -6.50704E+000   -1.69845E+004
            8135    3.30482E+006    3.53550E+006    3.53550E+006    5.37636E+005   -8.28583E+003    3.54379E+006   -1.35495E+006    3.20101E+006    3.53550E+006   -8.07319E+003    5.37423E+005    4.38127E-001   -8.13783E+000   -1.07719E+004
            8136    3.30235E+006    3.54589E+006    3.54589E+006    5.60866E+005   -1.55780E+003    3.54745E+006   -1.36840E+006    3.19193E+006    3.54589E+006   -1.53172E+003    5.60840E+005   -9.21138E+000   -1.64474E+001   -3.82966E+003
            8137    3.33138E+006    3.48053E+006    3.48053E+006    4.73722E+005   -1.00723E+005    3.58125E+006   -1.28451E+006    3.21711E+006    3.48053E+006    4.14217E+005   -4.12189E+004   -8.34409E+000   -3.29457E+000    1.75046E+005
            8138    3.31626E+006    3.48814E+006    3.48814E+006    4.34159E+005   -3.94702E+004    3.52761E+006   -1.29428E+006    3.23886E+006    3.48814E+006    4.12073E+005   -1.73841E+004   -1.24629E+002   -3.47420E+001    9.98640E+004
            8139    3.30856E+006    3.49698E+006    3.49698E+006    4.27253E+005   -7.43596E+003    3.50442E+006   -1.30560E+006    3.24339E+006    3.49698E+006    4.24372E+005   -4.55557E+003   -3.61177E+001    1.84062E+000    3.52672E+004
            8140    3.32354E+006    3.50029E+006    3.50029E+006    5.02640E+005   -7.37533E+004    3.57404E+006   -1.30972E+006    3.20819E+006    3.50029E+006    4.78626E+005   -4.97394E+004    1.66949E+001   -7.07469E+001    1.15173E+005
            8141    3.31114E+006    3.51065E+006    3.51065E+006    4.85841E+005   -2.69757E+004    3.53763E+006   -1.32317E+006    3.21997E+006    3.51065E+006    4.77517E+005   -1.86516E+004   -1.02385E+002    6.38073E+001    6.48028E+004
            8142    3.30517E+006    3.52300E+006    3.52300E+006    5.00079E+005   -6.04431E+003    3.52904E+006   -1.33901E+006    3.21625E+006    3.52300E+006    4.99009E+005   -4.97344E+003   -4.18793E+001   -3.46882E+001    2.32561E+004
            8143    3.31773E+006    3.51519E+006    3.51519E+006    5.25338E+005   -5.40804E+004    3.56927E+006   -1.32882E+006    3.20091E+006    3.51519E+006    5.20206E+005   -4.89478E+004   -5.08554E+000   -1.13230E+002    5.42920E+004
            8144    3.30864E+006    3.52494E+006    3.52494E+006    5.20989E+005   -2.13705E+004    3.54631E+006   -1.34152E+006    3.20634E+006    3.52494E+006    5.19262E+005   -1.96439E+004   -7.24151E+001    1.24525E+002    3.05524E+004
            8145    3.30335E+006    3.54003E+006    3.54003E+006    5.46684E+005   -4.09106E+003    3.54412E+006   -1.36087E+006    3.19759E+006    3.54003E+006    5.46472E+005   -3.87896E+003   -2.69526E+001   -6.51397E+001    1.08061E+004
            8146    3.31608E+006    3.51973E+006    3.51973E+006    5.32206E+005   -4.82480E+004    3.56798E+006   -1.33456E+006    3.19877E+006    3.51973E+006    5.32190E+005   -4.82323E+004    7.12466E+000   -1.21183E+002   -3.02225E+003
            8147    3.30772E+006    3.52971E+006    3.52971E+006    5.32315E+005   -1.90433E+004    3.54875E+006   -1.34766E+006    3.20188E+006    3.52971E+006    5.32294E+005   -1.90218E+004    1.83257E+000    1.42603E+002   -3.45038E+003
            8148    3.30315E+006    3.54462E+006    3.54462E+006    5.59991E+005   -4.33437E+003    3.54895E+006   -1.36676E+006    3.19198E+006    3.54462E+006    5.59987E+005   -4.33052E+003   -5.98296E+000   -7.91804E+001   -1.47448E+003
            8149    3.31802E+006    3.51408E+006    3.51408E+006    5.23036E+005   -5.49706E+004    3.56905E+006   -1.32738E+006    3.20181E+006    3.51408E+006    5.16811E+005   -4.87457E+004   -5.92352E+000   -1.25619E+002   -5.96598E+004
            8150    3.30905E+006    3.52264E+006    3.52264E+006    5.15182E+005   -2.22104E+004    3.54485E+006   -1.33854E+006    3.20866E+006    3.52264E+006    5.12489E+005   -1.95165E+004    3.37064E+001    1.29683E+002   -3.79530E+004
            8151    3.30354E+006    3.53697E+006    3.53697E+006    5.37841E+005   -3.99674E+003    3.54096E+006   -1.35694E+006    3.20127E+006    3.53697E+006    5.37505E+005   -3.66061E+003    2.43995E+001   -6.55502E+001   -1.34912E+004
            8152    3.32418E+006    3.49839E+006    3.49839E+006    4.98956E+005   -7.56265E+004    3.57401E+006   -1.30724E+006    3.20959E+006    3.49839E+006    4.72412E+005   -4.90820E+004    4.55985E+000   -8.75122E+001   -1.20613E+005
            8153    3.31196E+006    3.50628E+006    3.50628E+006    4.75295E+005   -2.88358E+004    3.53512E+006   -1.31758E+006    3.22394E+006    3.50628E+006    4.64873E+005   -1.84136E+004    1.09669E+002    7.27924E+001   -7.17325E+004
            8154    3.30598E+006    3.51675E+006    3.51675E+006    4.82929E+005   -6.76483E+003    3.52351E+006   -1.33097E+006    3.22287E+006    3.51675E+006    4.81518E+005   -5.35340E+003    2.72180E+001   -4.42822E+001   -2.62522E+004
            8155    3.30557E+006    3.51242E+006    3.51242E+006    4.66611E+005   -2.74829E+003    3.51516E+006   -1.32543E+006    3.22933E+006    3.51242E+006   -1.98199E+003    4.65844E+005   -2.98714E+000    6.15003E+001    1.89495E+004
            8156    3.30907E+006    3.50415E+006    3.50415E+006    4.54608E+005   -1.43929E+004    3.51855E+006   -1.31479E+006    3.23302E+006    3.50415E+006   -7.93789E+003    4.48153E+005    2.90943E+000    3.68525E+001    5.46418E+004
            8157    3.31415E+006    3.49802E+006    3.49802E+006    4.57519E+005   -3.47239E+004    3.53274E+006   -1.30694E+006    3.23037E+006    3.49802E+006   -1.86487E+004    4.41443E+005    1.48100E+001    4.19024E+001    8.74900E+004
            8158    3.32103E+006    3.49355E+006    3.49355E+006    4.72035E+005   -6.22239E+004    3.55577E+006   -1.30112E+006    3.22221E+006    3.49355E+006   -3.43396E+004    4.44151E+005   -1.35573E+001    1.44521E+002    1.18827E+005
            8159    3.33119E+006    3.48728E+006    3.48728E+006    4.92810E+005   -1.00811E+005    3.58809E+006   -1.29309E+006    3.20893E+006    3.48728E+006   -5.25154E+004    4.44514E+005    7.50638E+001   -1.11595E+002    1.62287E+005
            8160    3.30322E+006    3.53428E+006    3.53428E+006    5.28139E+005   -1.90827E+003    3.53619E+006   -1.35350E+006    3.20544E+006    3.53428E+006   -1.67103E+003    5.27902E+005   -6.48955E+000    4.99942E+001    1.12111E+004
            8161    3.30603E+006    3.52459E+006    3.52459E+006    5.08278E+005   -9.95137E+003    3.53454E+006   -1.34097E+006    3.21274E+006    3.52459E+006   -7.92745E+003    5.06254E+005   -2.17988E+000    2.92010E+001    3.23227E+004
            8162    3.31011E+006    3.51669E+006    3.51669E+006    5.01214E+005   -2.49992E+004    3.54169E+006   -1.33097E+006    3.21398E+006    3.51669E+006   -1.98615E+004    4.96076E+005    4.66905E+001    3.10595E+001    5.17408E+004
            8163    3.31555E+006    3.51139E+006    3.51139E+006    5.05205E+005   -4.47574E+004    3.55614E+006   -1.32394E+006    3.21052E+006    3.51139E+006   -3.57438E+004    4.96191E+005   -1.12747E+002    1.17984E+002    6.98276E+004
            8164    3.32296E+006    3.50607E+006    3.50607E+006    5.17907E+005   -7.25333E+004    3.57860E+006   -1.31715E+006    3.20174E+006    3.50607E+006   -5.67036E+004    5.02077E+005    1.60911E+002   -7.54839E+001    9.53727E+004
            8165    3.30238E+006    3.54585E+006    3.54585E+006    5.60904E+005   -1.68715E+003    3.54754E+006   -1.36836E+006    3.19189E+006    3.54585E+006   -1.66143E+003    5.60878E+005   -9.04679E+000    2.14686E+001    3.80363E+003
            8166    3.30476E+006    3.53558E+006    3.53558E+006    5.37630E+005   -8.05977E+003    3.54364E+006   -1.35505E+006    3.20104E+006    3.53558E+006   -7.84605E+003    5.37416E+005    5.89470E-001    1.30717E+001    1.07970E+004
            8167    3.30800E+006    3.52727E+006    3.52727E+006    5.26243E+005   -1.97651E+004    3.54704E+006   -1.34458E+006    3.20426E+006    3.52727E+006   -1.92382E+004    5.25716E+005    6.39231E+001    1.26309E+001    1.69531E+004
            8168    3.31273E+006    3.52141E+006    3.52141E+006    5.24889E+005   -3.59334E+004    3.55735E+006   -1.33679E+006    3.20331E+006    3.52141E+006   -3.50073E+004    5.23963E+005   -1.66417E+002    3.55820E+001    2.27706E+004
            8169    3.31819E+006    3.51681E+006    3.51681E+006    5.31872E+005   -5.60426E+004    3.57286E+006   -1.33088E+006    3.19785E+006    3.51681E+006   -5.45062E+004    5.30335E+005    2.08865E+002   -3.24805E+001    3.00160E+004
            8170    3.35118E+006    3.42701E+006    3.42701E+006    3.87194E+005   -1.66549E+005    3.59356E+006   -1.21588E+006    3.24585E+006    3.42701E+006    1.62888E+005    5.77573E+004   -8.78067E+001    8.26065E+001    2.71836E+005
            8171    3.35227E+006    3.43045E+006    3.43045E+006    4.02307E+005   -1.71789E+005    3.60224E+006   -1.22032E+006    3.23889E+006    3.43045E+006    1.02083E+005    1.28435E+005   -1.49023E+002    6.05033E+001    2.86746E+005
            8172    3.35268E+006    3.43717E+006    3.43717E+006    4.24181E+005   -1.74528E+005    3.61170E+006   -1.22894E+006    3.22911E+006    3.43717E+006    4.69677E+004    2.02685E+005   -1.24949E+002    2.63383E+001    2.89052E+005
            8173    3.34848E+006    3.44898E+006    3.44898E+006    4.43317E+005   -1.60220E+005    3.60920E+006   -1.24403E+006    3.22268E+006    3.44898E+006   -1.22846E+003    2.84325E+005   -9.07210E+001   -3.75450E+001    2.65855E+005
            8174    3.34119E+006    3.46579E+006    3.46579E+006    4.66421E+005   -1.35410E+005    3.60120E+006   -1.26560E+006    3.21583E+006    3.46579E+006   -3.65100E+004    3.67521E+005   -1.05750E+001   -7.66071E+001    2.23024E+005
            8175    3.32844E+006    3.47183E+006    3.47183E+006    4.34162E+005   -8.61046E+004    3.55794E+006   -1.27330E+006    3.23506E+006    3.47183E+006   -2.66328E+004    3.74690E+005    6.51373E+001    1.47915E+002    1.65542E+005
            8176    3.32056E+006    3.47412E+006    3.47412E+006    4.05984E+005   -5.14292E+004    3.52555E+006   -1.27623E+006    3.24854E+006    3.47412E+006   -1.55881E+004    3.70143E+005   -4.47549E-002    4.71559E+001    1.22921E+005
            8177    3.31416E+006    3.47786E+006    3.47786E+006    3.87096E+005   -2.17589E+004    3.49962E+006   -1.28106E+006    3.25669E+006    3.47786E+006   -6.47988E+003    3.71817E+005    1.04155E+001    3.30724E+001    7.75465E+004
            8178    3.31025E+006    3.48270E+006    3.48270E+006    3.83340E+005   -4.30842E+003    3.48701E+006   -1.28724E+006    3.25860E+006    3.48270E+006   -2.42849E+003    3.81460E+005    9.51513E+000    4.65707E+001    2.69298E+004
            8179    3.33609E+006    3.45085E+006    3.45085E+006    3.99652E+005   -1.11201E+005    3.56205E+006   -1.24643E+006    3.24634E+006    3.45085E+006   -7.78270E+003    2.96233E+005    1.17229E+002    9.29594E+001    2.05271E+005
            8180    3.32724E+006    3.45078E+006    3.45078E+006    3.56462E+005   -6.85450E+004    3.51933E+006   -1.24623E+006    3.26534E+006    3.45078E+006   -4.10084E+003    2.92017E+005   -1.88408E+001    3.88640E+001    1.52434E+005
            8181    3.32091E+006    3.44994E+006    3.44994E+006    3.17872E+005   -3.20865E+004    3.48203E+006   -1.24524E+006    3.27904E+006    3.44994E+006   -2.81941E+003    2.88605E+005    3.60884E+001    2.13745E+001    9.68797E+004
            8182    3.31730E+006    3.44967E+006    3.44967E+006    2.90608E+005   -5.94569E+003    3.45562E+006   -1.24478E+006    3.28728E+006    3.44967E+006   -2.04174E+003    2.86704E+005    1.12522E+001    2.23362E+001    3.38007E+004
            8183    3.34043E+006    3.43531E+006    3.43531E+006    3.67820E+005   -1.23608E+005    3.55892E+006   -1.22651E+006    3.25761E+006    3.43531E+006    2.74433E+004    2.16769E+005    1.32042E+002    4.81724E+001    2.26747E+005
            8184    3.33281E+006    3.43065E+006    3.43065E+006    3.11728E+005   -8.12048E+004    3.51186E+006   -1.22039E+006    3.28009E+006    3.43065E+006    1.45054E+004    2.16017E+005   -1.60658E+001    2.47610E+001    1.68663E+005
            8185    3.32731E+006    3.42543E+006    3.42543E+006    2.55216E+005   -3.93859E+004    3.46482E+006   -1.21375E+006    3.29778E+006    3.42543E+006    6.34960E+003    2.09480E+005    4.86217E+001   -3.19116E+000    1.06686E+005
            8186    3.32596E+006    3.41761E+006    3.41761E+006    2.00233E+005   -7.21732E+003    3.42483E+006   -1.20354E+006    3.31136E+006    3.41761E+006   -4.68893E+002    1.93485E+005    1.53233E+001   -4.20073E-001    3.68025E+004
            8187    3.34261E+006    3.42415E+006    3.42415E+006    3.39785E+005   -1.27537E+005    3.55168E+006   -1.21213E+006    3.26791E+006    3.42415E+006    6.99989E+004    1.42249E+005    1.28291E+002   -5.96889E+001    2.30852E+005
            8188    3.33476E+006    3.41688E+006    3.41688E+006    2.68970E+005   -7.76474E+004    3.49453E+006   -1.20273E+006    3.29386E+006    3.41688E+006    4.48324E+004    1.46490E+005   -7.51272E+001    4.17765E+001    1.65687E+005
            8189    3.33245E+006    3.40538E+006    3.40538E+006    1.97681E+005   -3.91702E+004    3.44455E+006   -1.18796E+006    3.31343E+006    3.40538E+006    1.81447E+004    1.40367E+005    1.22607E+002   -3.92006E+001    1.01440E+005
            8190    3.33469E+006    3.39049E+006    3.39049E+006    1.22650E+005   -7.25655E+003    3.39774E+006   -1.16863E+006    3.32899E+006    3.39049E+006    2.44093E+003    1.12952E+005   -2.24888E+001   -9.25433E+000    3.41427E+004
            8191    3.33930E+006    3.42094E+006    3.42094E+006    3.11401E+005   -1.08405E+005    3.52935E+006   -1.20798E+006    3.27914E+006    3.42094E+006    1.31342E+005    7.16547E+004    9.29599E+001   -6.49982E+001    2.07771E+005
            8192    3.33452E+006    3.40584E+006    3.40584E+006    2.18050E+005   -5.82335E+004    3.46407E+006   -1.18855E+006    3.30863E+006    3.40584E+006    7.26245E+004    8.71924E+004   -7.81704E+001    3.03462E+001    1.37950E+005
            8193    3.33596E+006    3.39023E+006    3.39023E+006    1.42891E+005   -2.78042E+004    3.41803E+006   -1.16844E+006    3.32612E+006    3.39023E+006    3.01541E+004    8.49325E+004    1.37361E+002   -5.77206E+001    8.08333E+004
            8194    3.34204E+006    3.37014E+006    3.37014E+006    6.35939E+004   -6.29768E+003    3.37644E+006   -1.14248E+006    3.34040E+006    3.37014E+006    5.15689E+003    5.21393E+004   -4.39420E+001    7.48793E+000    2.58722E+004
            8195    3.34638E+006    3.35873E+006    3.35873E+006    2.58468E+004   -9.70418E+002    3.35970E+006   -1.12787E+006    3.34613E+006    3.35873E+006    8.36419E+003    1.65122E+004   -7.66039E+000    2.54306E+000    1.27747E+004
            8196    3.34930E+006    3.35174E+006    3.35174E+006    4.87282E+003    1.94006E+001    3.35172E+006   -1.11888E+006    3.34929E+006    3.35174E+006    2.57325E+003    2.31897E+003    3.51655E+000   -3.93099E+000    2.42338E+003
            8197    3.33951E+006    3.37698E+006    3.37698E+006    8.66372E+004   -9.62957E+003    3.38660E+006   -1.15133E+006    3.33639E+006    3.37698E+006    3.66955E+004    4.03121E+004    3.06240E+001   -2.13465E+001    4.80994E+004
            8198    3.34557E+006    3.36068E+006    3.36068E+006    3.11736E+004   -7.10645E+002    3.36139E+006   -1.13038E+006    3.34522E+006    3.36068E+006    2.04687E+004    9.99424E+003    1.33729E+000   -1.79370E-001    1.50573E+004
            8199    3.33523E+006    3.39417E+006    3.39417E+006    1.60692E+005   -3.42471E+004    3.42842E+006   -1.17354E+006    3.32237E+006    3.39417E+006    8.51892E+004    4.12561E+004    2.41416E+001   -2.48016E+001    9.49622E+004
            8200    3.33897E+006    3.37800E+006    3.37800E+006    8.58762E+004   -5.92625E+003    3.38392E+006   -1.15265E+006    3.33613E+006    3.37800E+006    6.97674E+004    1.01826E+004    1.83774E+001   -1.60889E+001    3.49190E+004
            8201    3.33283E+006    3.41648E+006    3.41648E+006    2.54430E+005   -6.42351E+004    3.48071E+006   -1.20222E+006    3.29829E+006    3.41648E+006    1.64083E+005    2.61120E+004   -4.80660E+000   -3.48360E+001    1.43624E+005
            8202    3.33069E+006    3.40272E+006    3.40272E+006    1.61152E+005   -1.04654E+004    3.41318E+006   -1.18447E+006    3.32072E+006    3.40272E+006    1.46115E+005    4.57183E+003    1.00611E+001   -3.28532E+001    4.85235E+004
            8203    3.32262E+006    3.43106E+006    3.43106E+006    2.43139E+005   -1.15974E+004    3.44266E+006   -1.22087E+006    3.30054E+006    3.43106E+006    2.31798E+005   -2.56338E+002   -1.71196E+000    5.56990E+000    5.25391E+004
            8204    3.31515E+006    3.46382E+006    3.46382E+006    3.37537E+005   -1.24286E+004    3.47625E+006   -1.26298E+006    3.27320E+006    3.46382E+006    3.31109E+005   -6.00069E+003   -1.75307E+001    2.09871E+001    4.69919E+004
            8205    3.32967E+006    3.43834E+006    3.43834E+006    3.24542E+005   -7.17340E+004    3.51007E+006   -1.23038E+006    3.27599E+006    3.43834E+006    2.48419E+005    4.38861E+003   -4.88551E+001   -1.27830E+002    1.56112E+005
            8206    3.32285E+006    3.46298E+006    3.46298E+006    3.78582E+005   -5.56328E+004    3.51862E+006   -1.26198E+006    3.25811E+006    3.46298E+006    3.34500E+005   -1.15511E+004   -9.19430E+001   -1.20822E+002    1.31140E+005
            8207    3.33874E+006    3.46016E+006    3.46016E+006    4.40293E+005   -1.25225E+005    3.58538E+006   -1.25841E+006    3.22834E+006    3.46016E+006    3.32368E+005   -1.72998E+004   -2.03713E+000    9.16876E+001    2.22229E+005
            8208    3.34552E+006    3.43980E+006    3.43980E+006    4.04352E+005   -1.47226E+005    3.58703E+006   -1.23231E+006    3.24084E+006    3.43980E+006    2.41150E+005    1.59759E+004   -3.20802E+001    1.10817E+002    2.51761E+005
            8209    3.34777E+006    3.42177E+006    3.42177E+006    3.57079E+005   -1.50997E+005    3.57277E+006   -1.20929E+006    3.25934E+006    3.42177E+006    7.98119E+004    1.26271E+005   -2.34117E+002    1.83040E+001    2.52974E+005
            8210    3.34479E+006    3.43770E+006    3.43770E+006    3.94678E+005   -1.43566E+005    3.58127E+006   -1.22960E+006    3.24520E+006    3.43770E+006    3.86734E+004    2.12438E+005   -2.90794E+002   -7.03872E+001    2.54712E+005
            8211    3.34222E+006    3.45225E+006    3.45225E+006    4.30549E+005   -1.37637E+005    3.58989E+006   -1.24839E+006    3.23087E+006    3.45225E+006   -4.10710E+003    2.97019E+005   -2.38570E+002   -1.91351E+002    2.40915E+005
            8212    3.33584E+006    3.46985E+006    3.46985E+006    4.58386E+005   -1.15811E+005    3.58566E+006   -1.27081E+006    3.22183E+006    3.46985E+006   -3.36591E+004    3.76234E+005   -1.21429E+002   -2.97123E+002    2.01054E+005
            8213    3.31918E+006    3.47634E+006    3.47634E+006    4.08062E+005   -4.68305E+004    3.52317E+006   -1.27919E+006    3.24794E+006    3.47634E+006   -1.55684E+004    3.76800E+005    4.91319E+001   -1.48862E+001    1.15081E+005
            8214    3.31090E+006    3.48170E+006    3.48170E+006    3.84322E+005   -7.80016E+003    3.48950E+006   -1.28607E+006    3.25805E+006    3.48170E+006   -3.56248E+003    3.80084E+005   -7.26217E+001   -7.86472E+001    4.05430E+004
            8215    3.32563E+006    3.45169E+006    3.45169E+006    3.52211E+005   -6.13977E+004    3.51309E+006   -1.24750E+006    3.26702E+006    3.45169E+006   -5.90746E+003    2.96721E+005    1.30051E+002    3.73358E+001    1.40968E+005
            8216    3.31847E+006    3.44768E+006    3.44768E+006    2.92666E+005   -1.30719E+004    3.46075E+006   -1.24243E+006    3.28655E+006    3.44768E+006   -4.69323E+003    2.84287E+005   -1.46116E+002   -2.45620E+001    4.99148E+004
            8217    3.33172E+006    3.42856E+006    3.42856E+006    2.99399E+005   -7.42212E+004    3.50279E+006   -1.21791E+006    3.28410E+006    3.42856E+006    8.02682E+003    2.17151E+005    1.33015E+002   -1.98174E+000    1.54806E+005
            8218    3.32710E+006    3.41512E+006    3.41512E+006    2.00290E+005   -1.39114E+004    3.42903E+006   -1.20050E+006    3.31154E+006    3.41512E+006    6.27555E+002    1.85751E+005   -1.57177E+002    3.47381E+001    5.38783E+004
            8219    3.33455E+006    3.41072E+006    3.41072E+006    2.40819E+005   -6.71283E+004    3.47784E+006   -1.19480E+006    3.30233E+006    3.41072E+006    4.10949E+004    1.32596E+005    1.12247E+002    9.23707E+001    1.47020E+005
            8220    3.33526E+006    3.38839E+006    3.38839E+006    1.17900E+005   -8.07232E+003    3.39646E+006   -1.16607E+006    3.32990E+006    3.38839E+006    9.75526E+003    1.00072E+005   -1.08448E+002    3.12426E+001    4.39085E+004
            8221    3.34279E+006    3.36806E+006    3.36806E+006    5.66800E+004   -5.29275E+003    3.37335E+006   -1.13981E+006    3.34150E+006    3.36806E+006    1.02172E+004    4.11701E+004   -4.19142E+000    1.29983E+001    2.68446E+004
            8222    3.34743E+006    3.35624E+006    3.35624E+006    1.77016E+004   -2.55107E+001    3.35626E+006   -1.12464E+006    3.34733E+006    3.35624E+006    9.09599E+003    8.58013E+003    1.85017E+001   -1.41323E+001    8.85981E+003
            8223    3.33541E+006    3.39408E+006    3.39408E+006    1.60846E+005   -3.48840E+004    3.42897E+006   -1.17335E+006    3.32245E+006    3.39408E+006    6.49487E+004    6.10137E+004   -3.41437E+001    3.90527E+001    9.78454E+004
            8224    3.34249E+006    3.36885E+006    3.36885E+006    5.88359E+004   -5.19514E+003    3.37405E+006   -1.14083E+006    3.34111E+006    3.36885E+006    4.40465E+004    9.59421E+003   -3.49155E+000   -1.54035E+000    2.69861E+004
            8225    3.33454E+006    3.39063E+006    3.39063E+006    1.24081E+005   -7.97517E+003    3.39861E+006   -1.16891E+006    3.32865E+006    3.39063E+006    1.07278E+005    8.82775E+003   -2.26434E+001    8.67889E+001    4.40067E+004
            8226    3.32604E+006    3.41916E+006    3.41916E+006    2.11622E+005   -1.39123E+004    3.43307E+006   -1.20562E+006    3.30877E+006    3.41916E+006    1.98467E+005   -7.57235E+002   -2.16006E+001    9.87274E+001    5.28570E+004
            8227    3.31691E+006    3.45440E+006    3.45440E+006    3.10402E+005   -1.18888E+004    3.46629E+006   -1.25097E+006    3.28141E+006    3.45440E+006    3.03379E+005   -4.86494E+003    4.28627E+001    3.99836E+001    4.70572E+004
            8228    3.30955E+006    3.48946E+006    3.48946E+006    4.05086E+005   -6.73076E+003    3.49619E+006   -1.29594E+006    3.25116E+006    3.48946E+006    4.01688E+005   -3.33286E+003    7.43512E+001   -4.58614E+001    3.72527E+004
            8229    3.33442E+006    3.41165E+006    3.41165E+006    2.43947E+005   -6.76259E+004    3.47927E+006   -1.19599E+006    3.30143E+006    3.41165E+006    1.41174E+005    3.51469E+004   -6.23344E+001   -1.02172E+002    1.46489E+005
            8230    3.33087E+006    3.43166E+006    3.43166E+006    3.05866E+005   -7.20504E+004    3.50371E+006   -1.22183E+006    3.28212E+006    3.43166E+006    2.30613E+005    3.20215E+003    5.18908E+001   -8.49571E+001    1.50918E+005
            8231    3.32403E+006    3.45713E+006    3.45713E+006    3.62370E+005   -5.64656E+004    3.51360E+006   -1.25435E+006    3.26387E+006    3.45713E+006    3.13821E+005   -7.91595E+003   -2.53786E+001   -3.22230E+001    1.34079E+005
            8232    3.31740E+006    3.48292E+006    3.48292E+006    4.20925E+005   -4.13915E+004    3.52431E+006   -1.28748E+006    3.24374E+006    3.48292E+006    3.95358E+005   -1.58244E+004    1.70809E+001    5.44927E+001    1.05671E+005
            8233    3.33235E+006    3.47776E+006    3.47776E+006    4.68153E+005   -1.03400E+005    3.58116E+006   -1.28084E+006    3.21929E+006    3.47776E+006    4.04741E+005   -3.99874E+004    2.44165E+002    7.05804E+000    1.79506E+005
            8234    3.33988E+006    3.45760E+006    3.45760E+006    4.37124E+005   -1.29249E+005    3.58685E+006   -1.25516E+006    3.22917E+006    3.45760E+006    3.23295E+005   -1.54204E+004    2.23390E+002    1.27383E+002    2.26964E+005
            8235    3.34386E+006    3.44036E+006    3.44036E+006    3.98626E+005   -1.40193E+005    3.58055E+006   -1.23293E+006    3.24403E+006    3.44036E+006    2.34784E+005    2.36492E+004    1.01577E+002    2.28299E+002    2.47865E+005
            8236    3.34785E+006    3.42220E+006    3.42220E+006    3.58430E+005   -1.51276E+005    3.57347E+006   -1.20978E+006    3.25884E+006    3.42220E+006    1.43825E+005    6.33291E+004    1.85619E+001    2.44911E+002    2.51655E+005
            8237    3.30676E+006    3.51026E+006    3.51026E+006    4.65115E+005   -7.30699E+003    3.51756E+006   -1.32269E+006    3.22953E+006    3.51026E+006   -5.42926E+003    4.63237E+005    3.64371E+001   -1.18759E+002    2.97246E+004
            8238    3.31356E+006    3.50016E+006    3.50016E+006    4.60862E+005   -3.23623E+004    3.53252E+006   -1.30955E+006    3.22942E+006    3.50016E+006   -1.85786E+004    4.47079E+005   -2.18488E+001    6.42930E+000    8.12924E+004
            8239    3.32783E+006    3.48989E+006    3.48989E+006    4.88399E+005   -8.87688E+004    3.57866E+006   -1.29651E+006    3.21232E+006    3.48989E+006   -4.83234E+004    4.47953E+005   -3.50425E+001   -2.57628E+002    1.47336E+005
            8240    3.30420E+006    3.53206E+006    3.53206E+006    5.24520E+005   -4.87199E+003    3.53693E+006   -1.35057E+006    3.20670E+006    3.53206E+006   -4.30007E+003    5.23948E+005    1.32164E+002   -1.06855E+002    1.73907E+004
            8241    3.30996E+006    3.51848E+006    3.51848E+006    5.04262E+005   -2.37587E+004    3.54224E+006   -1.33299E+006    3.21316E+006    3.51848E+006   -1.92451E+004    4.99748E+005   -1.07377E+002   -1.15933E+001    4.86094E+004
            8242    3.32045E+006    3.50799E+006    3.50799E+006    5.14482E+005   -6.35075E+004    3.57150E+006   -1.31965E+006    3.20433E+006    3.50799E+006   -5.03284E+004    5.01303E+005    6.65698E+001   -2.18318E+002    8.62771E+004
            8243    3.30344E+006    3.54331E+006    3.54331E+006    5.56012E+005   -4.54521E+003    3.54786E+006   -1.36493E+006    3.19380E+006    3.54331E+006   -4.48425E+003    5.55951E+005    2.10347E+002   -5.61941E+001    5.84482E+003
            8244    3.30836E+006    3.52874E+006    3.52874E+006    5.29056E+005   -1.96780E+004    3.54842E+006   -1.34604E+006    3.20357E+006    3.52874E+006   -1.92419E+004    5.28620E+005   -1.91775E+002   -6.16290E+000    1.54635E+004
            8245    3.31645E+006    3.51829E+006    3.51829E+006    5.30378E+005   -5.00675E+004    3.56836E+006   -1.33287E+006    3.19917E+006    3.51829E+006   -4.86429E+004    5.28953E+005    1.37247E+002   -7.11785E+001    2.87206E+004
            8246    3.30854E+006    3.49631E+006    3.49631E+006    4.25580E+005   -7.41322E+003    3.50372E+006   -1.30483E+006    3.24388E+006    3.49631E+006    4.22614E+005   -4.44677E+003   -7.78459E+001    2.92948E+001   -3.57163E+004
            8247    3.31642E+006    3.48779E+006    3.48779E+006    4.33620E+005   -3.99693E+004    3.52776E+006   -1.29381E+006    3.23904E+006    3.48779E+006    4.11278E+005   -1.76275E+004    1.77820E+000   -2.98529E+001   -1.00408E+005
            8248    3.33128E+006    3.48065E+006    3.48065E+006    4.73522E+005   -1.00257E+005    3.58090E+006   -1.28464E+006    3.21728E+006    3.48065E+006    4.14227E+005   -4.09619E+004   -2.20941E+002    8.05286E+001   -1.74661E+005
            8249    3.30524E+006    3.52248E+006    3.52248E+006    4.98759E+005   -6.17247E+003    3.52865E+006   -1.33836E+006    3.21675E+006    3.52248E+006    4.97647E+005   -5.06016E+003   -1.02993E+002   -5.97394E+001   -2.36728E+004
            8250    3.31127E+006    3.51066E+006    3.51066E+006    4.85673E+005   -2.70636E+004    3.53773E+006   -1.32309E+006    3.22013E+006    3.51066E+006    4.77348E+005   -1.87390E+004    4.89501E+000    4.63849E+001   -6.47999E+004
            8251    3.32343E+006    3.50006E+006    3.50006E+006    5.02466E+005   -7.38332E+004    3.57389E+006   -1.30956E+006    3.20811E+006    3.50006E+006    4.78369E+005   -4.97368E+004   -2.40417E+002   -1.37618E+001   -1.15352E+005
            8252    3.30352E+006    3.53978E+006    3.53978E+006    5.46098E+005   -4.42202E+003    3.54420E+006   -1.36048E+006    3.19787E+006    3.53978E+006    5.45874E+005   -4.19854E+003   -7.14547E+001   -1.39641E+002   -1.10897E+004
            8253    3.30881E+006    3.52516E+006    3.52516E+006    5.20973E+005   -2.12804E+004    3.54644E+006   -1.34162E+006    3.20655E+006    3.52516E+006    5.19248E+005   -1.95554E+004   -6.90718E+000    1.19231E+002   -3.05354E+004
            8254    3.31759E+006    3.51512E+006    3.51512E+006    5.25043E+005   -5.38051E+004    3.56892E+006   -1.32878E+006    3.20101E+006    3.51512E+006    5.19798E+005   -4.85595E+004   -1.28347E+002   -9.69168E+001   -5.48533E+004
            8255    3.30336E+006    3.54455E+006    3.54455E+006    5.59970E+005   -4.77697E+003    3.54933E+006   -1.36658E+006    3.19203E+006    3.54455E+006    5.59966E+005   -4.77367E+003   -1.91869E+001   -1.61094E+002    1.36504E+003
            8256    3.30809E+006    3.53004E+006    3.53004E+006    5.32647E+005   -1.92958E+004    3.54934E+006   -1.34780E+006    3.20203E+006    3.53004E+006    5.32627E+005   -1.92755E+004   -7.58124E+000    1.13341E+002    3.34280E+003
            8257    3.31597E+006    3.51952E+006    3.51952E+006    5.32372E+005   -4.84997E+004    3.56802E+006   -1.33447E+006    3.19848E+006    3.51952E+006    5.32364E+005   -4.84915E+004   -5.87803E+001   -8.43752E+001    2.18932E+003
            8258    3.30374E+006    3.53717E+006    3.53717E+006    5.38461E+005   -4.35963E+003    3.54153E+006   -1.35709E+006    3.20109E+006    3.53717E+006    5.38126E+005   -4.02383E+003    3.29758E+001   -1.74471E+002    1.34968E+004
            8259    3.30925E+006    3.52300E+006    3.52300E+006    5.15612E+005   -2.22272E+004    3.54523E+006   -1.33879E+006    3.20870E+006    3.52300E+006    5.12931E+005   -1.95457E+004   -5.85206E+000    1.45557E+002    3.78813E+004
            8260    3.31789E+006    3.51414E+006    3.51414E+006    5.22885E+005   -5.45691E+004    3.56871E+006   -1.32749E+006    3.20189E+006    3.51414E+006    5.16896E+005   -4.85808E+004    6.48859E+001   -1.24712E+002    5.84988E+004
            8261    3.30603E+006    3.51716E+006    3.51716E+006    4.84171E+005   -6.96753E+003    3.52413E+006   -1.33145E+006    3.22242E+006    3.51716E+006    4.82768E+005   -5.56451E+003    8.35061E+001   -1.39910E+002    2.62127E+004
            8262    3.31217E+006    3.50666E+006    3.50666E+006    4.75105E+005   -2.84585E+004    3.53512E+006   -1.31777E+006    3.22436E+006    3.50666E+006    4.64783E+005   -1.81364E+004   -2.26026E+001    1.21224E+002    7.13535E+004
            8263    3.32399E+006    3.49842E+006    3.49842E+006    4.99205E+005   -7.54233E+004    3.57384E+006   -1.30740E+006    3.20938E+006    3.49842E+006    4.72923E+005   -4.91416E+004    1.55413E+002   -6.64532E+001    1.20048E+005
            8264    3.32790E+006    3.48985E+006    3.48985E+006    4.88439E+005   -8.89666E+004    3.57882E+006   -1.29644E+006    3.21229E+006    3.48985E+006   -4.85918E+004    4.48064E+005   -1.53854E+001    2.61953E+002   -1.47250E+005
            8265    3.31354E+006    3.50046E+006    3.50046E+006    4.61108E+005   -3.19915E+004    3.53245E+006   -1.30986E+006    3.22944E+006    3.50046E+006   -1.83970E+004    4.47513E+005   -5.74859E+001   -1.31866E+001   -8.07381E+004
            8266    3.30679E+006    3.51060E+006    3.51060E+006    4.66090E+005   -7.42935E+003    3.51803E+006   -1.32309E+006    3.22919E+006    3.51060E+006   -5.57826E+003    4.64239E+005    7.49458E+001    1.31829E+002   -2.95483E+004
            8267    3.32042E+006    3.50812E+006    3.50812E+006    5.14624E+005   -6.33351E+004    3.57145E+006   -1.31980E+006    3.20431E+006    3.50812E+006   -5.03180E+004    5.01607E+005    1.09586E+002    1.92993E+002   -8.57550E+004
            8268    3.31002E+006    3.51850E+006    3.51850E+006    5.04084E+005   -2.36951E+004    3.54220E+006   -1.33296E+006    3.21330E+006    3.51850E+006   -1.91710E+004    4.99560E+005   -1.63317E+002    4.17529E+000   -4.86546E+004
            8269    3.30423E+006    3.53225E+006    3.53225E+006    5.24849E+005   -4.83098E+003    3.53708E+006   -1.35076E+006    3.20663E+006    3.53225E+006   -4.26692E+003    5.24285E+005    1.79234E+002    9.55813E+001   -1.72756E+004
            8270    3.31639E+006    3.51837E+006    3.51837E+006    5.30374E+005   -4.98449E+004    3.56821E+006   -1.33296E+006    3.19919E+006    3.51837E+006   -4.84905E+004    5.29020E+005    1.47504E+002    2.63787E+001   -2.79994E+004
            8271    3.30836E+006    3.52877E+006    3.52877E+006    5.28883E+005   -1.95297E+004    3.54830E+006   -1.34604E+006    3.20370E+006    3.52877E+006   -1.90629E+004    5.28416E+005   -2.13118E+002   -1.13940E+001   -1.59928E+004
            8272    3.30349E+006    3.54331E+006    3.54331E+006    5.56011E+005   -4.61421E+003    3.54793E+006   -1.36490E+006    3.19382E+006    3.54331E+006   -4.55225E+003    5.55949E+005    2.28511E+002    2.87141E+001   -5.89260E+003
            8273    3.34190E+006    3.36976E+006    3.36976E+006    6.21001E+004   -5.36884E+003    3.37512E+006   -1.14216E+006    3.34037E+006    3.36976E+006    5.96360E+003    5.07676E+004    3.91360E+001    2.03786E+001   -2.52223E+004
            8274    3.33473E+006    3.38956E+006    3.38956E+006    1.20424E+005   -7.10470E+003    3.39667E+006   -1.16763E+006    3.32924E+006    3.38956E+006    2.61210E+003    1.10707E+005    1.31772E+001    1.29637E+001   -3.38342E+004
            8275    3.32600E+006    3.41700E+006    3.41700E+006    1.98440E+005   -6.92393E+003    3.42392E+006   -1.20284E+006    3.31169E+006    3.41700E+006   -3.15783E+002    1.91832E+005   -1.14977E+001    2.24085E+001   -3.62410E+004
            8276    3.31715E+006    3.44968E+006    3.44968E+006    2.90342E+005   -5.47334E+003    3.45515E+006   -1.24485E+006    3.28728E+006    3.44968E+006   -1.62737E+003    2.86496E+005   -5.58402E+000    1.53153E+001   -3.35098E+004
            8277    3.31020E+006    3.48267E+006    3.48267E+006    3.83451E+005   -4.34848E+003    3.48702E+006   -1.28726E+006    3.25851E+006    3.48267E+006   -2.48494E+003    3.81588E+005   -1.22953E+001   -9.15164E+000   -2.68180E+004
            8278    3.33622E+006    3.39033E+006    3.39033E+006    1.42782E+005   -2.79938E+004    3.41832E+006   -1.16837E+006    3.32636E+006    3.39033E+006    3.02577E+004    8.45303E+004   -1.18253E+002   -3.06840E+001   -8.09611E+004
            8279    3.33284E+006    3.40507E+006    3.40507E+006    1.96002E+005   -3.90821E+004    3.44415E+006   -1.18733E+006    3.31411E+006    3.40507E+006    1.72964E+004    1.39623E+005   -4.81435E+001    4.34611E+000   -1.00375E+005
            8280    3.32754E+006    3.42524E+006    3.42524E+006    2.53776E+005   -3.90383E+004    3.46428E+006   -1.21333E+006    3.29837E+006    3.42524E+006    6.20998E+003    2.08528E+005    5.76352E+001    2.42194E+000   -1.05839E+005
            8281    3.32104E+006    3.45000E+006    3.45000E+006    3.17570E+005   -3.20021E+004    3.48200E+006   -1.24519E+006    3.27927E+006    3.45000E+006   -3.24287E+003    2.88810E+005    5.15306E+001   -4.04092E+001   -9.60537E+004
            8282    3.31408E+006    3.47805E+006    3.47805E+006    3.86997E+005   -2.12252E+004    3.49928E+006   -1.28128E+006    3.25679E+006    3.47805E+006   -6.27145E+003    3.72043E+005    9.13279E+000   -8.50483E+001   -7.66865E+004
            8283    3.33460E+006    3.40590E+006    3.40590E+006    2.18757E+005   -5.88008E+004    3.46470E+006   -1.18862E+006    3.30846E+006    3.40590E+006    7.31695E+004    8.67865E+004    2.15563E+002    1.32298E+002   -1.38612E+005
            8284    3.33457E+006    3.41678E+006    3.41678E+006    2.68567E+005   -7.72016E+004    3.49398E+006   -1.20271E+006    3.29387E+006    3.41678E+006    4.45305E+004    1.46834E+005    2.00316E+002    1.03701E+002   -1.65144E+005
            8285    3.33240E+006    3.43077E+006    3.43077E+006    3.11932E+005   -8.04478E+004    3.51122E+006   -1.22075E+006    3.27982E+006    3.43077E+006    1.39412E+004    2.17543E+005    1.04266E+002    1.72579E+001   -1.67711E+005
            8286    3.32689E+006    3.45086E+006    3.45086E+006    3.56676E+005   -6.79680E+004    3.51883E+006   -1.24652E+006    3.26509E+006    3.45086E+006   -4.16938E+003    2.92877E+005    6.70836E+001   -3.26974E+001   -1.51728E+005
            8287    3.32038E+006    3.47427E+006    3.47427E+006    4.05849E+005   -5.07964E+004    3.52507E+006   -1.27644E+006    3.24861E+006    3.47427E+006   -1.53396E+004    3.70393E+005    1.00491E+001   -6.18449E+001   -1.22205E+005
            8288    3.33913E+006    3.42097E+006    3.42097E+006    3.11396E+005   -1.08081E+005    3.52905E+006   -1.20810E+006    3.27907E+006    3.42097E+006    1.31340E+005    7.19750E+004   -7.49765E+001   -1.11085E+001   -2.07628E+005
            8289    3.34254E+006    3.42425E+006    3.42425E+006    3.40126E+005   -1.27473E+005    3.55172E+006   -1.21230E+006    3.26774E+006    3.42425E+006    6.93126E+004    1.43340E+005   -8.87194E+001   -5.85434E+001   -2.30851E+005
            8290    3.34035E+006    3.43576E+006    3.43576E+006    3.68328E+005   -1.23063E+005    3.55883E+006   -1.22701E+006    3.25754E+006    3.43576E+006    2.60563E+004    2.19208E+005   -7.48008E+001   -1.98714E+001   -2.25919E+005
            8291    3.33606E+006    3.45136E+006    3.45136E+006    4.00398E+005   -1.10789E+005    3.56215E+006   -1.24699E+006    3.24619E+006    3.45136E+006   -8.48617E+003    2.98095E+005   -6.97248E+001   -3.85844E+001   -2.04523E+005
            8292    3.32834E+006    3.47201E+006    3.47201E+006    4.34227E+005   -8.56928E+004    3.55771E+006   -1.27352E+006    3.23509E+006    3.47201E+006   -2.67600E+004    3.75294E+005   -1.39119E+001    2.27504E+000   -1.64825E+005
            8293    3.34146E+006    3.46560E+006    3.46560E+006    4.66407E+005   -1.36132E+005    3.60173E+006   -1.26529E+006    3.21581E+006    3.46560E+006   -3.63550E+004    3.66630E+005    7.94701E+001   -3.52691E+002   -2.23974E+005
            8294    3.34846E+006    3.44875E+006    3.44875E+006    4.43392E+005   -1.60594E+005    3.60935E+006   -1.24385E+006    3.22247E+006    3.44875E+006   -5.43600E+002    2.83341E+005    2.10386E+002   -2.53284E+002   -2.66556E+005
            8295    3.35262E+006    3.43709E+006    3.43709E+006    4.24205E+005   -1.74573E+005    3.61167E+006   -1.22891E+006    3.22902E+006    3.43709E+006    4.77646E+004    2.01868E+005    2.41005E+002   -1.19317E+002   -2.89304E+005
            8296    3.35208E+006    3.43042E+006    3.43042E+006    4.02563E+005   -1.71690E+005    3.60211E+006   -1.22043E+006    3.23863E+006    3.43042E+006    1.02483E+005    1.28390E+005    2.28535E+002    3.40092E+001   -2.86834E+005
            8297    3.35109E+006    3.42697E+006    3.42697E+006    3.87372E+005   -1.66579E+005    3.59355E+006   -1.21592E+006    3.24568E+006    3.42697E+006    1.63161E+005    5.76317E+004    6.09280E+001    1.33135E+002   -2.71904E+005
            8298    3.34541E+006    3.43989E+006    3.43989E+006    4.04411E+005   -1.46948E+005    3.58684E+006   -1.23245E+006    3.24082E+006    3.43989E+006    2.41853E+005    1.56098E+004   -7.47773E+001    1.95043E+002   -2.51402E+005
            8299    3.33861E+006    3.46019E+006    3.46019E+006    4.40090E+005   -1.24854E+005    3.58504E+006   -1.25847E+006    3.22844E+006    3.46019E+006    3.32864E+005   -1.76285E+004   -2.19717E+002    1.68133E+002   -2.21538E+005
            8300    3.32295E+006    3.46246E+006    3.46246E+006    3.77807E+005   -5.61530E+004    3.51861E+006   -1.26137E+006    3.25828E+006    3.46246E+006    3.33195E+005   -1.15407E+004    1.11766E+001   -7.23234E+001   -1.31794E+005
            8301    3.31504E+006    3.46321E+006    3.46321E+006    3.35786E+005   -1.20271E+004    3.47523E+006   -1.26232E+006    3.27361E+006    3.46321E+006    3.29226E+005   -5.46760E+003   -3.65777E+001    9.36004E+001   -4.73122E+004
            8302    3.32980E+006    3.43799E+006    3.43799E+006    3.23925E+005   -7.21304E+004    3.51012E+006   -1.22993E+006    3.27618E+006    3.43799E+006    2.47614E+005    4.18107E+003    1.60866E+001   -7.37311E+001   -1.56205E+005
            8303    3.32257E+006    3.43073E+006    3.43073E+006    2.42364E+005   -1.14743E+004    3.44220E+006   -1.22054E+006    3.30064E+006    3.43073E+006    2.30903E+005   -1.35952E+001    2.08574E+001    1.08114E+002   -5.27050E+004
            8304    3.33082E+006    3.40270E+006    3.40270E+006    1.61187E+005   -1.07729E+004    3.41347E+006   -1.18437E+006    3.32081E+006    3.40270E+006    1.46007E+005    4.40667E+003    2.40051E+001    1.99964E+001   -4.87838E+004
            8305    3.33898E+006    3.37807E+006    3.37807E+006    8.56354E+004   -5.58969E+003    3.38365E+006   -1.15270E+006    3.33617E+006    3.37807E+006    6.94827E+004    1.05630E+004   -6.53607E+000   -1.63062E+001   -3.48227E+004
            8306    3.34563E+006    3.36054E+006    3.36054E+006    3.07504E+004   -7.12361E+002    3.36125E+006   -1.13019E+006    3.34530E+006    3.36054E+006    2.04083E+004    9.62973E+003   -7.78394E+000    8.32922E-001   -1.47794E+004
            8307    3.34931E+006    3.35175E+006    3.35175E+006    4.88439E+003   -1.74830E+000    3.35175E+006   -1.11888E+006    3.34930E+006    3.35175E+006    2.58208E+003    2.30056E+003   -9.49683E+000   -2.07220E+000   -2.43901E+003
            8308    3.33283E+006    3.41631E+006    3.41631E+006    2.54183E+005   -6.43602E+004    3.48067E+006   -1.20204E+006    3.29832E+006    3.41631E+006    1.63982E+005    2.58404E+004    7.27821E+001    4.68264E+001   -1.43515E+005
            8309    3.33535E+006    3.39454E+006    3.39454E+006    1.61501E+005   -3.44716E+004    3.42901E+006   -1.17386E+006    3.32236E+006    3.39454E+006    8.56588E+004    4.13710E+004    3.55777E+001    4.23133E+001   -9.54516E+004
            8310    3.33951E+006    3.37702E+006    3.37702E+006    8.69970E+004   -9.88295E+003    3.38690E+006   -1.15138E+006    3.33635E+006    3.37702E+006    3.69663E+004    4.01477E+004   -2.60514E+001   -2.40866E+001   -4.84138E+004
            8311    3.34650E+006    3.35836E+006    3.35836E+006    2.48085E+004   -9.37389E+002    3.35930E+006   -1.12741E+006    3.34628E+006    3.35836E+006    7.93695E+003    1.59341E+004    2.87591E+000    1.25321E+001   -1.22362E+004
            8312    3.33530E+006    3.38823E+006    3.38823E+006    1.17460E+005   -8.06296E+003    3.39629E+006   -1.16587E+006    3.32998E+006    3.38823E+006    9.77661E+003    9.96207E+004   -1.15610E+002   -3.55970E+001   -4.38296E+004
            8313    3.32701E+006    3.41532E+006    3.41532E+006    2.00861E+005   -1.38423E+004    3.42916E+006   -1.20078E+006    3.31137E+006    3.41532E+006    6.64246E+002    1.86355E+005   -1.70849E+002   -3.54695E+001   -5.38904E+004
            8314    3.31824E+006    3.44853E+006    3.44853E+006    2.95077E+005   -1.30209E+004    3.46155E+006   -1.24353E+006    3.28583E+006    3.44853E+006   -4.79290E+003    2.86849E+005   -1.49365E+002    3.73853E+001   -4.96723E+004
            8315    3.31070E+006    3.48266E+006    3.48266E+006    3.86803E+005   -7.57339E+003    3.49023E+006   -1.28729E+006    3.25723E+006    3.48266E+006   -3.42648E+003    3.82656E+005   -5.79308E+001    9.47555E+001   -4.02274E+004
            8316    3.33455E+006    3.41082E+006    3.41082E+006    2.41309E+005   -6.73125E+004    3.47813E+006   -1.19494E+006    3.30218E+006    3.41082E+006    4.10350E+004    1.32962E+005    1.21193E+002   -9.95522E+001   -1.47307E+005
            8317    3.33170E+006    3.42872E+006    3.42872E+006    2.99990E+005   -7.43297E+004    3.50305E+006   -1.21813E+006    3.28389E+006    3.42872E+006    7.54150E+003    2.18119E+005    1.51224E+002    1.21629E+001   -1.54736E+005
            8318    3.32553E+006    3.45204E+006    3.45204E+006    3.52801E+005   -6.10388E+004    3.51308E+006   -1.24794E+006    3.26684E+006    3.45204E+006   -6.22440E+003    2.97987E+005    1.44645E+002   -3.07320E+001   -1.40285E+005
            8319    3.31907E+006    3.47672E+006    3.47672E+006    4.08501E+005   -4.62888E+004    3.52301E+006   -1.27965E+006    3.24786E+006    3.47672E+006   -1.55688E+004    3.77781E+005    4.88403E+001    3.15772E+001   -1.14138E+005
            8320    3.33595E+006    3.46988E+006    3.46988E+006    4.58665E+005   -1.16120E+005    3.58600E+006   -1.27081E+006    3.22171E+006    3.46988E+006   -3.36653E+004    3.76210E+005   -1.23683E+002    3.15830E+002   -2.01482E+005
            8321    3.34224E+006    3.45236E+006    3.45236E+006    4.30956E+005   -1.37749E+005    3.59011E+006   -1.24852E+006    3.23068E+006    3.45236E+006   -3.88941E+003    2.97097E+005   -2.56811E+002    2.19968E+002   -2.41263E+005
            8322    3.34472E+006    3.43777E+006    3.43777E+006    3.94618E+005   -1.43306E+005    3.58108E+006   -1.22969E+006    3.24525E+006    3.43777E+006    3.89944E+004    2.12317E+005   -3.18819E+002    7.63242E+001   -2.54618E+005
            8323    3.34781E+006    3.42166E+006    3.42166E+006    3.56950E+005   -1.51155E+005    3.57282E+006   -1.20915E+006    3.25937E+006    3.42166E+006    7.91622E+004    1.26633E+005   -2.55162E+002   -9.04488E+000   -2.52942E+005
            8324    3.34776E+006    3.42231E+006    3.42231E+006    3.58618E+005   -1.51071E+005    3.57338E+006   -1.20995E+006    3.25875E+006    3.42231E+006    1.43600E+005    6.39478E+004    1.15002E+001   -2.42678E+002   -2.51714E+005
            8325    3.34386E+006    3.44040E+006    3.44040E+006    3.98841E+005   -1.40264E+005    3.58066E+006   -1.23299E+006    3.24393E+006    3.44040E+006    2.35244E+005    2.33330E+004    8.70546E+001   -2.12625E+002   -2.47855E+005
            8326    3.33979E+006    3.45761E+006    3.45761E+006    4.36985E+005   -1.29013E+005    3.58662E+006   -1.25519E+006    3.22923E+006    3.45761E+006    3.23694E+005   -1.57219E+004    2.12602E+002   -1.43952E+002   -2.26468E+005
            8327    3.33230E+006    3.47763E+006    3.47763E+006    4.67660E+005   -1.03240E+005    3.58087E+006   -1.28068E+006    3.21951E+006    3.47763E+006    4.04300E+005   -3.98798E+004    2.38995E+002   -2.87437E+001   -1.79326E+005
            8328    3.31747E+006    3.48282E+006    3.48282E+006    4.21402E+005   -4.19771E+004    3.52480E+006   -1.28742E+006    3.24346E+006    3.48282E+006    3.95724E+005   -1.62996E+004    2.16842E+001   -3.09304E+001   -1.06015E+005
            8329    3.30970E+006    3.48896E+006    3.48896E+006    4.04124E+005   -7.16268E+003    3.49612E+006   -1.29531E+006    3.25146E+006    3.48896E+006    4.00635E+005   -3.67307E+003    6.46520E+001    1.57832E+001   -3.77234E+004
            8330    3.32407E+006    3.45696E+006    3.45696E+006    3.62271E+005   -5.67618E+004    3.51372E+006   -1.25416E+006    3.26386E+006    3.45696E+006    3.13324E+005   -7.81449E+003   -3.02414E+001    4.48381E+001   -1.34591E+005
            8331    3.31685E+006    3.45469E+006    3.45469E+006    3.11178E+005   -1.18518E+004    3.46654E+006   -1.25134E+006    3.28118E+006    3.45469E+006    3.04045E+005   -4.71907E+003    3.13346E+001   -5.73488E+001   -4.74678E+004
            8332    3.33085E+006    3.43165E+006    3.43165E+006    3.05867E+005   -7.20326E+004    3.50368E+006   -1.22183E+006    3.28210E+006    3.43165E+006    2.30114E+005    3.72017E+003    4.64611E+001    7.15221E+001   -1.51289E+005
            8333    3.32586E+006    3.41988E+006    3.41988E+006    2.13655E+005   -1.39290E+004    3.43381E+006   -1.20654E+006    3.30828E+006    3.41988E+006    2.00523E+005   -7.97011E+002   -2.71636E+001   -9.76058E+001   -5.30676E+004
            8334    3.33440E+006    3.41171E+006    3.41171E+006    2.44066E+005   -6.75648E+004    3.47928E+006   -1.19607E+006    3.30140E+006    3.41171E+006    1.41144E+005    3.53576E+004   -6.74565E+001    9.48510E+001   -1.46563E+005
            8335    3.33439E+006    3.39112E+006    3.39112E+006    1.25404E+005   -7.93459E+003    3.39906E+006   -1.16953E+006    3.32838E+006    3.39112E+006    1.08600E+005    8.87005E+003   -1.92795E+001   -8.59052E+001   -4.42529E+004
            8336    3.34241E+006    3.36907E+006    3.36907E+006    5.92765E+004   -5.04185E+003    3.37411E+006   -1.14110E+006    3.34102E+006    3.36907E+006    4.45584E+004    9.67619E+003    8.75040E-001   -5.72574E-001   -2.70189E+004
            8337    3.34744E+006    3.35623E+006    3.35623E+006    1.76881E+004   -2.72326E+001    3.35626E+006   -1.12463E+006    3.34733E+006    3.35623E+006    9.25854E+003    8.40233E+003    2.19288E+001    1.21784E+001   -8.84732E+003
            8338    3.33539E+006    3.39414E+006    3.39414E+006    1.60998E+005   -3.48670E+004    3.42901E+006   -1.17342E+006    3.32242E+006    3.39414E+006    6.50469E+004    6.10836E+004   -3.31515E+001   -4.13034E+001   -9.79122E+004
            8339    3.34288E+006    3.36785E+006    3.36785E+006    5.62102E+004   -5.42586E+003    3.37327E+006   -1.13954E+006    3.34160E+006    3.36785E+006    1.01384E+004    4.06459E+004   -5.16877E+000   -1.97729E+001   -2.67782E+004
            8340    3.33132E+006    3.48714E+006    3.48714E+006    4.92452E+005   -1.01038E+005    3.58818E+006   -1.29285E+006    3.20913E+006    3.48714E+006   -5.24853E+004    4.43899E+005   -8.62305E+001   -3.56104E+002   -1.62660E+005
            8341    3.32081E+006    3.49347E+006    3.49347E+006    4.71354E+005   -6.15726E+004    3.55504E+006   -1.30108E+006    3.22249E+006    3.49347E+006   -3.39497E+004    4.43731E+005    7.64548E+001    4.26023E+000   -1.18144E+005
            8342    3.31429E+006    3.49818E+006    3.49818E+006    4.57187E+005   -3.44774E+004    3.53266E+006   -1.30696E+006    3.23071E+006    3.49818E+006   -1.83897E+004    4.41100E+005   -3.14157E+001   -6.28847E+001   -8.74695E+004
            8343    3.30904E+006    3.50416E+006    3.50416E+006    4.54613E+005   -1.43322E+004    3.51850E+006   -1.31481E+006    3.23301E+006    3.50416E+006   -7.95968E+003    4.48240E+005   -6.21703E+001   -9.81116E+001   -5.42934E+004
            8344    3.30546E+006    3.51263E+006    3.51263E+006    4.67140E+005   -2.55028E+003    3.51518E+006   -1.32574E+006    3.22910E+006    3.51263E+006   -1.78296E+003    4.66373E+005   -2.24563E+001   -2.95723E+001   -1.89688E+004
            8345    3.32289E+006    3.50631E+006    3.50631E+006    5.17627E+005   -7.18736E+004    3.57818E+006   -1.31735E+006    3.20206E+006    3.50631E+006   -5.60881E+004    5.01842E+005   -1.82556E+002   -2.36032E+002   -9.51648E+004
            8346    3.31534E+006    3.51118E+006    3.51118E+006    5.04810E+005   -4.45139E+004    3.55569E+006   -1.32383E+006    3.21055E+006    3.51118E+006   -3.55195E+004    4.95816E+005    1.57225E+002    1.32413E+001   -6.97132E+004
            8347    3.31061E+006    3.51705E+006    3.51705E+006    5.01468E+005   -2.53971E+004    3.54245E+006   -1.33104E+006    3.21425E+006    3.51705E+006   -2.02150E+004    4.96286E+005   -6.26956E+001   -4.32587E+001   -5.19941E+004
            8348    3.30597E+006    3.52449E+006    3.52449E+006    5.08158E+005   -9.92898E+003    3.53442E+006   -1.34091E+006    3.21272E+006    3.52449E+006   -7.88001E+003    5.06109E+005   -1.19333E+002   -7.42351E+001   -3.25168E+004
            8349    3.30327E+006    3.53414E+006    3.53414E+006    5.28114E+005   -2.20639E+003    3.53635E+006   -1.35335E+006    3.20539E+006    3.53414E+006   -1.96361E+003    5.27871E+005   -3.84161E+001   -3.59584E+001   -1.13444E+004
            8350    3.31832E+006    3.51697E+006    3.51697E+006    5.32366E+005   -5.62748E+004    3.57324E+006   -1.33102E+006    3.19767E+006    3.51697E+006   -5.47520E+004    5.30843E+005   -2.42828E+002   -8.01165E+001   -2.99009E+004
            8351    3.31269E+006    3.52106E+006    3.52106E+006    5.24954E+005   -3.64712E+004    3.55753E+006   -1.33651E+006    3.20303E+006    3.52106E+006   -3.55370E+004    5.24019E+005    1.95964E+002    1.39360E+000   -2.28834E+004
            8352    3.30861E+006    3.52772E+006    3.52772E+006    5.26258E+005   -2.00269E+004    3.54775E+006   -1.34465E+006    3.20478E+006    3.52772E+006   -1.94950E+004    5.25726E+005   -7.17233E+001   -1.56591E+001   -1.70376E+004
            8353    3.30472E+006    3.53544E+006    3.53544E+006    5.37639E+005   -8.22514E+003    3.54367E+006   -1.35495E+006    3.20093E+006    3.53544E+006   -8.01369E+003    5.37427E+005   -1.53424E+002   -2.76963E+001   -1.07413E+004
            8354    3.30236E+006    3.54580E+006    3.54580E+006    5.60804E+005   -1.67343E+003    3.54747E+006   -1.36831E+006    3.19191E+006    3.54580E+006   -1.64726E+003    5.60778E+005   -4.77515E+001   -1.36390E+001   -3.83666E+003
            8355    3.33142E+006    3.48053E+006    3.48053E+006    4.73672E+005   -1.00760E+005    3.58129E+006   -1.28448E+006    3.21716E+006    3.48053E+006    4.14106E+005   -4.11947E+004   -2.50834E+002   -5.16782E+001    1.75124E+005
            8356    3.31633E+006    3.48821E+006    3.48821E+006    4.34144E+005   -3.94552E+004    3.52767E+006   -1.29430E+006    3.23894E+006    3.48821E+006    4.12155E+005   -1.74654E+004    6.34375E+000   -1.45059E+000    9.96534E+004
            8357    3.30846E+006    3.49695E+006    3.49695E+006    4.27303E+005   -7.35908E+003    3.50431E+006   -1.30563E+006    3.24329E+006    3.49695E+006    4.24389E+005   -4.44556E+003   -9.56791E+001    2.50791E+000    3.54670E+004
            8358    3.32346E+006    3.50012E+006    3.50012E+006    5.02539E+005   -7.38309E+004    3.57395E+006   -1.30961E+006    3.20811E+006    3.50012E+006    4.78495E+005   -4.97871E+004   -2.24684E+002    4.13037E+001    1.15239E+005
            8359    3.31130E+006    3.51083E+006    3.51083E+006    4.85907E+005   -2.69969E+004    3.53782E+006   -1.32325E+006    3.22011E+006    3.51083E+006    4.77626E+005   -1.87161E+004    5.64429E+000   -7.77509E+001    6.46425E+004
            8360    3.30524E+006    3.52294E+006    3.52294E+006    5.00011E+005   -6.19835E+003    3.52914E+006   -1.33892E+006    3.21629E+006    3.52294E+006    4.98924E+005   -5.11143E+003   -1.02480E+002    9.45132E+001    2.34314E+004
            8361    3.31769E+006    3.51510E+006    3.51510E+006    5.25242E+005   -5.41016E+004    3.56920E+006   -1.32875E+006    3.20090E+006    3.51510E+006    5.20103E+005   -4.89622E+004   -1.13202E+002    1.01869E+002    5.43237E+004
            8362    3.30890E+006    3.52518E+006    3.52518E+006    5.21068E+005   -2.14481E+004    3.54663E+006   -1.34160E+006    3.20654E+006    3.52518E+006    5.19352E+005   -1.97324E+004    3.33362E+000   -1.25896E+002    3.04607E+004
            8363    3.30355E+006    3.53995E+006    3.53995E+006    5.46539E+005   -4.43937E+003    3.54439E+006   -1.36068E+006    3.19771E+006    3.53995E+006    5.46323E+005   -4.22406E+003   -6.34649E+001    1.55820E+002    1.08895E+004
            8364    3.31592E+006    3.51952E+006    3.51952E+006    5.32138E+005   -4.83004E+004    3.56782E+006   -1.33445E+006    3.19862E+006    3.51952E+006    5.32122E+005   -4.82848E+004   -1.98299E+001    1.09052E+002   -3.01435E+003
            8365    3.30805E+006    3.53003E+006    3.53003E+006    5.32413E+005   -1.91307E+004    3.54916E+006   -1.34777E+006    3.20215E+006    3.53003E+006    5.32391E+005   -1.91090E+004   -5.65739E-001   -1.34982E+002   -3.46157E+003
            8366    3.30337E+006    3.54453E+006    3.54453E+006    5.59819E+005   -4.73714E+003    3.54927E+006   -1.36654E+006    3.19212E+006    3.54453E+006    5.59815E+005   -4.73340E+003   -1.77601E+000    1.73938E+002   -1.45209E+003
            8367    3.31799E+006    3.51399E+006    3.51399E+006    5.22932E+005   -5.50004E+004    3.56899E+006   -1.32731E+006    3.20180E+006    3.51399E+006    5.16703E+005   -4.87716E+004    9.11456E+001    1.07782E+002   -5.96742E+004
            8368    3.30926E+006    3.52283E+006    3.52283E+006    5.15267E+005   -2.23033E+004    3.54514E+006   -1.33860E+006    3.20882E+006    3.52283E+006    5.12581E+005   -1.96170E+004    3.71302E+000   -1.34082E+002   -3.79059E+004
            8369    3.30374E+006    3.53689E+006    3.53689E+006    5.37700E+005   -4.34889E+003    3.54124E+006   -1.35675E+006    3.20140E+006    3.53689E+006    5.37361E+005   -4.00965E+003    4.86021E+001    1.60407E+002   -1.35561E+004
            8370    3.32406E+006    3.49818E+006    3.49818E+006    4.98868E+005   -7.57151E+004    3.57390E+006   -1.30711E+006    3.20947E+006    3.49818E+006    4.72306E+005   -4.91522E+004    1.73401E+002    4.42644E+001   -1.20652E+005
            8371    3.31220E+006    3.50660E+006    3.50660E+006    4.75393E+005   -2.87841E+004    3.53538E+006   -1.31774E+006    3.22417E+006    3.50660E+006    4.65011E+005   -1.84021E+004   -1.68255E+001   -9.54718E+001   -7.16000E+004
            8372    3.30607E+006    3.51666E+006    3.51666E+006    4.82838E+005   -6.99416E+003    3.52365E+006   -1.33083E+006    3.22291E+006    3.51666E+006    4.81414E+005   -5.56958E+003    8.56309E+001    1.11138E+002   -2.63775E+004
            8373    3.30553E+006    3.51236E+006    3.51236E+006    4.66607E+005   -2.77927E+003    3.51514E+006   -1.32540E+006    3.22928E+006    3.51236E+006   -2.00862E+003    4.65837E+005   -2.04494E+001    3.04677E+001    1.90037E+004
            8374    3.30905E+006    3.50415E+006    3.50415E+006    4.54604E+005   -1.43633E+004    3.51852E+006   -1.31480E+006    3.23302E+006    3.50415E+006   -7.94411E+003    4.48185E+005   -5.13773E+001    1.01438E+002    5.44902E+004
            8375    3.31432E+006    3.49813E+006    3.49813E+006    4.57547E+005   -3.48471E+004    3.53297E+006   -1.30694E+006    3.23049E+006    3.49813E+006   -1.86945E+004    4.41394E+005   -1.84202E+001    6.50040E+001    8.77071E+004
            8376    3.32095E+006    3.49353E+006    3.49353E+006    4.72027E+005   -6.21259E+004    3.55565E+006   -1.30114E+006    3.22218E+006    3.49353E+006   -3.43840E+004    4.44285E+005    4.88465E+001    5.31233E+000    1.18528E+005
            8377    3.33128E+006    3.48722E+006    3.48722E+006    4.92698E+005   -1.00988E+005    3.58821E+006   -1.29298E+006    3.20901E+006    3.48722E+006   -5.25779E+004    4.44288E+005   -4.59298E+001    3.52562E+002    1.62470E+005
            8378    3.30321E+006    3.53421E+006    3.53421E+006    5.28100E+005   -1.99423E+003    3.53620E+006   -1.35344E+006    3.20541E+006    3.53421E+006   -1.75594E+003    5.27862E+005   -3.74157E+001    3.84153E+001    1.12365E+004
            8379    3.30595E+006    3.52454E+006    3.52454E+006    5.08273E+005   -9.89789E+003    3.53444E+006   -1.34097E+006    3.21268E+006    3.52454E+006   -7.88593E+003    5.06261E+005   -1.15092E+002    8.14233E+001    3.22256E+004
            8380    3.31055E+006    3.51705E+006    3.51705E+006    5.01289E+005   -2.51976E+004    3.54224E+006   -1.33105E+006    3.21433E+006    3.51705E+006   -2.00319E+004    4.96124E+005   -5.40239E+001    4.88967E+001    5.18941E+004
            8381    3.31540E+006    3.51115E+006    3.51115E+006    5.05107E+005   -4.48282E+004    3.55598E+006   -1.32381E+006    3.21037E+006    3.51115E+006   -3.58693E+004    4.96148E+005    1.56923E+002   -1.41276E+001    6.96173E+004
            8382    3.32301E+006    3.50619E+006    3.50619E+006    5.17940E+005   -7.24379E+004    3.57863E+006   -1.31723E+006    3.20181E+006    3.50619E+006   -5.65663E+004    5.02068E+005   -1.92464E+002    2.62598E+002    9.54898E+004
            8383    3.30240E+006    3.54577E+006    3.54577E+006    5.60841E+005   -1.81044E+003    3.54758E+006   -1.36827E+006    3.19188E+006    3.54577E+006   -1.78463E+003    5.60815E+005   -4.62648E+001    1.73250E+001    3.81100E+003
            8384    3.30466E+006    3.53551E+006    3.53551E+006    5.37623E+005   -7.99669E+003    3.54351E+006   -1.35505E+006    3.20096E+006    3.53551E+006   -7.78421E+003    5.37411E+005   -1.54144E+002    3.17319E+001    1.07652E+004
            8385    3.30861E+006    3.52777E+006    3.52777E+006    5.26356E+005   -2.00174E+004    3.54779E+006   -1.34470E+006    3.20475E+006    3.52777E+006   -1.94875E+004    5.25826E+005   -7.04392E+001    1.95782E+001    1.70071E+004
            8386    3.31258E+006    3.52107E+006    3.52107E+006    5.24701E+005   -3.61250E+004    3.55719E+006   -1.33655E+006    3.20315E+006    3.52107E+006   -3.52046E+004    5.23781E+005    2.15838E+002    6.60322E+000    2.27010E+004
            8387    3.31819E+006    3.51699E+006    3.51699E+006    5.31970E+005   -5.58187E+004    3.57281E+006   -1.33105E+006    3.19790E+006    3.51699E+006   -5.42773E+004    5.30429E+005   -2.70407E+002    9.66086E+001    3.00597E+004
            8388    3.35109E+006    3.42688E+006    3.42688E+006    3.87128E+005   -1.66569E+005    3.59345E+006   -1.21581E+006    3.24577E+006    3.42688E+006    1.62789E+005    5.77707E+004    4.92668E+001   -1.45485E+002    2.71823E+005
            8389    3.35212E+006    3.43034E+006    3.43034E+006    4.02370E+005   -1.71780E+005    3.60212E+006   -1.22031E+006    3.23872E+006    3.43034E+006    1.02152E+005    1.28439E+005    1.97982E+002   -3.96360E+001    2.86774E+005
            8390    3.35260E+006    3.43711E+006    3.43711E+006    4.24217E+005   -1.74516E+005    3.61163E+006   -1.22894E+006    3.22901E+006    3.43711E+006    4.70800E+004    2.02622E+005    2.22741E+002    1.00978E+002    2.89088E+005
            8391    3.34839E+006    3.44875E+006    3.44875E+006    4.43221E+005   -1.60393E+005    3.60914E+006   -1.24386E+006    3.22256E+006    3.44875E+006   -1.27679E+003    2.84105E+005    2.05500E+002    2.38100E+002    2.65945E+005
            8392    3.34128E+006    3.46576E+006    3.46576E+006    4.66346E+005   -1.35548E+005    3.60131E+006   -1.26552E+006    3.21590E+006    3.46576E+006   -3.65034E+004    3.67301E+005    8.77100E+001    3.45986E+002    2.23170E+005
            8393    3.32841E+006    3.47190E+006    3.47190E+006    4.34199E+005   -8.59644E+004    3.55786E+006   -1.27338E+006    3.23506E+006    3.47190E+006   -2.67202E+004    3.74955E+005   -2.81249E+001    1.39844E+001    1.65248E+005
            8394    3.32050E+006    3.47405E+006    3.47405E+006    4.05992E+005   -5.14530E+004    3.52550E+006   -1.27620E+006    3.24847E+006    3.47405E+006   -1.54840E+004    3.70023E+005    1.90084E+001    5.66104E+001    1.23126E+005
            8395    3.31421E+006    3.47788E+006    3.47788E+006    3.87074E+005   -2.18073E+004    3.49968E+006   -1.28105E+006    3.25674E+006    3.47788E+006   -6.59052E+003    3.71857E+005    2.00180E+001    8.12386E+001    7.73970E+004
            8396    3.31018E+006    3.48268E+006    3.48268E+006    3.83369E+005   -4.24566E+003    3.48692E+006   -1.28727E+006    3.25853E+006    3.48268E+006   -2.35598E+003    3.81480E+005   -1.09089E+001    8.17662E+000    2.69981E+004
            8397    3.33614E+006    3.45095E+006    3.45095E+006    3.99652E+005   -1.11118E+005    3.56207E+006   -1.24650E+006    3.24642E+006    3.45095E+006   -7.93468E+003    2.96469E+005   -7.02831E+001    4.09513E+001    2.05076E+005
            8398    3.32702E+006    3.45058E+006    3.45058E+006    3.56470E+005   -6.85099E+004    3.51909E+006   -1.24618E+006    3.26512E+006    3.45058E+006   -3.92411E+003    2.91885E+005    7.82610E+001    2.15167E+001    1.52566E+005
            8399    3.32107E+006    3.45001E+006    3.45001E+006    3.17819E+005   -3.22027E+004    3.48222E+006   -1.24521E+006    3.27918E+006    3.45001E+006   -3.01191E+003    2.88628E+005    5.04820E+001    3.46165E+001    9.67745E+004
            8400    3.31720E+006    3.44966E+006    3.44966E+006    2.90651E+005   -5.83956E+003    3.45550E+006   -1.24482E+006    3.28719E+006    3.44966E+006   -1.91734E+003    2.86729E+005   -1.99787E+000   -1.67227E+001    3.38750E+004
            8401    3.34048E+006    3.43536E+006    3.43536E+006    3.67770E+005   -1.23598E+005    3.55895E+006   -1.22651E+006    3.25769E+006    3.43536E+006    2.72418E+004    2.16930E+005   -6.91100E+001    1.56827E+001    2.26639E+005
            8402    3.33258E+006    3.43048E+006    3.43048E+006    3.11763E+005   -8.11238E+004    3.51161E+006   -1.22037E+006    3.27987E+006    3.43048E+006    1.47028E+004    2.15936E+005    1.09106E+002   -2.93951E+001    1.68719E+005
            8403    3.32755E+006    3.42552E+006    3.42552E+006    2.55128E+005   -3.95924E+004    3.46511E+006   -1.21368E+006    3.29800E+006    3.42552E+006    6.08290E+003    2.09453E+005    5.23151E+001   -4.16430E+000    1.06655E+005
            8404    3.32583E+006    3.41761E+006    3.41761E+006    2.00288E+005   -7.02259E+003    3.42463E+006   -1.20363E+006    3.31124E+006    3.41761E+006   -2.54098E+002    1.93520E+005   -1.07852E+001   -2.24010E+001    3.68425E+004
            8405    3.34257E+006    3.42405E+006    3.42405E+006    3.39697E+005   -1.27565E+005    3.55161E+006   -1.21206E+006    3.26788E+006    3.42405E+006    6.99233E+004    1.42210E+005   -8.06424E+001    5.98075E+001    2.30818E+005
            8406    3.33464E+006    3.41682E+006    3.41682E+006    2.68973E+005   -7.75582E+004    3.49437E+006   -1.20274E+006    3.29377E+006    3.41682E+006    4.49016E+004    1.46513E+005    2.03063E+002   -1.09246E+002    1.65649E+005
            8407    3.33276E+006    3.40548E+006    3.40548E+006    1.97597E+005   -3.95039E+004    3.44498E+006   -1.18786E+006    3.31371E+006    3.40548E+006    1.78529E+004    1.40241E+005   -5.70288E+001   -2.72352E+000    1.01536E+005
            8408    3.33441E+006    3.39048E+006    3.39048E+006    1.22753E+005   -6.82215E+003    3.39730E+006   -1.16880E+006    3.32873E+006    3.39048E+006    2.85915E+003    1.13072E+005    1.46318E+001   -9.80309E+000    3.40694E+004
            8409    3.33917E+006    3.42093E+006    3.42093E+006    3.11516E+005   -1.08285E+005    3.52922E+006   -1.20805E+006    3.27901E+006    3.42093E+006    1.31507E+005    7.17238E+004   -7.63741E+001    1.20596E+001    2.07761E+005
            8410    3.33459E+006    3.40578E+006    3.40578E+006    2.17890E+005   -5.83332E+004    3.46411E+006   -1.18844E+006    3.30870E+006    3.40578E+006    7.24623E+004    8.70950E+004    2.18490E+002   -1.31373E+002    1.37918E+005
            8411    3.33621E+006    3.39037E+006    3.39037E+006    1.42899E+005   -2.80016E+004    3.41837E+006   -1.16842E+006    3.32634E+006    3.39037E+006    3.00278E+004    8.48696E+004   -1.31775E+002    3.45658E+001    8.09311E+004
            8412    3.34178E+006    3.37011E+006    3.37011E+006    6.36549E+004   -5.91966E+003    3.37603E+006   -1.14261E+006    3.34015E+006    3.37011E+006    5.49989E+003    5.22354E+004    4.16483E+001   -1.60588E+001    2.57702E+004
            8413    3.34634E+006    3.35875E+006    3.35875E+006    2.58561E+004   -8.91701E+002    3.35964E+006   -1.12790E+006    3.34610E+006    3.35875E+006    8.43185E+003    1.65325E+004    4.35581E+000   -8.33051E+000    1.27458E+004
            8414    3.34931E+006    3.35174E+006    3.35174E+006    4.85425E+003    2.07339E-001    3.35174E+006   -1.11886E+006    3.34931E+006    3.35174E+006    2.55174E+003    2.30272E+003   -8.33303E+000    4.51738E+000    2.42383E+003
            8415    3.33953E+006    3.37695E+006    3.37695E+006    8.65982E+004   -9.68003E+003    3.38663E+006   -1.15129E+006    3.33641E+006    3.37695E+006    3.66536E+004    4.02646E+004   -2.98137E+001    3.03365E+001    4.81052E+004
            8416    3.34557E+006    3.36070E+006    3.36070E+006    3.11761E+004   -6.91274E+002    3.36139E+006   -1.13039E+006    3.34523E+006    3.36070E+006    2.04655E+004    1.00193E+004   -2.19081E+000    4.62711E-001    1.50533E+004
            8417    3.33540E+006    3.39433E+006    3.39433E+006    1.60688E+005   -3.42753E+004    3.42860E+006   -1.17358E+006    3.32254E+006    3.39433E+006    8.51584E+004    4.12547E+004    3.90313E+001   -4.00038E+001    9.49781E+004
            8418    3.33901E+006    3.37799E+006    3.37799E+006    8.58196E+004   -5.96440E+003    3.38396E+006   -1.15262E+006    3.33617E+006    3.37799E+006    6.97233E+004    1.01320E+004   -2.20066E+000    1.70584E+001    3.49041E+004
            8419    3.33282E+006    3.41635E+006    3.41635E+006    2.54311E+005   -6.43555E+004    3.48070E+006   -1.20210E+006    3.29828E+006    3.41635E+006    1.63983E+005    2.59731E+004    6.98686E+001   -4.33979E+001    1.43616E+005
            8420    3.33076E+006    3.40279E+006    3.40279E+006    1.61167E+005   -1.04728E+004    3.41326E+006   -1.18449E+006    3.32079E+006    3.40279E+006    1.46104E+005    4.59024E+003    2.82402E+001   -2.05689E+001    4.85645E+004
            8421    3.32243E+006    3.43108E+006    3.43108E+006    2.43305E+005   -1.13423E+004    3.44242E+006   -1.22101E+006    3.30036E+006    3.43108E+006    2.31891E+005    7.18584E+001    1.56625E+001   -1.12324E+002    5.26907E+004
            8422    3.31489E+006    3.46386E+006    3.46386E+006    3.37725E+005   -1.20497E+004    3.47591E+006   -1.26318E+006    3.27299E+006    3.46386E+006    3.31240E+005   -5.56479E+003   -5.12710E+001   -8.85892E+001    4.71825E+004
            8423    3.32972E+006    3.43824E+006    3.43824E+006    3.24356E+005   -7.18570E+004    3.51010E+006   -1.23025E+006    3.27606E+006    3.43824E+006    2.48377E+005    4.12158E+003    1.24061E+001    8.92917E+001    1.55984E+005
            8424    3.32287E+006    3.46283E+006    3.46283E+006    3.78431E+005   -5.58117E+004    3.51864E+006   -1.26181E+006    3.25811E+006    3.46283E+006    3.34464E+005   -1.18453E+004    3.30812E+000    8.55444E+001    1.30993E+005
            8425    3.33871E+006    3.46017E+006    3.46017E+006    4.40326E+005   -1.25184E+005    3.58535E+006   -1.25844E+006    3.22831E+006    3.46017E+006    3.32344E+005   -1.72018E+004   -2.25323E+002   -1.84073E+002    2.22272E+005
            8426    3.34548E+006    3.43989E+006    3.43989E+006    4.04506E+005   -1.47112E+005    3.58700E+006   -1.23243E+006    3.24079E+006    3.43989E+006    2.41228E+005    1.61649E+004   -1.04026E+002   -2.12634E+002    2.51808E+005
            8427    3.34758E+006    3.42124E+006    3.42124E+006    3.56618E+005   -1.51271E+005    3.57251E+006   -1.20886E+006    3.25921E+006    3.42124E+006    7.94213E+004    1.25925E+005    2.85268E+002    6.39158E+001    2.52877E+005
            8428    3.34423E+006    3.43683E+006    3.43683E+006    3.94242E+005   -1.43804E+005    3.58063E+006   -1.22909E+006    3.24470E+006    3.43683E+006    3.82213E+004    2.12217E+005    3.35962E+002    6.61923E+001    2.54568E+005
            8429    3.34204E+006    3.45196E+006    3.45196E+006    4.30284E+005   -1.37664E+005    3.58962E+006   -1.24819E+006    3.23078E+006    3.45196E+006   -4.28253E+003    2.96902E+005    2.86682E+002    2.53910E+000    2.40755E+005
            8430    3.33564E+006    3.46972E+006    3.46972E+006    4.58417E+005   -1.15723E+005    3.58544E+006   -1.27080E+006    3.22164E+006    3.46972E+006   -3.37306E+004    3.76425E+005    1.32148E+002    7.66650E+001    2.00879E+005
            8431    3.31910E+006    3.47640E+006    3.47640E+006    4.08132E+005   -4.66400E+004    3.52304E+006   -1.27930E+006    3.24790E+006    3.47640E+006   -1.52269E+004    3.76719E+005   -1.85262E+002   -2.83876E+002    1.15321E+005
            8432    3.31124E+006    3.48170E+006    3.48170E+006    3.84131E+005   -8.24309E+003    3.48994E+006   -1.28586E+006    3.25832E+006    3.48170E+006   -4.09748E+003    3.79986E+005   -1.45372E+001    1.20791E+002    4.01179E+004
            8433    3.32525E+006    3.45140E+006    3.45140E+006    3.52356E+005   -6.13322E+004    3.51273E+006   -1.24748E+006    3.26660E+006    3.45140E+006   -5.60889E+003    2.96633E+005   -4.44505E+002   -1.29468E+002    1.41234E+005
            8434    3.31925E+006    3.44782E+006    3.44782E+006    2.92260E+005   -1.38986E+004    3.46172E+006   -1.24206E+006    3.28726E+006    3.44782E+006   -5.64344E+003    2.84005E+005    5.10100E+001    1.38630E+002    4.95906E+004
            8435    3.33169E+006    3.42898E+006    3.42898E+006    2.99802E+005   -7.37511E+004    3.50273E+006   -1.21834E+006    3.28408E+006    3.42898E+006    8.67372E+003    2.17378E+005   -5.19545E+002    9.39914E+001    1.54907E+005
            8436    3.32798E+006    3.41507E+006    3.41507E+006    1.99648E+005   -1.50778E+004    3.43015E+006   -1.19988E+006    3.31235E+006    3.41507E+006   -6.57364E+002    1.85228E+005    1.32938E+002    1.08936E+002    5.37447E+004
            8437    3.33456E+006    3.41084E+006    3.41084E+006    2.40996E+005   -6.70506E+004    3.47789E+006   -1.19493E+006    3.30232E+006    3.41084E+006    4.13628E+004    1.32582E+005   -4.82478E+002    1.44049E+002    1.47115E+005
            8438    3.33596E+006    3.38845E+006    3.38845E+006    1.17387E+005   -8.82648E+003    3.39727E+006   -1.16567E+006    3.33058E+006    3.38845E+006    8.87202E+003    9.96887E+004    2.76471E+002    3.38850E+000    4.38241E+004
            8439    3.34284E+006    3.36795E+006    3.36795E+006    5.64660E+004   -5.37913E+003    3.37333E+006   -1.13968E+006    3.34155E+006    3.36795E+006    1.00517E+004    4.10352E+004    9.62608E+001   -6.91653E+001    2.67621E+004
            8440    3.34736E+006    3.35622E+006    3.35622E+006    1.77474E+004    4.47837E+001    3.35617E+006   -1.12467E+006    3.34725E+006    3.35622E+006    9.15407E+003    8.63808E+003   -9.48348E-002    4.53353E+000    8.84753E+003
            8441    3.33571E+006    3.39449E+006    3.39449E+006    1.60996E+005   -3.48177E+004    3.42931E+006   -1.17356E+006    3.32274E+006    3.39449E+006    6.50610E+004    6.11178E+004   -3.45142E+001    2.84660E+001    9.78872E+004
            8442    3.34252E+006    3.36874E+006    3.36874E+006    5.86338E+004   -5.28144E+003    3.37402E+006   -1.14070E+006    3.34114E+006    3.36874E+006    4.39124E+004    9.44004E+003    7.89869E+001   -1.09099E+002    2.69111E+004
            8443    3.33509E+006    3.39065E+006    3.39065E+006    1.23666E+005   -8.59496E+003    3.39925E+006   -1.16858E+006    3.32918E+006    3.39065E+006    1.06937E+005    8.13427E+003    5.00326E+000   -3.02023E+002    4.39631E+004
            8444    3.32660E+006    3.41905E+006    3.41905E+006    2.11136E+005   -1.47179E+004    3.43377E+006   -1.20516E+006    3.30928E+006    3.41905E+006    1.98051E+005   -1.63338E+003   -1.12158E+002   -1.40506E+002    5.27633E+004
            8445    3.31720E+006    3.45445E+006    3.45445E+006    3.10225E+005   -1.21808E+004    3.46663E+006   -1.25083E+006    3.28167E+006    3.45445E+006    3.03294E+005   -5.24903E+003   -1.42380E+002   -2.04030E+001    4.67631E+004
            8446    3.30934E+006    3.48935E+006    3.48935E+006    4.05132E+005   -6.57756E+003    3.49593E+006   -1.29597E+006    3.25097E+006    3.48935E+006    4.01798E+005   -3.24449E+003   -9.18992E+001    3.89671E+001    3.68937E+004
            8447    3.33453E+006    3.41180E+006    3.41180E+006    2.44039E+005   -6.76138E+004    3.47941E+006   -1.19607E+006    3.30152E+006    3.41180E+006    1.41148E+005    3.52767E+004   -1.17227E+002    4.31635E+002    1.46559E+005
            8448    3.33097E+006    3.43209E+006    3.43209E+006    3.06207E+005   -7.17370E+004    3.50383E+006   -1.22219E+006    3.28222E+006    3.43209E+006    2.30846E+005    3.62451E+003   -5.09680E+001    3.42566E+002    1.51007E+005
            8449    3.32375E+006    3.45684E+006    3.45684E+006    3.62451E+005   -5.65406E+004    3.51338E+006   -1.25425E+006    3.26354E+006    3.45684E+006    3.13733E+005   -7.82316E+003    2.14272E+002    1.31567E+002    1.34309E+005
            8450    3.31745E+006    3.48304E+006    3.48304E+006    4.20950E+005   -4.12898E+004    3.52433E+006   -1.28757E+006    3.24381E+006    3.48304E+006    3.95285E+005   -1.56251E+004    2.88704E+002   -1.47648E+002    1.05852E+005
            8451    3.33250E+006    3.47798E+006    3.47798E+006    4.68310E+005   -1.03389E+005    3.58137E+006   -1.28097E+006    3.21939E+006    3.47798E+006    4.04978E+005   -4.00573E+004   -3.62158E+001    7.31597E+001    1.79432E+005
            8452    3.33996E+006    3.45767E+006    3.45767E+006    4.37034E+005   -1.29224E+005    3.58690E+006   -1.25516E+006    3.22931E+006    3.45767E+006    3.23305E+005   -1.54946E+004    2.61545E+001   -6.17223E+001    2.26860E+005
            8453    3.34342E+006    3.43964E+006    3.43964E+006    3.98255E+005   -1.40414E+005    3.58005E+006   -1.23249E+006    3.24363E+006    3.43964E+006    2.34594E+005    2.32470E+004    1.54645E+001   -1.68465E+002    2.47738E+005
            8454    3.34765E+006    3.42170E+006    3.42170E+006    3.58049E+005   -1.51517E+005    3.57322E+006   -1.20941E+006    3.25868E+006    3.42170E+006    1.43528E+005    6.30038E+004    1.30167E+001   -1.90181E+002    2.51582E+005
            8455    3.30664E+006    3.51022E+006    3.51022E+006    4.65154E+005   -7.19052E+003    3.51741E+006   -1.32273E+006    3.22943E+006    3.51022E+006   -5.36519E+003    4.63329E+005   -2.85246E+000    6.28055E+001    2.93062E+004
            8456    3.31339E+006    3.50002E+006    3.50002E+006    4.60896E+005   -3.23299E+004    3.53235E+006   -1.30953E+006    3.22924E+006    3.50002E+006   -1.84548E+004    4.47021E+005    9.48431E+001   -2.95402E+002    8.15537E+004
            8457    3.32801E+006    3.49011E+006    3.49011E+006    4.88483E+005   -8.87616E+004    3.57887E+006   -1.29661E+006    3.21247E+006    3.49011E+006   -4.83937E+004    4.48116E+005   -1.98507E+000    1.93403E+000    1.47216E+005
            8458    3.30361E+006    3.53183E+006    3.53183E+006    5.24690E+005   -4.39831E+003    3.53623E+006   -1.35071E+006    3.20621E+006    3.53183E+006   -3.84593E+003    5.24137E+005    2.23281E+001    2.92905E+001    1.70866E+004
            8459    3.31003E+006    3.51867E+006    3.51867E+006    5.04367E+005   -2.36134E+004    3.54229E+006   -1.33314E+006    3.21324E+006    3.51867E+006   -1.90759E+004    4.99830E+005    3.69536E+002   -2.73998E+002    4.87349E+004
            8460    3.32090E+006    3.50849E+006    3.50849E+006    5.14729E+005   -6.35897E+004    3.57208E+006   -1.31988E+006    3.20466E+006    3.50849E+006   -5.04436E+004    5.01583E+005   -1.93523E+002    3.01702E+001    8.61963E+004
            8461    3.30252E+006    3.54298E+006    3.54298E+006    5.56277E+005   -3.74805E+003    3.54672E+006   -1.36517E+006    3.19306E+006    3.54298E+006   -3.68933E+003    5.56218E+005    4.18011E+001    3.37834E+000    5.73446E+003
            8462    3.30849E+006    3.52904E+006    3.52904E+006    5.29238E+005   -1.95220E+004    3.54856E+006   -1.34625E+006    3.20370E+006    3.52904E+006   -1.90824E+004    5.28798E+005    5.86834E+002   -1.10517E+002    1.55241E+004
            8463    3.31722E+006    3.51895E+006    3.51895E+006    5.30564E+005   -5.03623E+004    3.56931E+006   -1.33305E+006    3.19977E+006    3.51895E+006   -4.89408E+004    5.29142E+005   -3.56552E+002   -4.05338E+001    2.87014E+004
            8464    3.30868E+006    3.49632E+006    3.49632E+006    4.25507E+005   -7.57118E+003    3.50390E+006   -1.30475E+006    3.24400E+006    3.49632E+006    4.22603E+005   -4.66689E+003    5.98896E+001    1.44792E+000   -3.53462E+004
            8465    3.31631E+006    3.48768E+006    3.48768E+006    4.33626E+005   -3.99604E+004    3.52764E+006   -1.29378E+006    3.23892E+006    3.48768E+006    4.11162E+005   -1.74961E+004   -2.31722E+002    8.83131E+001   -1.00668E+005
            8466    3.33119E+006    3.48059E+006    3.48059E+006    4.73542E+005   -1.00208E+005    3.58080E+006   -1.28464E+006    3.21720E+006    3.48059E+006    4.14351E+005   -4.10167E+004    4.83245E-001   -8.15828E+001   -1.74520E+005
            8467    3.30497E+006    3.52237E+006    3.52237E+006    4.98834E+005   -5.94048E+003    3.52831E+006   -1.33842E+006    3.21652E+006    3.52237E+006    4.97753E+005   -4.85975E+003    4.10967E+001   -1.07742E+001   -2.33315E+004
            8468    3.31129E+006    3.51073E+006    3.51073E+006    4.85689E+005   -2.70076E+004    3.53773E+006   -1.32314E+006    3.22017E+006    3.51073E+006    4.77313E+005   -1.86313E+004   -2.70557E+002   -1.61281E+002   -6.49949E+004
            8469    3.32370E+006    3.50041E+006    3.50041E+006    5.02605E+005   -7.37806E+004    3.57419E+006   -1.30974E+006    3.20835E+006    3.50041E+006    4.78562E+005   -4.97376E+004    9.20363E+001    7.22804E+001   -1.15239E+005
            8470    3.30289E+006    3.53955E+006    3.53955E+006    5.46270E+005   -3.87338E+003    3.54342E+006   -1.36065E+006    3.19737E+006    3.53955E+006    5.46054E+005   -3.65751E+003    5.12663E+000   -1.88322E+001   -1.08956E+004
            8471    3.30893E+006    3.52539E+006    3.52539E+006    5.21087E+005   -2.11853E+004    3.54657E+006   -1.34176E+006    3.20667E+006    3.52539E+006    5.19348E+005   -1.94461E+004   -1.34175E+002   -3.88128E+002   -3.06603E+004
            8472    3.31790E+006    3.51540E+006    3.51540E+006    5.25205E+005   -5.39489E+004    3.56935E+006   -1.32889E+006    3.20121E+006    3.51540E+006    5.19976E+005   -4.87199E+004   -4.08875E+000    2.19365E+002   -5.47818E+004
            8473    3.30262E+006    3.54428E+006    3.54428E+006    5.60172E+005   -4.13450E+003    3.54842E+006   -1.36677E+006    3.19144E+006    3.54428E+006    5.60168E+005   -4.13091E+003    7.48359E+000   -6.05837E+001    1.42323E+003
            8474    3.30816E+006    3.53022E+006    3.53022E+006    5.32796E+005   -1.92126E+004    3.54944E+006   -1.34794E+006    3.20207E+006    3.53022E+006    5.32776E+005   -1.91926E+004   -5.64786E+001   -4.26860E+002    3.31690E+003
            8475    3.31658E+006    3.52011E+006    3.52011E+006    5.32538E+005   -4.86437E+004    3.56876E+006   -1.33467E+006    3.19899E+006    3.52011E+006    5.32529E+005   -4.86353E+004    2.98725E+000    1.89536E+002    2.20941E+003
            8476    3.30294E+006    3.53688E+006    3.53688E+006    5.38687E+005   -3.67748E+003    3.54056E+006   -1.35730E+006    3.20045E+006    3.53688E+006    5.38357E+005   -3.34671E+003    3.35667E+000   -1.90571E+001    1.33898E+004
            8477    3.30944E+006    3.52333E+006    3.52333E+006    5.15744E+005   -2.20901E+004    3.54542E+006   -1.33899E+006    3.20890E+006    3.52333E+006    5.13058E+005   -1.94045E+004    9.33008E+001   -4.83493E+002    3.79104E+004
            8478    3.31834E+006    3.51457E+006    3.51457E+006    5.23095E+005   -5.47417E+004    3.56931E+006   -1.32764E+006    3.20221E+006    3.51457E+006    5.17108E+005   -4.87540E+004   -3.29333E+001    2.81121E+002    5.85154E+004
            8479    3.30543E+006    3.51701E+006    3.51701E+006    4.84384E+005   -6.36432E+003    3.52337E+006   -1.33168E+006    3.22194E+006    3.51701E+006    4.83008E+005   -4.98855E+003   -3.23460E+001    3.34857E+000    2.59474E+004
            8480    3.31211E+006    3.50663E+006    3.50663E+006    4.75152E+005   -2.84339E+004    3.53506E+006   -1.31778E+006    3.22428E+006    3.50663E+006    4.64788E+005   -1.80704E+004    2.16247E+002   -3.66674E+002    7.14947E+004
            8481    3.32452E+006    3.49899E+006    3.49899E+006    4.99379E+005   -7.54682E+004    3.57445E+006   -1.30763E+006    3.20983E+006    3.49899E+006    4.73120E+005   -4.92093E+004   -4.63848E+001    1.82596E+002    1.20022E+005
            8482    3.32825E+006    3.49025E+006    3.49025E+006    4.88582E+005   -8.89882E+004    3.57923E+006   -1.29661E+006    3.21259E+006    3.49025E+006   -4.86805E+004    4.48274E+005   -5.40230E+001    8.18417E+000   -1.47159E+005
            8483    3.31337E+006    3.50035E+006    3.50035E+006    4.61160E+005   -3.19285E+004    3.53228E+006   -1.30986E+006    3.22927E+006    3.50035E+006   -1.82492E+004    4.47480E+005    1.97527E+002    3.44255E+002   -8.09813E+004
            8484    3.30651E+006    3.51052E+006    3.51052E+006    4.66184E+005   -7.15780E+003    3.51768E+006   -1.32318E+006    3.22897E+006    3.51052E+006   -5.36005E+003    4.64386E+005   -3.13887E-001   -6.97341E+001   -2.91155E+004
            8485    3.32104E+006    3.50873E+006    3.50873E+006    5.14860E+005   -6.35007E+004    3.57223E+006   -1.32003E+006    3.20478E+006    3.50873E+006   -5.05087E+004    5.01868E+005   -2.95821E+002   -3.23228E+001   -8.57044E+004
            8486    3.31015E+006    3.51879E+006    3.51879E+006    5.04192E+005   -2.35266E+004    3.54231E+006   -1.33315E+006    3.21347E+006    3.51879E+006   -1.89829E+004    4.99649E+005    5.06117E+002    2.52933E+002   -4.87555E+004
            8487    3.30345E+006    3.53196E+006    3.53196E+006    5.25086E+005   -4.16039E+003    3.53612E+006   -1.35096E+006    3.20598E+006    3.53196E+006   -3.61422E+003    5.24540E+005    1.28368E+001   -2.89297E+001   -1.69930E+004
            8488    3.31727E+006    3.51914E+006    3.51914E+006    5.30586E+005   -5.01498E+004    3.56929E+006   -1.33319E+006    3.19989E+006    3.51914E+006   -4.87958E+004    5.29232E+005   -3.81229E+002    1.02226E+000   -2.80074E+004
            8489    3.30849E+006    3.52908E+006    3.52908E+006    5.29081E+005   -1.93655E+004    3.54845E+006   -1.34627E+006    3.20382E+006    3.52908E+006   -1.88962E+004    5.28612E+005    6.33643E+002    4.84073E+001   -1.60354E+004
            8490    3.30248E+006    3.54296E+006    3.54296E+006    5.56301E+005   -3.73362E+003    3.54669E+006   -1.36517E+006    3.19301E+006    3.54296E+006   -3.67297E+003    5.56241E+005    4.70032E+001   -5.24844E+000   -5.82779E+003
            8491    3.34231E+006    3.36981E+006    3.36981E+006    6.19434E+004   -5.90435E+003    3.37571E+006   -1.14195E+006    3.34076E+006    3.36981E+006    5.47183E+003    5.05672E+004   -3.70535E+001    1.16889E+000   -2.53462E+004
            8492    3.33513E+006    3.38958E+006    3.38958E+006    1.20215E+005   -7.63564E+003    3.39721E+006   -1.16739E+006    3.32961E+006    3.38958E+006    2.09873E+003    1.10481E+005   -4.38376E+000    2.46150E+001   -3.39085E+004
            8493    3.32614E+006    3.41699E+006    3.41699E+006    1.98306E+005   -7.09234E+003    3.42408E+006   -1.20273E+006    3.31183E+006    3.41699E+006   -5.02840E+002    1.91716E+005   -1.57374E+000    2.86909E+001   -3.61946E+004
            8494    3.31723E+006    3.44967E+006    3.44967E+006    2.90247E+005   -5.57085E+003    3.45524E+006   -1.24478E+006    3.28736E+006    3.44967E+006   -1.74140E+003    2.86418E+005    5.33095E+000    3.57783E+001   -3.34389E+004
            8495    3.31019E+006    3.48262E+006    3.48262E+006    3.83411E+005   -4.38839E+003    3.48701E+006   -1.28722E+006    3.25850E+006    3.48262E+006   -2.53545E+003    3.81558E+005   -2.48435E+000    2.56608E+001   -2.67420E+004
            8496    3.33584E+006    3.39008E+006    3.39008E+006    1.42667E+005   -2.76471E+004    3.41773E+006   -1.16837E+006    3.32603E+006    3.39008E+006    3.04740E+004    8.45463E+004   -3.34634E+000    6.61191E-001   -8.07515E+004
            8497    3.33249E+006    3.40495E+006    3.40495E+006    1.96023E+005   -3.87057E+004    3.44365E+006   -1.18742E+006    3.31382E+006    3.40495E+006    1.76715E+004    1.39646E+005   -8.54438E+001    1.17850E+001   -1.00274E+005
            8498    3.32742E+006    3.42520E+006    3.42520E+006    2.53824E+005   -3.89060E+004    3.46411E+006   -1.21337E+006    3.29826E+006    3.42520E+006    6.44223E+003    2.08476E+005   -9.91530E+001    6.08834E+001   -1.05917E+005
            8499    3.32094E+006    3.44994E+006    3.44994E+006    3.17601E+005   -3.19491E+004    3.48189E+006   -1.24520E+006    3.27917E+006    3.44994E+006   -3.11004E+003    2.88762E+005   -6.45792E+001    7.04249E+001   -9.61718E+004
            8500    3.31401E+006    3.47800E+006    3.47800E+006    3.87009E+005   -2.11964E+004    3.49920E+006   -1.28127E+006    3.25672E+006    3.47800E+006   -6.19740E+003    3.72010E+005   -5.00727E+001    5.93319E+001   -7.67966E+004
            8501    3.33522E+006    3.40651E+006    3.40651E+006    2.18946E+005   -5.89587E+004    3.46547E+006   -1.18883E+006    3.30902E+006    3.40651E+006    7.32004E+004    8.67870E+004   -1.79769E+002   -7.62994E+001   -1.38786E+005
            8502    3.33534E+006    3.41728E+006    3.41728E+006    2.68548E+005   -7.76537E+004    3.49494E+006   -1.20273E+006    3.29455E+006    3.41728E+006    4.41399E+004    1.46754E+005   -9.66123E+000    4.84888E+001   -1.65322E+005
            8503    3.33301E+006    3.43112E+006    3.43112E+006    3.11828E+005   -8.08196E+004    3.51194E+006   -1.22071E+006    3.28037E+006    3.43112E+006    1.33978E+004    2.17610E+005    1.52485E+002    2.99339E+001   -1.67682E+005
            8504    3.32729E+006    3.45110E+006    3.45110E+006    3.56606E+005   -6.81793E+004    3.51928E+006   -1.24651E+006    3.26545E+006    3.45110E+006   -4.61998E+003    2.93046E+005    1.41755E+002   -7.52151E+001   -1.51523E+005
            8505    3.32044E+006    3.47432E+006    3.47432E+006    4.05810E+005   -5.07854E+004    3.52511E+006   -1.27645E+006    3.24868E+006    3.47432E+006   -1.55475E+004    3.70572E+005    1.90829E+001   -1.80799E+002   -1.21851E+005
            8506    3.33915E+006    3.42065E+006    3.42065E+006    3.11068E+005   -1.08419E+005    3.52907E+006   -1.20777E+006    3.27908E+006    3.42065E+006    1.30942E+005    7.17072E+004    3.79975E+002    3.35831E+002   -2.07642E+005
            8507    3.34218E+006    3.42384E+006    3.42384E+006    3.39993E+005   -1.27462E+005    3.55130E+006   -1.21212E+006    3.26742E+006    3.42384E+006    6.93414E+004    1.43190E+005    4.30613E+002    2.69477E+002   -2.30792E+005
            8508    3.33980E+006    3.43522E+006    3.43522E+006    3.68287E+005   -1.23031E+005    3.55825E+006   -1.22682E+006    3.25701E+006    3.43522E+006    2.64050E+004    2.18851E+005    3.64291E+002    6.58498E+001   -2.26030E+005
            8509    3.33564E+006    3.45089E+006    3.45089E+006    4.00338E+005   -1.10831E+005    3.56172E+006   -1.24680E+006    3.24577E+006    3.45089E+006   -8.17001E+003    2.97677E+005    2.54204E+002   -1.07293E+002   -2.04788E+005
            8510    3.32838E+006    3.47194E+006    3.47194E+006    4.34207E+005   -8.58681E+004    3.55780E+006   -1.27342E+006    3.23507E+006    3.47194E+006   -2.65828E+004    3.74921E+005    6.62277E+001   -2.38389E+002   -1.65282E+005
            8511    3.34140E+006    3.46570E+006    3.46570E+006    4.66546E+005   -1.35959E+005    3.60166E+006   -1.26543E+006    3.21576E+006    3.46570E+006   -3.64328E+004    3.67021E+005   -4.47295E+001    2.13050E+002   -2.23740E+005
            8512    3.34842E+006    3.44890E+006    3.44890E+006    4.43428E+005   -1.60325E+005    3.60922E+006   -1.24400E+006    3.22253E+006    3.44890E+006   -5.65144E+002    2.83667E+005   -2.42694E+002    6.52763E+001   -2.66331E+005
            8513    3.35239E+006    3.43682E+006    3.43682E+006    4.24033E+005   -1.74537E+005    3.61135E+006   -1.22877E+006    3.22886E+006    3.43682E+006    4.74992E+004    2.01997E+005   -2.86470E+002    9.59233E+000   -2.89143E+005
            8514    3.35201E+006    3.43030E+006    3.43030E+006    4.02325E+005   -1.71626E+005    3.60192E+006   -1.22033E+006    3.23868E+006    3.43030E+006    1.02322E+005    1.28377E+005   -2.91196E+002   -8.60066E+001   -2.86680E+005
            8515    3.35081E+006    3.42675E+006    3.42675E+006    3.87368E+005   -1.66476E+005    3.59323E+006   -1.21588E+006    3.24543E+006    3.42675E+006    1.63275E+005    5.76165E+004   -8.95727E+001   -1.30837E+002   -2.71836E+005
            8516    3.34509E+006    3.43938E+006    3.43938E+006    4.04057E+005   -1.47040E+005    3.58642E+006   -1.23213E+006    3.24059E+006    3.43938E+006    2.41690E+005    1.53262E+004    3.14212E+001   -1.62599E+002   -2.51231E+005
            8517    3.33838E+006    3.45993E+006    3.45993E+006    4.39974E+005   -1.24822E+005    3.58475E+006   -1.25836E+006    3.22826E+006    3.45993E+006    3.32885E+005   -1.77335E+004    9.14095E+001   -1.42293E+002   -2.21394E+005
            8518    3.32283E+006    3.46246E+006    3.46246E+006    3.77931E+005   -5.60221E+004    3.51849E+006   -1.26146E+006    3.25816E+006    3.46246E+006    3.33160E+005   -1.12513E+004   -1.55547E+002    2.76959E+002   -1.32000E+005
            8519    3.31552E+006    3.46323E+006    3.46323E+006    3.35500E+005   -1.26243E+004    3.47585E+006   -1.26203E+006    3.27403E+006    3.46323E+006    3.29025E+005   -6.15025E+003    1.11791E+002   -1.26231E+001   -4.70304E+004
            8520    3.32977E+006    3.43803E+006    3.43803E+006    3.24078E+005   -7.21156E+004    3.51014E+006   -1.23000E+006    3.27611E+006    3.43803E+006    2.47565E+005    4.39686E+003    6.70128E+001    3.88223E+002   -1.56396E+005
            8521    3.32311E+006    3.43078E+006    3.43078E+006    2.42009E+005   -1.20830E+004    3.44286E+006   -1.22024E+006    3.30115E+006    3.43078E+006    2.30639E+005   -7.12838E+002    6.13966E+001   -1.26402E+002   -5.25336E+004
            8522    3.33091E+006    3.40265E+006    3.40265E+006    1.61019E+005   -1.08694E+004    3.41352E+006   -1.18427E+006    3.32091E+006    3.40265E+006    1.45879E+005    4.27021E+003    4.98961E+000   -8.06177E+001   -4.87147E+004
            8523    3.33894E+006    3.37806E+006    3.37806E+006    8.56207E+004   -5.50862E+003    3.38357E+006   -1.15272E+006    3.33614E+006    3.37806E+006    6.94586E+004    1.06535E+004   -6.49263E+000   -1.29322E+001   -3.48085E+004
            8524    3.34566E+006    3.36052E+006    3.36052E+006    3.06970E+004   -7.49809E+002    3.36127E+006   -1.13016E+006    3.34533E+006    3.36052E+006    2.03710E+004    9.57615E+003   -2.68962E+001   -2.32356E+001   -1.47680E+004
            8525    3.34927E+006    3.35173E+006    3.35173E+006    4.89143E+003    2.77751E+001    3.35170E+006   -1.11888E+006    3.34926E+006    3.35173E+006    2.59737E+003    2.32183E+003   -1.53503E+001    3.92051E-001   -2.42792E+003
            8526    3.33318E+006    3.41664E+006    3.41664E+006    2.54222E+005   -6.44313E+004    3.48107E+006   -1.20214E+006    3.29865E+006    3.41664E+006    1.63974E+005    2.58175E+004    3.75679E+001    1.04739E+002   -1.43573E+005
            8527    3.33540E+006    3.39455E+006    3.39455E+006    1.61433E+005   -3.44944E+004    3.42904E+006   -1.17383E+006    3.32241E+006    3.39455E+006    8.56265E+004    4.13124E+004   -4.20329E+001   -1.20231E+002   -9.54253E+004
            8528    3.33948E+006    3.37703E+006    3.37703E+006    8.69577E+004   -9.77082E+003    3.38680E+006   -1.15140E+006    3.33633E+006    3.37703E+006    3.70026E+004    4.01843E+004   -3.40883E+001   -9.13373E-001   -4.83381E+004
            8529    3.34656E+006    3.35835E+006    3.35835E+006    2.47599E+004   -1.02687E+003    3.35938E+006   -1.12736E+006    3.34633E+006    3.35835E+006    7.86528E+003    1.58677E+004   -8.73952E+000   -1.26901E+001   -1.22568E+004
            8530    3.33604E+006    3.38828E+006    3.38828E+006    1.16910E+005   -8.87189E+003    3.39716E+006   -1.16544E+006    3.33070E+006    3.38828E+006    8.82590E+003    9.92122E+004    2.80412E+002   -1.04040E+001   -4.37361E+004
            8531    3.32797E+006    3.41528E+006    3.41528E+006    2.00175E+005   -1.50973E+004    3.43038E+006   -1.20012E+006    3.31225E+006    3.41528E+006   -7.18659E+002    1.85796E+005    1.38579E+002   -1.16038E+002   -5.37456E+004
            8532    3.31907E+006    3.44866E+006    3.44866E+006    2.94647E+005   -1.39081E+004    3.46257E+006   -1.24313E+006    3.28657E+006    3.44866E+006   -5.81046E+003    2.86549E+005    4.94833E+001   -1.49961E+002   -4.93255E+004
            8533    3.31100E+006    3.48263E+006    3.48263E+006    3.86624E+005   -7.98254E+003    3.49062E+006   -1.28709E+006    3.25746E+006    3.48263E+006   -3.93321E+003    3.82575E+005   -1.62008E+001   -1.21936E+002   -3.97680E+004
            8534    3.33454E+006    3.41094E+006    3.41094E+006    2.41505E+005   -6.72192E+004    3.47816E+006   -1.19508E+006    3.30215E+006    3.41094E+006    4.13403E+004    1.32945E+005   -5.07935E+002   -1.50516E+002   -1.47410E+005
            8535    3.33162E+006    3.42912E+006    3.42912E+006    3.00422E+005   -7.38115E+004    3.50294E+006   -1.21858E+006    3.28383E+006    3.42912E+006    8.24905E+003    2.18362E+005   -5.64696E+002   -1.00247E+002   -1.54841E+005
            8536    3.32508E+006    3.45172E+006    3.45172E+006    3.52972E+005   -6.09323E+004    3.51265E+006   -1.24792E+006    3.26636E+006    3.45172E+006   -5.88010E+003    2.97920E+005   -4.67204E+002    1.74400E+002   -1.40555E+005
            8537    3.31897E+006    3.47680E+006    3.47680E+006    4.08583E+005   -4.60601E+004    3.52286E+006   -1.27977E+006    3.24781E+006    3.47680E+006   -1.51922E+004    3.77715E+005   -1.49548E+002    3.30488E+002   -1.14372E+005
            8538    3.33578E+006    3.46978E+006    3.46978E+006    4.58716E+005   -1.16030E+005    3.58581E+006   -1.27082E+006    3.22155E+006    3.46978E+006   -3.37438E+004    3.76430E+005    1.29656E+002   -2.76638E+001   -2.01303E+005
            8539    3.34206E+006    3.45205E+006    3.45205E+006    4.30701E+005   -1.37785E+005    3.58984E+006   -1.24832E+006    3.23058E+006    3.45205E+006   -4.07370E+003    2.96990E+005    3.09233E+002    1.96129E+001   -2.41111E+005
            8540    3.34411E+006    3.43684E+006    3.43684E+006    3.94172E+005   -1.43546E+005    3.58038E+006   -1.22915E+006    3.24470E+006    3.43684E+006    3.85224E+004    2.12103E+005    3.78960E+002   -5.41639E+001   -2.54465E+005
            8541    3.34761E+006    3.42110E+006    3.42110E+006    3.56472E+005   -1.51442E+005    3.57254E+006   -1.20871E+006    3.25923E+006    3.42110E+006    7.87560E+004    1.26274E+005    3.13362E+002   -8.83313E+001   -2.52843E+005
            8542    3.34759E+006    3.42184E+006    3.42184E+006    3.58232E+005   -1.51309E+005    3.57315E+006   -1.20959E+006    3.25863E+006    3.42184E+006    1.43305E+005    6.36174E+004    8.97203E+000    1.76552E+002   -2.51636E+005
            8543    3.34340E+006    3.43963E+006    3.43963E+006    3.98441E+005   -1.40506E+005    3.58014E+006   -1.23252E+006    3.24351E+006    3.43963E+006    2.35015E+005    2.29203E+004    5.42919E+000    1.36622E+002   -2.47730E+005
            8544    3.33985E+006    3.45766E+006    3.45766E+006    4.36873E+005   -1.28965E+005    3.58662E+006   -1.25519E+006    3.22936E+006    3.45766E+006    3.23689E+005   -1.57810E+004    9.02244E+000    8.23208E+001   -2.26348E+005
            8545    3.33233E+006    3.47771E+006    3.47771E+006    4.67786E+005   -1.03229E+005    3.58094E+006   -1.28076E+006    3.21949E+006    3.47771E+006    4.04512E+005   -3.99551E+004   -4.99829E+001   -4.08915E+001   -1.79240E+005
            8546    3.31754E+006    3.48296E+006    3.48296E+006    4.21438E+005   -4.18828E+004    3.52484E+006   -1.28751E+006    3.24355E+006    3.48296E+006    3.95659E+005   -1.61037E+004    2.58530E+002    6.69649E+001   -1.06205E+005
            8547    3.30959E+006    3.48887E+006    3.48887E+006    4.04122E+005   -7.13195E+003    3.49600E+006   -1.29529E+006    3.25136E+006    3.48887E+006    4.00696E+005   -3.70538E+003   -9.50545E+001   -2.37535E+001   -3.73825E+004
            8548    3.32383E+006    3.45667E+006    3.45667E+006    3.62338E+005   -5.68758E+004    3.51355E+006   -1.25405E+006    3.26356E+006    3.45667E+006    3.13220E+005   -7.75785E+003    1.69836E+002   -1.81707E+002   -1.34827E+005
            8549    3.31719E+006    3.45475E+006    3.45475E+006    3.10978E+005   -1.21984E+004    3.46695E+006   -1.25118E+006    3.28149E+006    3.45475E+006    3.03933E+005   -5.15301E+003   -1.34973E+002    3.85546E+001   -4.71940E+004
            8550    3.33102E+006    3.43213E+006    3.43213E+006    3.06198E+005   -7.17466E+004    3.50388E+006   -1.22219E+006    3.28226E+006    3.43213E+006    2.30341E+005    4.11044E+003   -7.33859E+001   -3.34915E+002   -1.51379E+005
            8551    3.32640E+006    3.41977E+006    3.41977E+006    2.13185E+005   -1.47119E+004    3.43449E+006   -1.20608E+006    3.30876E+006    3.41977E+006    2.00114E+005   -1.64160E+003   -1.02239E+002    1.42705E+002   -5.29890E+004
            8552    3.33452E+006    3.41186E+006    3.41186E+006    2.44137E+005   -6.75669E+004    3.47943E+006   -1.19614E+006    3.30151E+006    3.41186E+006    1.41112E+005    3.54578E+004   -1.14262E+002   -4.27065E+002   -1.46626E+005
            8553    3.33492E+006    3.39115E+006    3.39115E+006    1.25008E+005   -8.53932E+003    3.39969E+006   -1.16920E+006    3.32889E+006    3.39115E+006    1.08266E+005    8.20240E+003    8.41060E+000    3.04136E+002   -4.42212E+004
            8554    3.34244E+006    3.36895E+006    3.36895E+006    5.90687E+004   -5.13676E+003    3.37408E+006   -1.14096E+006    3.34106E+006    3.36895E+006    4.44199E+004    9.51201E+003    8.82708E+001    1.14518E+002   -2.69433E+004
            8555    3.34736E+006    3.35621E+006    3.35621E+006    1.77358E+004    4.79115E+001    3.35617E+006   -1.12467E+006    3.34725E+006    3.35621E+006    9.31961E+003    8.46412E+003    2.91690E+000   -8.95621E+000   -8.83360E+003
            8556    3.33570E+006    3.39456E+006    3.39456E+006    1.61154E+005   -3.47964E+004    3.42935E+006   -1.17364E+006    3.32271E+006    3.39456E+006    6.51676E+004    6.11905E+004   -3.88470E+001   -3.36683E+001   -9.79552E+004
            8557    3.34293E+006    3.36774E+006    3.36774E+006    5.59881E+004   -5.51787E+003    3.37326E+006   -1.13940E+006    3.34166E+006    3.36774E+006    9.96467E+003    4.05056E+004    9.98313E+001    6.52962E+001   -2.66938E+004
            8558    3.33133E+006    3.48731E+006    3.48731E+006    4.92605E+005   -1.00873E+005    3.58818E+006   -1.29301E+006    3.20914E+006    3.48731E+006   -5.24999E+004    4.44232E+005    2.42537E+002    2.52569E+002   -1.62383E+005
            8559    3.32139E+006    3.49395E+006    3.49395E+006    4.71465E+005   -6.18183E+004    3.55577E+006   -1.30120E+006    3.22296E+006    3.49395E+006   -3.39754E+004    4.43622E+005   -1.40805E+002   -2.44885E+002   -1.18629E+005
            8560    3.31403E+006    3.49806E+006    3.49806E+006    4.57167E+005   -3.42405E+004    3.53230E+006   -1.30699E+006    3.23054E+006    3.49806E+006   -1.82798E+004    4.41206E+005   -1.62757E+002   -2.05465E+002   -8.71116E+004
            8561    3.30895E+006    3.50409E+006    3.50409E+006    4.54648E+005   -1.43194E+004    3.51841E+006   -1.31481E+006    3.23291E+006    3.50409E+006   -7.92962E+003    4.48258E+005   -5.52410E+001    2.68887E+001   -5.43669E+004
            8562    3.30531E+006    3.51253E+006    3.51253E+006    4.67152E+005   -2.48457E+003    3.51501E+006   -1.32573E+006    3.22897E+006    3.51253E+006   -1.72323E+003    4.66391E+005   -2.34153E+001    8.01126E+000   -1.88937E+004
            8563    3.32302E+006    3.50632E+006    3.50632E+006    5.17670E+005   -7.21057E+004    3.57842E+006   -1.31729E+006    3.20208E+006    3.50632E+006   -5.63774E+004    5.01942E+005    4.19559E+002    1.64730E+002   -9.50198E+004
            8564    3.31627E+006    3.51216E+006    3.51216E+006    5.05147E+005   -4.46498E+004    3.55681E+006   -1.32422E+006    3.21133E+006    3.51216E+006   -3.55755E+004    4.96073E+005   -2.96214E+002   -1.68303E+002   -7.00477E+004
            8565    3.31016E+006    3.51680E+006    3.51680E+006    5.01465E+005   -2.50658E+004    3.54186E+006   -1.33107E+006    3.21391E+006    3.51680E+006   -1.99244E+004    4.96324E+005   -3.05832E+002   -1.59054E+002   -5.17751E+004
            8566    3.30585E+006    3.52443E+006    3.52443E+006    5.08215E+005   -9.87929E+003    3.53431E+006   -1.34092E+006    3.21260E+006    3.52443E+006   -7.82948E+003    5.06165E+005   -8.90148E+001   -1.73746E+000   -3.25237E+004
            8567    3.30301E+006    3.53396E+006    3.53396E+006    5.28151E+005   -2.10210E+003    3.53606E+006   -1.35334E+006    3.20515E+006    3.53396E+006   -1.86097E+003    5.27910E+005   -4.66220E+001    1.05766E+000   -1.13050E+004
            8568    3.31860E+006    3.51696E+006    3.51696E+006    5.32286E+005   -5.67000E+004    3.57366E+006   -1.33085E+006    3.19783E+006    3.51696E+006   -5.51836E+004    5.30769E+005    5.28221E+002    5.58738E+001   -2.98461E+004
            8569    3.31383E+006    3.52229E+006    3.52229E+006    5.25371E+005   -3.65901E+004    3.55888E+006   -1.33702E+006    3.20399E+006    3.52229E+006   -3.56484E+004    5.24429E+005   -3.57691E+002   -6.65964E+001   -2.29850E+004
            8570    3.30804E+006    3.52742E+006    3.52742E+006    5.26304E+005   -1.96179E+004    3.54704E+006   -1.34470E+006    3.20434E+006    3.52742E+006   -1.90911E+004    5.25777E+005   -3.95949E+002   -6.10319E+001   -1.69504E+004
            8571    3.30458E+006    3.53536E+006    3.53536E+006    5.37696E+005   -8.15843E+003    3.54352E+006   -1.35497E+006    3.20079E+006    3.53536E+006   -7.94690E+003    5.37485E+005   -1.13983E+002   -4.36132E+000   -1.07434E+004
            8572    3.30204E+006    3.54557E+006    3.54557E+006    5.60852E+005   -1.54233E+003    3.54712E+006   -1.36829E+006    3.19161E+006    3.54557E+006   -1.51639E+003    5.60826E+005   -6.10478E+001   -2.37636E+000   -3.81912E+003
            8573    3.33144E+006    3.48059E+006    3.48059E+006    4.73729E+005   -1.00720E+005    3.58131E+006   -1.28453E+006    3.21717E+006    3.48059E+006    4.14266E+005   -4.12565E+004    2.19540E+001    3.00713E+001    1.74994E+005
            8574    3.31620E+006    3.48812E+006    3.48812E+006    4.34156E+005   -3.94152E+004    3.52753E+006   -1.29429E+006    3.23882E+006    3.48812E+006    4.12044E+005   -1.73026E+004   -2.85714E+002   -1.61591E+000    9.99145E+004
            8575    3.30848E+006    3.49694E+006    3.49694E+006    4.27275E+005   -7.39322E+003    3.50433E+006   -1.30561E+006    3.24331E+006    3.49694E+006    4.24428E+005   -4.54597E+003    6.56139E+001   -1.36113E+001    3.50643E+004
            8576    3.32382E+006    3.50054E+006    3.50054E+006    5.02692E+005   -7.38245E+004    3.57436E+006   -1.30980E+006    3.20842E+006    3.50054E+006    4.78696E+005   -4.98279E+004    6.34688E+001   -1.19387E+002    1.15146E+005
            8577    3.31134E+006    3.51092E+006    3.51092E+006    4.85933E+005   -2.69195E+004    3.53784E+006   -1.32331E+006    3.22017E+006    3.51092E+006    4.77605E+005   -1.85909E+004   -2.66071E+002    2.60676E+002    6.48227E+004
            8578    3.30483E+006    3.52280E+006    3.52280E+006    5.00131E+005   -5.83171E+003    3.52863E+006   -1.33903E+006    3.21596E+006    3.52280E+006    4.99075E+005   -4.77584E+003    3.08651E+001    4.29916E+000    2.30893E+004
            8579    3.31811E+006    3.51550E+006    3.51550E+006    5.25431E+005   -5.42559E+004    3.56976E+006   -1.32889E+006    3.20120E+006    3.51550E+006    5.20304E+005   -4.91289E+004    2.23098E+001   -2.27721E+002    5.42745E+004
            8580    3.30903E+006    3.52542E+006    3.52542E+006    5.21194E+005   -2.13521E+004    3.54677E+006   -1.34175E+006    3.20666E+006    3.52542E+006    5.19466E+005   -1.96239E+004   -1.21186E+002    4.30025E+002    3.05714E+004
            8581    3.30284E+006    3.53970E+006    3.53970E+006    5.46733E+005   -3.81815E+003    3.54352E+006   -1.36087E+006    3.19715E+006    3.53970E+006    5.46524E+005   -3.60945E+003    6.98768E+000    3.32754E+001    1.07173E+004
            8582    3.31653E+006    3.52009E+006    3.52009E+006    5.32301E+005   -4.84688E+004    3.56855E+006   -1.33464E+006    3.19911E+006    3.52009E+006    5.32285E+005   -4.84530E+004    1.15539E+001   -2.44842E+002   -3.02600E+003
            8583    3.30817E+006    3.53025E+006    3.53025E+006    5.32569E+005   -1.90476E+004    3.54930E+006   -1.34792E+006    3.20224E+006    3.53025E+006    5.32548E+005   -1.90260E+004   -1.98343E+001    4.66966E+002   -3.45322E+003
            8584    3.30257E+006    3.54424E+006    3.54424E+006    5.60035E+005   -4.04339E+003    3.54828E+006   -1.36674E+006    3.19148E+006    3.54424E+006    5.60031E+005   -4.03950E+003    8.64110E+000    5.53299E+001   -1.47971E+003
            8585    3.31843E+006    3.51442E+006    3.51442E+006    5.23138E+005   -5.51501E+004    3.56957E+006   -1.32747E+006    3.20211E+006    3.51442E+006    5.16914E+005   -4.89260E+004   -2.32926E+001   -2.52986E+002   -5.96702E+004
            8586    3.30944E+006    3.52314E+006    3.52314E+006    5.15387E+005   -2.21802E+004    3.54532E+006   -1.33878E+006    3.20900E+006    3.52314E+006    5.12694E+005   -1.94875E+004    1.30212E+002    4.44706E+002   -3.79502E+004
            8587    3.30299E+006    3.53662E+006    3.53662E+006    5.37911E+005   -3.71255E+003    3.54033E+006   -1.35694E+006    3.20079E+006    3.53662E+006    5.37579E+005   -3.37996E+003   -3.35085E-001    2.27991E+001   -1.34175E+004
            8588    3.32448E+006    3.49865E+006    3.49865E+006    4.99022E+005   -7.57221E+004    3.57438E+006   -1.30732E+006    3.20983E+006    3.49865E+006    4.72490E+005   -4.91909E+004   -2.43469E+001   -1.47007E+002   -1.20602E+005
            8589    3.31213E+006    3.50654E+006    3.50654E+006    4.75433E+005   -2.87894E+004    3.53533E+006   -1.31773E+006    3.22408E+006    3.50654E+006    4.65005E+005   -1.83615E+004    2.19635E+002    2.89049E+002   -7.17582E+004
            8590    3.30558E+006    3.51653E+006    3.51653E+006    4.83015E+005   -6.50468E+003    3.52304E+006   -1.33101E+006    3.22251E+006    3.51653E+006    4.81619E+005   -5.10888E+003   -3.78289E+001   -3.19055E-001   -2.61022E+004
            8591    3.30541E+006    3.51226E+006    3.51226E+006    4.66610E+005   -2.74120E+003    3.51500E+006   -1.32538E+006    3.22917E+006    3.51226E+006   -1.97631E+003    4.65846E+005   -1.86153E+001   -9.08445E+000    1.89319E+004
            8592    3.30895E+006    3.50407E+006    3.50407E+006    4.54632E+005   -1.43369E+004    3.51841E+006   -1.31479E+006    3.23291E+006    3.50407E+006   -7.90216E+003    4.48197E+005   -5.70665E+001   -2.39081E+001    5.45553E+004
            8593    3.31415E+006    3.49806E+006    3.49806E+006    4.57537E+005   -3.46629E+004    3.53273E+006   -1.30698E+006    3.23039E+006    3.49806E+006   -1.86370E+004    4.41511E+005   -1.30915E+002    2.16104E+002    8.73563E+004
            8594    3.32139E+006    3.49386E+006    3.49386E+006    4.72125E+005   -6.23561E+004    3.55622E+006   -1.30121E+006    3.22250E+006    3.49386E+006   -3.43967E+004    4.44166E+005   -9.38117E+001    2.51460E+002    1.19005E+005
            8595    3.33129E+006    3.48743E+006    3.48743E+006    4.92901E+005   -1.00784E+005    3.58821E+006   -1.29318E+006    3.20901E+006    3.48743E+006   -5.25566E+004    4.44674E+005    1.67862E+002   -2.13827E+002    1.62192E+005
            8596    3.30296E+006    3.53403E+006    3.53403E+006    5.28135E+005   -1.89434E+003    3.53593E+006   -1.35342E+006    3.20518E+006    3.53403E+006   -1.65792E+003    5.27899E+005   -4.45633E+001    9.12815E-001    1.11918E+004
            8597    3.30584E+006    3.52447E+006    3.52447E+006    5.08320E+005   -9.84795E+003    3.53432E+006   -1.34098E+006    3.21256E+006    3.52447E+006   -7.83388E+003    5.06306E+005   -8.69300E+001    2.69242E-001    3.22424E+004
            8598    3.31012E+006    3.51682E+006    3.51682E+006    5.01300E+005   -2.48622E+004    3.54169E+006   -1.33109E+006    3.21401E+006    3.51682E+006   -1.97430E+004    4.96181E+005   -3.01887E+002    1.74189E+002    5.16460E+004
            8599    3.31637E+006    3.51213E+006    3.51213E+006    5.05391E+005   -4.49989E+004    3.55713E+006   -1.32417E+006    3.21119E+006    3.51213E+006   -3.59548E+004    4.96347E+005   -2.68978E+002    1.95409E+002    6.99714E+004
            8600    3.32317E+006    3.50622E+006    3.50622E+006    5.17953E+005   -7.26553E+004    3.57887E+006   -1.31717E+006    3.20188E+006    3.50622E+006   -5.68480E+004    5.02145E+005    4.44325E+002   -1.89140E+002    9.53204E+004
            8601    3.30207E+006    3.54554E+006    3.54554E+006    5.60888E+005   -1.67187E+003    3.54721E+006   -1.36825E+006    3.19157E+006    3.54554E+006   -1.64629E+003    5.60863E+005   -6.20900E+001    3.36528E+000    3.79314E+003
            8602    3.30452E+006    3.53545E+006    3.53545E+006    5.37691E+005   -7.93069E+003    3.54338E+006   -1.35507E+006    3.20082E+006    3.53545E+006   -7.71811E+003    5.37478E+005   -1.09918E+002    4.84459E+000    1.07676E+004
            8603    3.30803E+006    3.52745E+006    3.52745E+006    5.26368E+005   -1.96019E+004    3.54705E+006   -1.34474E+006    3.20431E+006    3.52745E+006   -1.90769E+004    5.25843E+005   -4.01446E+002    6.13501E+001    1.69220E+004
            8604    3.31379E+006    3.52240E+006    3.52240E+006    5.25157E+005   -3.62231E+004    3.55862E+006   -1.33711E+006    3.20418E+006    3.52240E+006   -3.52940E+004    5.24228E+005   -3.72381E+002    5.91986E+001    2.28190E+004
            8605    3.31845E+006    3.51693E+006    3.51693E+006    5.31882E+005   -5.62713E+004    3.57320E+006   -1.33085E+006    3.19802E+006    3.51693E+006   -5.47380E+004    5.30349E+005    5.93003E+002   -5.92080E+001    2.99904E+004
            8606    3.35081E+006    3.42668E+006    3.42668E+006    3.87134E+005   -1.66450E+005    3.59313E+006   -1.21579E+006    3.24553E+006    3.42668E+006    1.62923E+005    5.77605E+004   -7.91205E+001    1.56424E+002    2.71752E+005
            8607    3.35200E+006    3.43016E+006    3.43016E+006    4.02118E+005   -1.71724E+005    3.60188E+006   -1.22018E+006    3.23872E+006    3.43016E+006    1.02006E+005    1.28388E+005   -2.42703E+002    8.92606E+001    2.86618E+005
            8608    3.35236E+006    3.43685E+006    3.43685E+006    4.24036E+005   -1.74445E+005    3.61129E+006   -1.22881E+006    3.22887E+006    3.43685E+006    4.68457E+004    2.02746E+005   -2.58996E+002   -2.12980E+000    2.88910E+005
            8609    3.34833E+006    3.44886E+006    3.44886E+006    4.43241E+005   -1.60131E+005    3.60899E+006   -1.24399E+006    3.22260E+006    3.44886E+006   -1.29274E+003    2.84403E+005   -2.39577E+002   -7.66432E+001    2.65724E+005
            8610    3.34115E+006    3.46583E+006    3.46583E+006    4.66481E+005   -1.35330E+005    3.60116E+006   -1.26566E+006    3.21580E+006    3.46583E+006   -3.65402E+004    3.67691E+005   -7.11859E+001   -1.97222E+002    2.22920E+005
            8611    3.32835E+006    3.47170E+006    3.47170E+006    4.34140E+005   -8.61522E+004    3.55786E+006   -1.27323E+006    3.23496E+006    3.47170E+006   -2.65697E+004    3.74557E+005    1.00404E+002    2.09614E+002    1.65681E+005
            8612    3.32061E+006    3.47414E+006    3.47414E+006    4.05970E+005   -5.14807E+004    3.52562E+006   -1.27621E+006    3.24858E+006    3.47414E+006   -1.57156E+004    3.70205E+005    4.94219E+001    1.68207E+002    1.22807E+005
            8613    3.31414E+006    3.47782E+006    3.47782E+006    3.87082E+005   -2.17791E+004    3.49960E+006   -1.28104E+006    3.25667E+006    3.47782E+006   -6.52008E+003    3.71823E+005   -4.80233E+001   -5.51315E+001    7.74984E+004
            8614    3.31019E+006    3.48264E+006    3.48264E+006    3.83322E+005   -4.29911E+003    3.48694E+006   -1.28722E+006    3.25854E+006    3.48264E+006   -2.41921E+003    3.81442E+005   -7.19639E-002   -2.81744E+001    2.69287E+004
            8615    3.33573E+006    3.45047E+006    3.45047E+006    3.99580E+005   -1.11186E+005    3.56166E+006   -1.24629E+006    3.24600E+006    3.45047E+006   -7.66071E+003    2.96055E+005    2.67259E+002    6.26411E+001    2.05328E+005
            8616    3.32744E+006    3.45084E+006    3.45084E+006    3.56406E+005   -6.87357E+004    3.51958E+006   -1.24617E+006    3.26550E+006    3.45084E+006   -4.36067E+003    2.92031E+005    1.42626E+002    5.65576E+001    1.52396E+005
            8617    3.32097E+006    3.44996E+006    3.44996E+006    3.17847E+005   -3.21474E+004    3.48211E+006   -1.24522E+006    3.27909E+006    3.44996E+006   -2.88167E+003    2.88581E+005   -6.01962E+001   -6.93127E+001    9.68833E+004
            8618    3.31730E+006    3.44965E+006    3.44965E+006    2.90549E+005   -5.95509E+003    3.45560E+006   -1.24475E+006    3.28729E+006    3.44965E+006   -2.04740E+003    2.86642E+005    3.75277E+000   -3.68193E+001    3.38138E+004
            8619    3.34002E+006    3.43484E+006    3.43484E+006    3.67684E+005   -1.23617E+005    3.55845E+006   -1.22630E+006    3.25723E+006    3.43484E+006    2.75048E+004    2.16562E+005    3.61861E+002   -9.55090E+001    2.26734E+005
            8620    3.33318E+006    3.43085E+006    3.43085E+006    3.11685E+005   -8.14801E+004    3.51233E+006   -1.22035E+006    3.28041E+006    3.43085E+006    1.42028E+004    2.16002E+005    1.35277E+002   -3.78818E+001    1.68713E+005
            8621    3.32743E+006    3.42548E+006    3.42548E+006    2.55161E+005   -3.94656E+004    3.46494E+006   -1.21372E+006    3.29789E+006    3.42548E+006    6.30062E+003    2.09394E+005   -9.96544E+001   -5.83361E+001    1.06721E+005
            8622    3.32598E+006    3.41761E+006    3.41761E+006    2.00157E+005   -7.19113E+003    3.42480E+006   -1.20353E+006    3.31139E+006    3.41761E+006   -4.37985E+002    1.93404E+005   -3.99128E+000   -2.76424E+001    3.68056E+004
            8623    3.34229E+006    3.42369E+006    3.42369E+006    3.39552E+005   -1.27594E+005    3.55128E+006   -1.21188E+006    3.26763E+006    3.42369E+006    6.98799E+004    1.42079E+005    4.22067E+002   -2.80181E+002    2.30766E+005
            8624    3.33539E+006    3.41732E+006    3.41732E+006    2.68979E+005   -7.79896E+004    3.49531E+006   -1.20277E+006    3.29442E+006    3.41732E+006    4.45597E+004    1.46430E+005   -3.08905E+001   -4.54867E+001    1.65839E+005
            8625    3.33244E+006    3.40536E+006    3.40536E+006    1.97604E+005   -3.91289E+004    3.44449E+006   -1.18795E+006    3.31344E+006    3.40536E+006    1.82128E+004    1.40263E+005   -8.49026E+001   -7.62862E+000    1.01423E+005
            8626    3.33479E+006    3.39049E+006    3.39049E+006    1.22545E+005   -7.35354E+003    3.39785E+006   -1.16856E+006    3.32910E+006    3.39049E+006    2.35037E+003    1.12841E+005   -9.60359E+000   -2.16555E+001    3.41520E+004
            8627    3.33921E+006    3.42061E+006    3.42061E+006    3.11144E+005   -1.08643E+005    3.52925E+006   -1.20770E+006    3.27905E+006    3.42061E+006    1.31045E+005    7.14569E+004    3.85694E+002   -3.33363E+002    2.07768E+005
            8628    3.33519E+006    3.40640E+006    3.40640E+006    2.18118E+005   -5.84694E+004    3.46487E+006   -1.18868E+006    3.30924E+006    3.40640E+006    7.25403E+004    8.71087E+004   -1.97884E+002    8.31257E+001    1.38102E+005
            8629    3.33582E+006    3.39011E+006    3.39011E+006    1.42757E+005   -2.76526E+004    3.41776E+006   -1.16840E+006    3.32601E+006    3.39011E+006    3.02289E+004    8.48757E+004    1.34357E+000    6.34867E+000    8.07051E+004
            8630    3.34220E+006    3.37017E+006    3.37017E+006    6.35023E+004   -6.46682E+003    3.37663E+006   -1.14240E+006    3.34055E+006    3.37017E+006    5.00391E+003    5.20315E+004   -4.15447E+001    3.26401E+000    2.59040E+004
            8631    3.34640E+006    3.35873E+006    3.35873E+006    2.58039E+004   -9.88724E+002    3.35972E+006   -1.12785E+006    3.34616E+006    3.35873E+006    8.35302E+003    1.64622E+004   -9.90058E+000    1.94529E+001    1.27680E+004
            8632    3.34927E+006    3.35172E+006    3.35172E+006    4.86050E+003    3.14166E+001    3.35168E+006   -1.11887E+006    3.34926E+006    3.35172E+006    2.56863E+003    2.32329E+003   -1.32288E+001    1.68872E+000    2.41143E+003
            8633    3.33949E+006    3.37696E+006    3.37696E+006    8.65571E+004   -9.55644E+003    3.38651E+006   -1.15132E+006    3.33638E+006    3.37696E+006    3.66907E+004    4.03100E+004   -3.28815E+001    3.16210E+000    4.80227E+004
            8634    3.34560E+006    3.36068E+006    3.36068E+006    3.11180E+004   -7.31479E+002    3.36141E+006   -1.13036E+006    3.34526E+006    3.36068E+006    2.04240E+004    9.96259E+003   -2.31628E+001    2.67029E+001    1.50412E+004
            8635    3.33545E+006    3.39433E+006    3.39433E+006    1.60617E+005   -3.42943E+004    3.42863E+006   -1.17355E+006    3.32260E+006    3.39433E+006    8.51269E+004    4.11956E+004   -4.22705E+001    1.28964E+002    9.49479E+004
            8636    3.33898E+006    3.37799E+006    3.37799E+006    8.58020E+004   -5.88488E+003    3.38388E+006   -1.15264E+006    3.33614E+006    3.37799E+006    6.96920E+004    1.02251E+004    2.08416E+000    1.35792E+001    3.48933E+004
            8637    3.33316E+006    3.41667E+006    3.41667E+006    2.54354E+005   -6.44281E+004    3.48110E+006   -1.20220E+006    3.29860E+006    3.41667E+006    1.63969E+005    2.59577E+004    4.12141E+001   -1.13636E+002    1.43680E+005
            8638    3.33085E+006    3.40274E+006    3.40274E+006    1.60987E+005   -1.05790E+004    3.41332E+006   -1.18438E+006    3.32089E+006    3.40274E+006    1.45968E+005    4.43995E+003    1.38374E+001    8.21891E+001    4.84889E+004
            8639    3.32302E+006    3.43113E+006    3.43113E+006    2.42916E+005   -1.20126E+004    3.44314E+006   -1.22068E+006    3.30091E+006    3.43113E+006    2.31606E+005   -7.02872E+002    7.39210E+001    1.21574E+002    5.24907E+004
            8640    3.31538E+006    3.46388E+006    3.46388E+006    3.37436E+005   -1.26602E+004    3.47654E+006   -1.26288E+006    3.27341E+006    3.46388E+006    3.31046E+005   -6.27082E+003    1.18283E+002    1.00155E+001    4.68621E+004
            8641    3.32962E+006    3.43826E+006    3.43826E+006    3.24547E+005   -7.18057E+004    3.51006E+006   -1.23033E+006    3.27592E+006    3.43826E+006    2.48346E+005    4.39545E+003    4.40834E+001   -4.06951E+002    1.56192E+005
            8642    3.32268E+006    3.46280E+006    3.46280E+006    3.78562E+005   -5.56271E+004    3.51843E+006   -1.26191E+006    3.25794E+006    3.46280E+006    3.34433E+005   -1.14978E+004   -2.01555E+002   -2.77000E+002    1.31199E+005
            8643    3.33853E+006    3.45997E+006    3.45997E+006    4.40226E+005   -1.25156E+005    3.58512E+006   -1.25835E+006    3.22818E+006    3.45997E+006    3.32388E+005   -1.73180E+004    4.96182E+001    1.73055E+002    2.22127E+005
            8644    3.34510E+006    3.43933E+006    3.43933E+006    4.04175E+005   -1.47195E+005    3.58653E+006   -1.23210E+006    3.24049E+006    3.43933E+006    2.41102E+005    1.58777E+004    3.91273E+001    1.88032E+002    2.51636E+005
            8645    3.34706E+006    3.42079E+006    3.42079E+006    3.56667E+005   -1.51180E+005    3.57197E+006   -1.20876E+006    3.25869E+006    3.42079E+006    7.97529E+004    1.25735E+005   -1.01154E+003    4.26635E+002    2.52880E+005
            8646    3.34345E+006    3.43597E+006    3.43597E+006    3.94097E+005   -1.43828E+005    3.57980E+006   -1.22875E+006    3.24395E+006    3.43597E+006    3.86290E+004    2.11641E+005   -1.36486E+003   -9.67512E+001    2.54671E+005
            8647    3.34098E+006    3.45089E+006    3.45089E+006    4.29997E+005   -1.37477E+005    3.58837E+006   -1.24780E+006    3.22987E+006    3.45089E+006   -3.82628E+003    2.96347E+005   -1.18806E+003   -4.19773E+002    2.40791E+005
            8648    3.33515E+006    3.46910E+006    3.46910E+006    4.58056E+005   -1.15705E+005    3.58481E+006   -1.27048E+006    3.22129E+006    3.46910E+006   -3.34107E+004    3.75762E+005   -5.49108E+002   -8.22870E+002    2.01109E+005
            8649    3.31970E+006    3.47661E+006    3.47661E+006    4.07900E+005   -4.71367E+004    3.52375E+006   -1.27912E+006    3.24843E+006    3.47661E+006   -1.61165E+004    3.76880E+005   -7.28364E+001    3.13828E+002    1.14687E+005
            8650    3.31092E+006    3.48163E+006    3.48163E+006    3.84211E+005   -7.88660E+003    3.48951E+006   -1.28598E+006    3.25808E+006    3.48163E+006   -3.61104E+003    3.79935E+005    1.13492E+002    2.26699E+002    4.07205E+004
            8651    3.32696E+006    3.45250E+006    3.45250E+006    3.51959E+005   -6.21118E+004    3.51461E+006   -1.24745E+006    3.26824E+006    3.45250E+006   -6.94710E+003    2.96794E+005   -4.98000E+001    2.31610E+002    1.40709E+005
            8652    3.31846E+006    3.44757E+006    3.44757E+006    2.92442E+005   -1.30911E+004    3.46066E+006   -1.24231E+006    3.28659E+006    3.44757E+006   -4.62305E+003    2.83974E+005    1.43074E+002    2.10852E+002    5.01554E+004
            8653    3.33322E+006    3.42955E+006    3.42955E+006    2.99235E+005   -7.49801E+004    3.50453E+006   -1.21794E+006    3.28546E+006    3.42955E+006    7.08246E+003    2.17173E+005    6.22266E+001    3.16687E+002    1.54838E+005
            8654    3.32681E+006    3.41496E+006    3.41496E+006    2.00111E+005   -1.35208E+004    3.42848E+006   -1.20052E+006    3.31133E+006    3.41496E+006    1.09326E+003    1.85497E+005    2.46042E+002    4.73714E+001    5.39301E+004
            8655    3.33606E+006    3.41184E+006    3.41184E+006    2.40576E+005   -6.76176E+004    3.47946E+006   -1.19493E+006    3.30380E+006    3.41184E+006    4.05835E+004    1.32375E+005    4.89464E+002   -2.92559E+001    1.47103E+005
            8656    3.33454E+006    3.38816E+006    3.38816E+006    1.17934E+005   -7.17319E+003    3.39533E+006   -1.16631E+006    3.32925E+006    3.38816E+006    1.06664E+004    1.00094E+005    8.35311E+000   -2.21601E+000    4.37447E+004
            8657    3.34254E+006    3.36793E+006    3.36793E+006    5.66551E+004   -5.02852E+003    3.37295E+006   -1.13985E+006    3.34126E+006    3.36793E+006    1.04734E+004    4.11532E+004    1.35200E+001    2.93720E+001    2.67564E+004
            8658    3.34747E+006    3.35617E+006    3.35617E+006    1.75715E+004   -9.49489E+001    3.35627E+006   -1.12455E+006    3.34736E+006    3.35617E+006    8.99363E+003    8.48289E+003    2.93625E+001   -2.38892E+001    8.82952E+003
            8659    3.33562E+006    3.39436E+006    3.39436E+006    1.60739E+005   -3.46729E+004    3.42903E+006   -1.17347E+006    3.32270E+006    3.39436E+006    6.49959E+004    6.10699E+004    2.65149E+002   -2.42362E+002    9.76860E+004
            8660    3.34222E+006    3.36869E+006    3.36869E+006    5.87853E+004   -4.92885E+003    3.37362E+006   -1.14085E+006    3.34085E+006    3.36869E+006    4.40239E+004    9.83249E+003   -3.13770E+001   -3.03677E+001    2.68814E+004
            8661    3.33375E+006    3.39034E+006    3.39034E+006    1.24070E+005   -7.01932E+003    3.39736E+006   -1.16913E+006    3.32794E+006    3.39034E+006    1.07284E+005    9.76721E+003   -7.26816E+000    6.40737E+000    4.38035E+004
            8662    3.32571E+006    3.41896E+006    3.41896E+006    2.11436E+005   -1.35166E+004    3.43248E+006   -1.20563E+006    3.30853E+006    3.41896E+006    1.98195E+005   -2.75473E+002   -5.93146E+001   -2.01178E+002    5.29461E+004
            8663    3.31696E+006    3.45429E+006    3.45429E+006    3.10245E+005   -1.20546E+004    3.46634E+006   -1.25083E+006    3.28145E+006    3.45429E+006    3.03130E+005   -4.93995E+003   -2.10472E+002   -5.32702E+001    4.73543E+004
            8664    3.30956E+006    3.48941E+006    3.48941E+006    4.05148E+005   -6.86141E+003    3.49627E+006   -1.29590E+006    3.25111E+006    3.48941E+006    4.01721E+005   -3.43426E+003   -1.95151E+002   -2.54292E+000    3.74202E+004
            8665    3.33577E+006    3.41277E+006    3.41277E+006    2.43828E+005   -6.79310E+004    3.48070E+006   -1.19622E+006    3.30275E+006    3.41277E+006    1.40966E+005    3.49310E+004    5.29760E+001   -5.78712E+002    1.46586E+005
            8666    3.33184E+006    3.43239E+006    3.43239E+006    3.05881E+005   -7.24817E+004    3.50487E+006   -1.22193E+006    3.28299E+006    3.43239E+006    2.30709E+005    2.69048E+003   -3.33012E+002   -1.75194E+002    1.50969E+005
            8667    3.32440E+006    3.45729E+006    3.45729E+006    3.62278E+005   -5.67548E+004    3.51405E+006   -1.25427E+006    3.26419E+006    3.45729E+006    3.13962E+005   -8.43804E+003   -2.46387E+002    1.65769E+001    1.33835E+005
            8668    3.31689E+006    3.48248E+006    3.48248E+006    4.20836E+005   -4.12157E+004    3.52369E+006   -1.28737E+006    3.24330E+006    3.48248E+006    3.95432E+005   -1.58123E+004   -2.03731E+002    3.49488E+001    1.05320E+005
            8669    3.33268E+006    3.47822E+006    3.47822E+006    4.68369E+005   -1.03326E+005    3.58155E+006   -1.28109E+006    3.21958E+006    3.47822E+006    4.04817E+005   -3.97739E+004    8.11836E+002   -2.09605E+002    1.79704E+005
            8670    3.33955E+006    3.45721E+006    3.45721E+006    4.36927E+005   -1.29225E+005    3.58644E+006   -1.25497E+006    3.22892E+006    3.45721E+006    3.22961E+005   -1.52584E+004    6.37455E+002    5.11539E+002    2.27011E+005
            8671    3.34295E+006    3.43906E+006    3.43906E+006    3.98229E+005   -1.40556E+005    3.57961E+006   -1.23224E+006    3.24310E+006    3.43906E+006    2.34170E+005    2.35035E+004    2.68757E+002    9.60502E+002    2.47946E+005
            8672    3.34720E+006    3.42125E+006    3.42125E+006    3.58009E+005   -1.51492E+005    3.57274E+006   -1.20925E+006    3.25824E+006    3.42125E+006    1.43419E+005    6.30977E+004   -4.38826E+002    8.17128E+002    2.51565E+005
            8673    3.30669E+006    3.51016E+006    3.51016E+006    4.65179E+005   -7.38124E+003    3.51754E+006   -1.32265E+006    3.22941E+006    3.51016E+006   -5.48741E+003    4.63285E+005   -1.35790E+001    2.50133E+002    2.98557E+004
            8674    3.31320E+006    3.49987E+006    3.49987E+006    4.60796E+005   -3.22105E+004    3.53208E+006   -1.30948E+006    3.22913E+006    3.49987E+006   -1.85784E+004    4.47164E+005    1.78111E+001    1.16797E+002    8.08385E+004
            8675    3.32795E+006    3.49014E+006    3.49014E+006    4.88473E+005   -8.86117E+004    3.57875E+006   -1.29667E+006    3.21248E+006    3.49014E+006   -4.80551E+004    4.47916E+005    9.00974E+001   -7.83108E+002    1.47512E+005
            8676    3.30394E+006    3.53188E+006    3.53188E+006    5.24761E+005   -4.88717E+003    3.53677E+006   -1.35059E+006    3.20634E+006    3.53188E+006   -4.31174E+003    5.24185E+005   -8.97610E+001    1.69237E+002    1.74483E+004
            8677    3.30881E+006    3.51767E+006    3.51767E+006    5.04290E+005   -2.32001E+004    3.54087E+006   -1.33292E+006    3.21217E+006    3.51767E+006   -1.87462E+004    4.99836E+005    1.64515E+002    1.39911E+002    4.82654E+004
            8678    3.32146E+006    3.50933E+006    3.50933E+006    5.15054E+005   -6.33434E+004    3.57268E+006   -1.32035E+006    3.20521E+006    3.50933E+006   -5.01163E+004    5.01828E+005    7.69586E+002   -7.33828E+002    8.64606E+004
            8679    3.30308E+006    3.54308E+006    3.54308E+006    5.56375E+005   -4.54115E+003    3.54762E+006   -1.36497E+006    3.19328E+006    3.54308E+006   -4.47951E+003    5.56313E+005   -1.49614E+002    8.36524E+001    5.87966E+003
            8680    3.30653E+006    3.52746E+006    3.52746E+006    5.29143E+005   -1.88259E+004    3.54629E+006   -1.34593E+006    3.20198E+006    3.52746E+006   -1.83979E+004    5.28715E+005    2.41986E+002    1.18046E+001    1.53077E+004
            8681    3.31834E+006    3.52068E+006    3.52068E+006    5.31384E+005   -4.98907E+004    3.57057E+006   -1.33406E+006    3.20078E+006    3.52068E+006   -4.84593E+004    5.29953E+005    1.31733E+003   -2.95299E+002    2.88047E+004
            8682    3.30854E+006    3.49627E+006    3.49627E+006    4.25520E+005   -7.44520E+003    3.50371E+006   -1.30478E+006    3.24389E+006    3.49627E+006    4.22532E+005   -4.45675E+003    2.07624E+002   -2.86508E+001   -3.58464E+004
            8683    3.31664E+006    3.48789E+006    3.48789E+006    4.33499E+005   -4.00865E+004    3.52797E+006   -1.29377E+006    3.23926E+006    3.48789E+006    4.11330E+005   -1.79168E+004    8.28619E+001    4.66323E+001   -1.00039E+005
            8684    3.33088E+006    3.48026E+006    3.48026E+006    4.73347E+005   -1.00125E+005    3.58039E+006   -1.28449E+006    3.21699E+006    3.48026E+006    4.13924E+005   -4.07018E+004   -6.43524E+002    3.03753E+002   -1.74775E+005
            8685    3.30512E+006    3.52238E+006    3.52238E+006    4.98852E+005   -6.19433E+003    3.52858E+006   -1.33835E+006    3.21659E+006    3.52238E+006    4.97734E+005   -5.07585E+003    1.62197E+002    5.40490E+001   -2.37409E+004
            8686    3.31073E+006    3.51028E+006    3.51028E+006    4.85620E+005   -2.67714E+004    3.53705E+006   -1.32304E+006    3.21971E+006    3.51028E+006    4.77386E+005   -1.85378E+004    1.57562E+002   -9.70451E+001   -6.44282E+004
            8687    3.32390E+006    3.50065E+006    3.50065E+006    5.02677E+005   -7.37643E+004    3.57442E+006   -1.30985E+006    3.20854E+006    3.50065E+006    4.78495E+005   -4.95822E+004   -8.07122E+002   -3.22831E+002   -1.15563E+005
            8688    3.30332E+006    3.53963E+006    3.53963E+006    5.46297E+005   -4.44758E+003    3.54407E+006   -1.36049E+006    3.19757E+006    3.53963E+006    5.46073E+005   -4.22304E+003    1.25221E+002    7.67631E+001   -1.11181E+004
            8689    3.30763E+006    3.52431E+006    3.52431E+006    5.20995E+005   -2.07397E+004    3.54505E+006   -1.34152E+006    3.20553E+006    3.52431E+006    5.19294E+005   -1.90383E+004    1.21547E+001   -1.27429E+002   -3.03117E+004
            8690    3.31885E+006    3.51669E+006    3.51669E+006    5.25605E+005   -5.36570E+004    3.57034E+006   -1.32955E+006    3.20214E+006    3.51669E+006    5.20334E+005   -4.83858E+004   -3.50971E+002   -8.45151E+002   -5.50044E+004
            8691    3.30303E+006    3.54435E+006    3.54435E+006    5.60240E+005   -4.70901E+003    3.54906E+006   -1.36663E+006    3.19160E+006    3.54435E+006    5.60236E+005   -4.70571E+003    3.31165E+001    1.59606E+002    1.36362E+003
            8692    3.30670E+006    3.52908E+006    3.52908E+006    5.32698E+005   -1.86334E+004    3.54771E+006   -1.34771E+006    3.20083E+006    3.52908E+006    5.32677E+005   -1.86126E+004    5.11996E+001   -2.68184E+002    3.38386E+003
            8693    3.31719E+006    3.52121E+006    3.52121E+006    5.33249E+005   -4.82919E+004    3.56950E+006   -1.33539E+006    3.19947E+006    3.52121E+006    5.33241E+005   -4.82836E+004   -1.10122E+002   -9.24113E+002    2.17190E+003
            8694    3.30348E+006    3.53701E+006    3.53701E+006    5.38737E+005   -4.36463E+003    3.54138E+006   -1.35713E+006    3.20072E+006    3.53701E+006    5.38402E+005   -4.02988E+003   -4.14357E+001    1.06112E+002    1.34791E+004
            8695    3.30774E+006    3.52193E+006    3.52193E+006    5.15649E+005   -2.15144E+004    3.54344E+006   -1.33869E+006    3.20740E+006    3.52193E+006    5.12981E+005   -1.88465E+004   -2.29976E+001   -1.61051E+002    3.77621E+004
            8696    3.31940E+006    3.51608E+006    3.51608E+006    5.23680E+005   -5.43792E+004    3.57046E+006   -1.32846E+006    3.20321E+006    3.51608E+006    5.17678E+005   -4.83767E+004    1.66196E+002   -1.09142E+003    5.85966E+004
            8697    3.30592E+006    3.51708E+006    3.51708E+006    4.84395E+005   -7.05646E+003    3.52414E+006   -1.33147E+006    3.22220E+006    3.51708E+006    4.82986E+005   -5.64676E+003   -1.41521E+002    1.47746E+002    2.62832E+004
            8698    3.31097E+006    3.50577E+006    3.50577E+006    4.75044E+005   -2.79085E+004    3.53367E+006   -1.31763E+006    3.22335E+006    3.50577E+006    4.64808E+005   -1.76734E+004   -4.24568E+001   -1.08342E+002    7.10141E+004
            8699    3.32517E+006    3.49992E+006    3.49992E+006    4.99767E+005   -7.52674E+004    3.57518E+006   -1.30814E+006    3.21043E+006    3.49992E+006    4.73407E+005   -4.89072E+004    6.26748E+002   -7.39429E+002    1.20262E+005
            8700    3.32838E+006    3.49054E+006    3.49054E+006    4.88672E+005   -8.87831E+004    3.57932E+006   -1.29681E+006    3.21276E+006    3.49054E+006   -4.82947E+004    4.48184E+005    2.95690E+002    9.31232E+002   -1.47448E+005
            8701    3.31289E+006    3.49995E+006    3.49995E+006    4.61030E+005   -3.17034E+004    3.53166E+006   -1.30976E+006    3.22890E+006    3.49995E+006   -1.82710E+004    4.47598E+005    7.83189E+001   -1.49415E+002   -8.02383E+004
            8702    3.30669E+006    3.51049E+006    3.51049E+006    4.66217E+005   -7.51883E+003    3.51801E+006   -1.32306E+006    3.22902E+006    3.51049E+006   -5.64916E+003    4.64347E+005   -6.17306E+001   -2.53025E+002   -2.97024E+004
            8703    3.32199E+006    3.51010E+006    3.51010E+006    5.15406E+005   -6.31751E+004    3.57327E+006   -1.32078E+006    3.20568E+006    3.51010E+006   -5.01117E+004    5.02343E+005    1.08583E+003    6.72185E+002   -8.59498E+004
            8704    3.30847E+006    3.51741E+006    3.51741E+006    5.04114E+005   -2.29632E+004    3.54037E+006   -1.33285E+006    3.21197E+006    3.51741E+006   -1.84952E+004    4.99646E+005    1.74955E+002   -1.43590E+002   -4.83220E+004
            8705    3.30397E+006    3.53207E+006    3.53207E+006    5.25156E+005   -4.88239E+003    3.53695E+006   -1.35078E+006    3.20622E+006    3.53207E+006   -4.31506E+003    5.24588E+005   -1.05351E+002   -1.55956E+002   -1.73316E+004
            8706    3.31846E+006    3.52098E+006    3.52098E+006    5.31494E+005   -4.96749E+004    3.57065E+006   -1.33427E+006    3.20094E+006    3.52098E+006   -4.83170E+004    5.30136E+005    1.40617E+003    1.37621E+002   -2.80532E+004
            8707    3.30639E+006    3.52738E+006    3.52738E+006    5.28964E+005   -1.86187E+004    3.54599E+006   -1.34591E+006    3.20198E+006    3.52738E+006   -1.81573E+004    5.28503E+005    2.79045E+002    3.75841E+000   -1.58876E+004
            8708    3.30311E+006    3.54308E+006    3.54308E+006    5.56406E+005   -4.60605E+003    3.54768E+006   -1.36496E+006    3.19327E+006    3.54308E+006   -4.54386E+003    5.56344E+005   -1.88323E+002   -5.35819E+001   -5.90561E+003
            8709    3.34186E+006    3.36970E+006    3.36970E+006    6.19950E+004   -5.30190E+003    3.37500E+006   -1.14213E+006    3.34033E+006    3.36970E+006    6.01319E+003    5.06799E+004   -7.28409E+001   -2.83403E+001   -2.51682E+004
            8710    3.33475E+006    3.38951E+006    3.38951E+006    1.20278E+005   -7.11727E+003    3.39662E+006   -1.16756E+006    3.32927E+006    3.38951E+006    2.61246E+003    1.10549E+005   -9.08738E+001    1.37880E+001   -3.38358E+004
            8711    3.32606E+006    3.41693E+006    3.41693E+006    1.98264E+005   -6.99755E+003    3.42393E+006   -1.20273E+006    3.31176E+006    3.41693E+006   -3.85014E+002    1.91651E+005   -5.04540E+001    5.76872E+001   -3.62433E+004
            8712    3.31716E+006    3.44963E+006    3.44963E+006    2.90190E+005   -5.46454E+003    3.45509E+006   -1.24479E+006    3.28732E+006    3.44963E+006   -1.61455E+003    2.86340E+005   -4.34033E+001    8.45317E+001   -3.35178E+004
            8713    3.31017E+006    3.48259E+006    3.48259E+006    3.83366E+005   -4.38179E+003    3.48697E+006   -1.28719E+006    3.25849E+006    3.48259E+006   -2.51505E+003    3.81499E+005   -1.18318E+001    1.07908E+002   -2.68391E+004
            8714    3.33636E+006    3.39047E+006    3.39047E+006    1.42761E+005   -2.79896E+004    3.41846E+006   -1.16841E+006    3.32651E+006    3.39047E+006    3.02877E+004    8.44841E+004    4.59207E+001    4.74450E+001   -8.09609E+004
            8715    3.33288E+006    3.40514E+006    3.40514E+006    1.95922E+005   -3.89806E+004    3.44412E+006   -1.18736E+006    3.31418E+006    3.40514E+006    1.73609E+004    1.39580E+005    7.77536E+001    3.98189E+001   -1.00301E+005
            8716    3.32755E+006    3.42525E+006    3.42525E+006    2.53696E+005   -3.89539E+004    3.46421E+006   -1.21333E+006    3.29841E+006    3.42525E+006    6.35785E+003    2.08384E+005    6.30205E+000    5.89772E+000   -1.05865E+005
            8717    3.32106E+006    3.44998E+006    3.44998E+006    3.17500E+005   -3.20120E+004    3.48199E+006   -1.24516E+006    3.27930E+006    3.44998E+006   -3.17687E+003    2.88665E+005    1.78382E+001    2.33066E+001   -9.61602E+004
            8718    3.31400E+006    3.47796E+006    3.47796E+006    3.86965E+005   -2.12208E+004    3.49919E+006   -1.28124E+006    3.25672E+006    3.47796E+006   -6.22059E+003    3.71965E+005    1.93247E+001    9.28326E+000   -7.67976E+004
            8719    3.33417E+006    3.40563E+006    3.40563E+006    2.18508E+005   -5.83239E+004    3.46396E+006   -1.18861E+006    3.30817E+006    3.40563E+006    7.34113E+004    8.67726E+004   -2.33690E+002   -1.55992E+002   -1.38255E+005
            8720    3.33453E+006    3.41682E+006    3.41682E+006    2.68454E+005   -7.69891E+004    3.49381E+006   -1.20276E+006    3.29392E+006    3.41682E+006    4.48538E+004    1.46612E+005   -3.90189E+002   -5.73254E+001   -1.65058E+005
            8721    3.33272E+006    3.43104E+006    3.43104E+006    3.11922E+005   -8.05254E+004    3.51156E+006   -1.22081E+006    3.28013E+006    3.43104E+006    1.39821E+004    2.17415E+005   -3.10945E+002    1.68171E+002   -1.67802E+005
            8722    3.32711E+006    3.45100E+006    3.45100E+006    3.56649E+005   -6.80631E+004    3.51907E+006   -1.24653E+006    3.26528E+006    3.45100E+006   -4.22744E+003    2.92813E+005   -2.15958E+002    2.47329E+002   -1.51779E+005
            8723    3.32029E+006    3.47418E+006    3.47418E+006    4.05837E+005   -5.07767E+004    3.52496E+006   -1.27641E+006    3.24852E+006    3.47418E+006   -1.53140E+004    3.70374E+005   -1.32129E+002    2.95837E+002   -1.22209E+005
            8724    3.34077E+006    3.42248E+006    3.42248E+006    3.11644E+005   -1.08491E+005    3.53097E+006   -1.20854E+006    3.28055E+006    3.42248E+006    1.31325E+005    7.18284E+004   -1.94472E+002   -1.07213E+002   -2.07950E+005
            8725    3.34421E+006    3.42554E+006    3.42554E+006    3.40328E+005   -1.28242E+005    3.55378E+006   -1.21254E+006    3.26913E+006    3.42554E+006    6.87970E+004    1.43289E+005    1.07392E+002    2.27214E+002   -2.31305E+005
            8726    3.34141E+006    3.43637E+006    3.43637E+006    3.68218E+005   -1.23754E+005    3.56012E+006   -1.22694E+006    3.25843E+006    3.43637E+006    2.51568E+004    2.19307E+005    3.84758E+002    1.35321E+002   -2.26021E+005
            8727    3.33662E+006    3.45163E+006    3.45163E+006    4.00217E+005   -1.11163E+005    3.56279E+006   -1.24689E+006    3.24670E+006    3.45163E+006   -9.23732E+003    2.98291E+005    2.98518E+002   -4.87801E+001   -2.04288E+005
            8728    3.32839E+006    3.47204E+006    3.47204E+006    4.34142E+005   -8.56791E+004    3.55772E+006   -1.27350E+006    3.23517E+006    3.47204E+006   -2.70873E+004    3.75550E+005   -6.57378E+000   -2.04335E+002   -1.64391E+005
            8729    3.34119E+006    3.46514E+006    3.46514E+006    4.66142E+005   -1.36281E+005    3.60142E+006   -1.26500E+006    3.21558E+006    3.46514E+006   -3.61802E+004    3.66041E+005    1.90739E+002   -1.07732E+003   -2.24238E+005
            8730    3.34728E+006    3.44735E+006    3.44735E+006    4.42869E+005   -1.60628E+005    3.60798E+006   -1.24320E+006    3.22145E+006    3.44735E+006   -2.99808E+002    2.82541E+005    8.69051E+002   -5.70316E+002   -2.66557E+005
            8731    3.35105E+006    3.43528E+006    3.43528E+006    4.23539E+005   -1.74553E+005    3.60983E+006   -1.22809E+006    3.22768E+006    3.43528E+006    4.78758E+004    2.01110E+005    1.25379E+003   -7.92249E+001   -2.89064E+005
            8732    3.35014E+006    3.42811E+006    3.42811E+006    4.01905E+005   -1.71855E+005    3.59997E+006   -1.21939E+006    3.23682E+006    3.42811E+006    1.02221E+005    1.27829E+005    1.24512E+003    6.07380E+002   -2.86594E+005
            8733    3.34975E+006    3.42521E+006    3.42521E+006    3.86673E+005   -1.66823E+005    3.59203E+006   -1.21502E+006    3.24447E+006    3.42521E+006    1.62613E+005    5.72379E+004    5.56483E+002    9.93954E+002   -2.71686E+005
            8734    3.34457E+006    3.43874E+006    3.43874E+006    4.03971E+005   -1.47162E+005    3.58590E+006   -1.23185E+006    3.24004E+006    3.43874E+006    2.41212E+005    1.55966E+004   -5.45963E+001    1.03600E+003   -2.51418E+005
            8735    3.33786E+006    3.45914E+006    3.45914E+006    4.39590E+005   -1.25006E+005    3.58415E+006   -1.25791E+006    3.22780E+006    3.45914E+006    3.32167E+005   -1.75833E+004   -5.87057E+002    7.30783E+002   -2.21609E+005
            8736    3.32364E+006    3.46291E+006    3.46291E+006    3.77708E+005   -5.64973E+004    3.51940E+006   -1.26137E+006    3.25892E+006    3.46291E+006    3.33317E+005   -1.21064E+004    2.40067E+002    1.25336E+002   -1.31545E+005
            8737    3.31505E+006    3.46313E+006    3.46313E+006    3.35620E+005   -1.20562E+004    3.47518E+006   -1.26223E+006    3.27365E+006    3.46313E+006    3.29015E+005   -5.45162E+003    1.44247E+002   -1.15027E+002   -4.74621E+004
            8738    3.33090E+006    3.43876E+006    3.43876E+006    3.23816E+005   -7.26179E+004    3.51138E+006   -1.22999E+006    3.27720E+006    3.43876E+006    2.47598E+005    3.59921E+003    1.12355E+002   -1.30461E+002   -1.56224E+005
            8739    3.32231E+006    3.43065E+006    3.43065E+006    2.42236E+005   -1.10543E+004    3.44170E+006   -1.22061E+006    3.30048E+006    3.43065E+006    2.30737E+005    4.44202E+002    8.44553E+001   -7.94948E+001   -5.27280E+004
            8740    3.33071E+006    3.40260E+006    3.40260E+006    1.61038E+005   -1.06121E+004    3.41321E+006   -1.18434E+006    3.32073E+006    3.40260E+006    1.45852E+005    4.57416E+003    3.08250E+001   -4.12970E+001   -4.87454E+004
            8741    3.33902E+006    3.37803E+006    3.37803E+006    8.54891E+004   -5.59365E+003    3.38363E+006   -1.15264E+006    3.33622E+006    3.37803E+006    6.93538E+004    1.05416E+004   -1.05881E+001   -4.61116E+001   -3.47750E+004
            8742    3.34560E+006    3.36049E+006    3.36049E+006    3.06797E+004   -6.67708E+002    3.36116E+006   -1.13017E+006    3.34527E+006    3.36049E+006    2.03714E+004    9.64055E+003   -3.55565E+001   -1.71521E+001   -1.47267E+004
            8743    3.34926E+006    3.35170E+006    3.35170E+006    4.87127E+003   -9.03986E-001    3.35170E+006   -1.11886E+006    3.34925E+006    3.35170E+006    2.58842E+003    2.28195E+003   -1.06064E+001   -2.92462E+000   -2.43126E+003
            8744    3.33326E+006    3.41675E+006    3.41675E+006    2.54128E+005   -6.43080E+004    3.48105E+006   -1.20219E+006    3.29878E+006    3.41675E+006    1.63943E+005    2.58766E+004   -2.29690E+001   -2.60465E+002   -1.43474E+005
            8745    3.33520E+006    3.39449E+006    3.39449E+006    1.61370E+005   -3.41845E+004    3.42868E+006   -1.17389E+006    3.32227E+006    3.39449E+006    8.56890E+004    4.14963E+004   -8.62770E+001   -7.24800E+001   -9.52477E+004
            8746    3.33956E+006    3.37704E+006    3.37704E+006    8.69065E+004   -9.83650E+003    3.38688E+006   -1.15137E+006    3.33640E+006    3.37704E+006    3.69953E+004    4.00746E+004   -1.79980E+001   -2.42895E+001   -4.83470E+004
            8747    3.34648E+006    3.35831E+006    3.35831E+006    2.47516E+004   -9.40989E+002    3.35925E+006   -1.12737E+006    3.34626E+006    3.35831E+006    7.90557E+003    1.59050E+004   -2.67195E+001   -1.70028E+001   -1.22078E+004
            8748    3.33456E+006    3.38799E+006    3.38799E+006    1.17489E+005   -7.13793E+003    3.39513E+006   -1.16611E+006    3.32932E+006    3.38799E+006    1.07148E+004    9.96363E+004    1.12679E+001   -2.05209E+000   -4.36602E+004
            8749    3.32671E+006    3.41515E+006    3.41515E+006    2.00670E+005   -1.34407E+004    3.42859E+006   -1.20079E+006    3.31115E+006    3.41515E+006    1.14787E+003    1.86081E+005    2.58861E+002   -5.96783E+001   -5.39513E+004
            8750    3.31824E+006    3.44841E+006    3.44841E+006    2.94841E+005   -1.30386E+004    3.46145E+006   -1.24340E+006    3.28587E+006    3.44841E+006   -4.71657E+003    2.86519E+005    1.43978E+002   -2.24346E+002   -4.99293E+004
            8751    3.31071E+006    3.48257E+006    3.48257E+006    3.86712E+005   -7.67194E+003    3.49024E+006   -1.28720E+006    3.25724E+006    3.48257E+006   -3.48078E+003    3.82521E+005    1.18344E+002   -2.52401E+002   -4.04396E+004
            8752    3.33612E+006    3.41198E+006    3.41198E+006    2.41043E+005   -6.78380E+004    3.47982E+006   -1.19506E+006    3.30372E+006    3.41198E+006    4.04762E+004    1.32728E+005    4.87656E+002    2.18441E+001   -1.47391E+005
            8753    3.33331E+006    3.42977E+006    3.42977E+006    2.99782E+005   -7.51527E+004    3.50492E+006   -1.21813E+006    3.28537E+006    3.42977E+006    6.51279E+003    2.18116E+005    4.96146E+001   -3.22541E+002   -1.54758E+005
            8754    3.32690E+006    3.45286E+006    3.45286E+006    3.52521E+005   -6.17916E+004    3.51465E+006   -1.24786E+006    3.26810E+006    3.45286E+006   -7.32216E+003    2.98052E+005   -4.76068E+001   -2.68817E+002   -1.40002E+005
            8755    3.31947E+006    3.47690E+006    3.47690E+006    4.08339E+005   -4.65493E+004    3.52345E+006   -1.27956E+006    3.24823E+006    3.47690E+006   -1.60933E+004    3.77883E+005   -6.67527E+001   -3.23959E+002   -1.13695E+005
            8756    3.33526E+006    3.46917E+006    3.46917E+006    4.58392E+005   -1.15971E+005    3.58514E+006   -1.27053E+006    3.22117E+006    3.46917E+006   -3.33660E+004    3.75787E+005   -4.88186E+002    9.36039E+002   -2.01548E+005
            8757    3.34085E+006    3.45087E+006    3.45087E+006    4.30361E+005   -1.37534E+005    3.58840E+006   -1.24790E+006    3.22957E+006    3.45087E+006   -3.55940E+003    2.96386E+005   -1.24649E+003    5.02548E+002   -2.41111E+005
            8758    3.34319E+006    3.43584E+006    3.43584E+006    3.93990E+005   -1.43556E+005    3.57940E+006   -1.22876E+006    3.24382E+006    3.43584E+006    3.89758E+004    2.11460E+005   -1.47623E+003    9.65153E+001   -2.54561E+005
            8759    3.34703E+006    3.42060E+006    3.42060E+006    3.56529E+005   -1.51328E+005    3.57193E+006   -1.20860E+006    3.25865E+006    3.42060E+006    7.91430E+004    1.26058E+005   -1.06479E+003   -4.43231E+002   -2.52843E+005
            8760    3.34718E+006    3.42140E+006    3.42140E+006    3.58190E+005   -1.51317E+005    3.57272E+006   -1.20943E+006    3.25822E+006    3.42140E+006    1.43196E+005    6.36771E+004   -4.38948E+002   -8.26233E+002   -2.51632E+005
            8761    3.34310E+006    3.43923E+006    3.43923E+006    3.98422E+005   -1.40647E+005    3.57987E+006   -1.23233E+006    3.24315E+006    3.43923E+006    2.34635E+005    2.31406E+004    1.85121E+002   -9.23839E+002   -2.47924E+005
            8762    3.33935E+006    3.45707E+006    3.45707E+006    4.36767E+005   -1.29023E+005    3.58610E+006   -1.25494E+006    3.22886E+006    3.45707E+006    3.23346E+005   -1.56028E+004    4.98011E+002   -5.99642E+002   -2.26513E+005
            8763    3.33241E+006    3.47780E+006    3.47780E+006    4.67747E+005   -1.03203E+005    3.58100E+006   -1.28078E+006    3.21960E+006    3.47779E+006    4.04253E+005   -3.97091E+004    7.77362E+002    4.23673E+001   -1.79501E+005
            8764    3.31720E+006    3.48257E+006    3.48257E+006    4.21335E+005   -4.18991E+004    3.52447E+006   -1.28734E+006    3.24323E+006    3.48257E+006    3.95811E+005   -1.63745E+004   -2.07690E+002   -4.06773E+001   -1.05699E+005
            8765    3.30968E+006    3.48890E+006    3.48890E+006    4.04151E+005   -7.24680E+003    3.49614E+006   -1.29527E+006    3.25141E+006    3.48890E+006    4.00634E+005   -3.72967E+003   -1.91635E+002    2.14654E+001   -3.78757E+004
            8766    3.32460E+006    3.45727E+006    3.45727E+006    3.62203E+005   -5.70945E+004    3.51436E+006   -1.25413E+006    3.26432E+006    3.45727E+006    3.13461E+005   -8.35213E+003   -2.13010E+002    3.99660E+000   -1.34394E+005
            8767    3.31685E+006    3.45456E+006    3.45456E+006    3.11016E+005   -1.19634E+004    3.46652E+006   -1.25120E+006    3.28119E+006    3.45456E+006    3.03800E+005   -4.74686E+003   -2.06701E+002    5.96900E+001   -4.77357E+004
            8768    3.33182E+006    3.43240E+006    3.43240E+006    3.05927E+005   -7.24586E+004    3.50486E+006   -1.22196E+006    3.28296E+006    3.43240E+006    2.30232E+005    3.23631E+003   -3.10491E+002    1.78739E+002   -1.51368E+005
            8769    3.32554E+006    3.41969E+006    3.41969E+006    2.13459E+005   -1.35308E+004    3.43322E+006   -1.20654E+006    3.30804E+006    3.41969E+006    2.00250E+005   -3.21651E+002   -5.60677E+001    2.09315E+002   -5.31400E+004
            8770    3.33576E+006    3.41286E+006    3.41286E+006    2.43967E+005   -6.78613E+004    3.48072E+006   -1.19632E+006    3.30273E+006    3.41286E+006    1.40943E+005    3.51626E+004    4.59053E+001    5.90216E+002   -1.46669E+005
            8771    3.33359E+006    3.39083E+006    3.39083E+006    1.25389E+005   -6.98321E+003    3.39781E+006   -1.16974E+006    3.32767E+006    3.39083E+006    1.08606E+005    9.80007E+003    6.15119E+000   -4.31532E-001   -4.40450E+004
            8772    3.34213E+006    3.36890E+006    3.36890E+006    5.92318E+004   -4.76458E+003    3.37366E+006   -1.14112E+006    3.34075E+006    3.36890E+006    4.45425E+004    9.92473E+003   -2.63040E+001    3.06726E+001   -2.69126E+004
            8773    3.34747E+006    3.35617E+006    3.35617E+006    1.75577E+004   -1.01561E+002    3.35627E+006   -1.12454E+006    3.34737E+006    3.35617E+006    9.15444E+003    8.30165E+003    3.42585E+001    2.17133E+001   -8.81930E+003
            8774    3.33562E+006    3.39443E+006    3.39443E+006    1.60884E+005   -3.46549E+004    3.42909E+006   -1.17355E+006    3.32268E+006    3.39443E+006    6.50943E+004    6.11352E+004    2.73762E+002    2.50443E+002   -9.77496E+004
            8775    3.34261E+006    3.36771E+006    3.36771E+006    5.61862E+004   -5.14945E+003    3.37286E+006   -1.13958E+006    3.34135E+006    3.36771E+006    1.04077E+004    4.06290E+004    8.60779E+000   -3.66529E+001   -2.66868E+004
            8776    3.33247E+006    3.48815E+006    3.48815E+006    4.92619E+005   -1.01373E+005    3.58953E+006   -1.29313E+006    3.21012E+006    3.48815E+006   -5.25502E+004    4.43796E+005   -6.20350E+002   -1.09282E+003   -1.63147E+005
            8777    3.32033E+006    3.49326E+006    3.49326E+006    4.71378E+005   -6.11462E+004    3.55441E+006   -1.30116E+006    3.22215E+006    3.49326E+006   -3.37263E+004    4.43958E+005   -3.91301E+002   -2.53271E+002   -1.17685E+005
            8778    3.31383E+006    3.49784E+006    3.49784E+006    4.57250E+005   -3.43112E+004    3.53216E+006   -1.30693E+006    3.23028E+006    3.49784E+006   -1.82380E+004    4.41177E+005   -3.72177E+001    2.29327E+002   -8.74221E+004
            8779    3.30881E+006    3.50396E+006    3.50396E+006    4.54642E+005   -1.43043E+004    3.51827E+006   -1.31477E+006    3.23278E+006    3.50396E+006   -7.91010E+003    4.48247E+005   -1.17900E+001    1.03479E+001   -5.43842E+004
            8780    3.30531E+006    3.51251E+006    3.51251E+006    4.67161E+005   -2.51445E+003    3.51502E+006   -1.32572E+006    3.22895E+006    3.51251E+006   -1.74620E+003    4.66393E+005    2.02915E+001    1.00618E+002   -1.89799E+004
            8781    3.32491E+006    3.50844E+006    3.50844E+006    5.18300E+005   -7.21204E+004    3.58056E+006   -1.31821E+006    3.20376E+006    3.50844E+006   -5.62284E+004    5.02409E+005   -1.14685E+003   -6.79146E+002   -9.55520E+004
            8782    3.31457E+006    3.51088E+006    3.51088E+006    5.04965E+005   -4.38437E+004    3.55472E+006   -1.32400E+006    3.20996E+006    3.51088E+006   -3.49160E+004    4.96037E+005   -6.80138E+002   -2.20715E+002   -6.94250E+004
            8783    3.30984E+006    3.51652E+006    3.51652E+006    5.01567E+005   -2.50563E+004    3.54158E+006   -1.33101E+006    3.21355E+006    3.51652E+006   -1.98863E+004    4.96397E+005   -4.39821E+001    1.26974E+002   -5.19222E+004
            8784    3.30555E+006    3.52418E+006    3.52418E+006    5.08264E+005   -9.83058E+003    3.53401E+006   -1.34087E+006    3.21230E+006    3.52418E+006   -7.77644E+003    5.06209E+005   -2.16679E+001    1.41367E+001   -3.25579E+004
            8785    3.30300E+006    3.53393E+006    3.53393E+006    5.28233E+005   -2.17335E+003    3.53610E+006   -1.35333E+006    3.20508E+006    3.53393E+006   -1.93011E+003    5.27990E+005    4.20697E+001    7.11231E+001   -1.13559E+004
            8786    3.32080E+006    3.51974E+006    3.51974E+006    5.33405E+005   -5.64777E+004    3.57622E+006   -1.33222E+006    3.19973E+006    3.51974E+006   -5.49419E+004    5.31869E+005   -1.41905E+003   -2.72019E+002   -3.00541E+004
            8787    3.31180E+006    3.52076E+006    3.52076E+006    5.25221E+005   -3.56669E+004    3.55643E+006   -1.33677E+006    3.20232E+006    3.52076E+006   -3.47396E+004    5.24294E+005   -8.78480E+002   -8.19447E+001   -2.27846E+004
            8788    3.30763E+006    3.52706E+006    3.52706E+006    5.26381E+005   -1.95859E+004    3.54665E+006   -1.34462E+006    3.20390E+006    3.52706E+006   -1.90556E+004    5.25851E+005   -2.73810E+001    4.08859E+001   -1.70066E+004
            8789    3.30421E+006    3.53506E+006    3.53506E+006    5.37789E+005   -8.09592E+003    3.54315E+006   -1.35492E+006    3.20039E+006    3.53506E+006   -7.88380E+003    5.37577E+005   -2.76086E+001    6.62149E+000   -1.07584E+004
            8790    3.30200E+006    3.54554E+006    3.54554E+006    5.60989E+005   -1.61508E+003    3.54715E+006   -1.36830E+006    3.19148E+006    3.54554E+006   -1.58887E+003    5.60962E+005    5.80165E+001    2.61031E+001   -3.83942E+003
            8791    3.33134E+006    3.48051E+006    3.48051E+006    4.73579E+005   -1.00603E+005    3.58111E+006   -1.28450E+006    3.21718E+006    3.48051E+006    4.13870E+005   -4.08937E+004   -8.17501E+002   -1.14610E+002    1.75268E+005
            8792    3.31629E+006    3.48811E+006    3.48811E+006    4.33990E+005   -3.94710E+004    3.52758E+006   -1.29421E+006    3.23894E+006    3.48811E+006    4.12196E+005   -1.76767E+004    1.29251E+002   -3.66053E+001    9.92156E+004
            8793    3.30848E+006    3.49691E+006    3.49691E+006    4.27277E+005   -7.43392E+003    3.50435E+006   -1.30559E+006    3.24329E+006    3.49691E+006    4.24340E+005   -4.49600E+003    2.05276E+002    8.45243E+000    3.56162E+004
            8794    3.32425E+006    3.50111E+006    3.50111E+006    5.02895E+005   -7.37317E+004    3.57484E+006   -1.31009E+006    3.20883E+006    3.50111E+006    4.78765E+005   -4.96024E+004   -7.20538E+002    5.16285E+002    1.15461E+005
            8795    3.31048E+006    3.51024E+006    3.51024E+006    4.85855E+005   -2.65863E+004    3.53682E+006   -1.32317E+006    3.21944E+006    3.51024E+006    4.77663E+005   -1.83947E+004    1.35785E+002    1.10038E+002    6.42698E+004
            8796    3.30512E+006    3.52284E+006    3.52284E+006    5.00141E+005   -6.25678E+003    3.52910E+006   -1.33891E+006    3.21610E+006    3.52284E+006    4.99049E+005   -5.16446E+003    1.62292E+002   -6.61143E+001    2.34938E+004
            8797    3.31903E+006    3.51682E+006    3.51682E+006    5.25951E+005   -5.39313E+004    3.57076E+006   -1.32961E+006    3.20207E+006    3.51682E+006    5.20792E+005   -4.87718E+004   -3.36181E+002    9.38151E+002    5.44529E+004
            8798    3.30758E+006    3.52424E+006    3.52424E+006    5.21096E+005   -2.08352E+004    3.54507E+006   -1.34150E+006    3.20540E+006    3.52424E+006    5.19402E+005   -1.91411E+004    1.68922E+001    1.82206E+002    3.02519E+004
            8799    3.30328E+006    3.53978E+006    3.53978E+006    5.46774E+005   -4.42887E+003    3.54421E+006   -1.36071E+006    3.19736E+006    3.53978E+006    5.46558E+005   -4.21275E+003    1.09504E+002   -1.03537E+002    1.09123E+004
            8800    3.31737E+006    3.52143E+006    3.52143E+006    5.33023E+005   -4.81159E+004    3.56954E+006   -1.33545E+006    3.19983E+006    3.52143E+006    5.33008E+005   -4.81000E+004   -4.03971E+001    1.03665E+003   -3.01415E+003
            8801    3.30655E+006    3.52898E+006    3.52898E+006    5.32472E+005   -1.84138E+004    3.54740E+006   -1.34768E+006    3.20086E+006    3.52898E+006    5.32450E+005   -1.83919E+004    4.63309E+001    2.59223E+002   -3.47530E+003
            8802    3.30304E+006    3.54432E+006    3.54432E+006    5.60098E+005   -4.69491E+003    3.54902E+006   -1.36658E+006    3.19168E+006    3.54432E+006    5.60094E+005   -4.69115E+003    1.33624E+001   -1.57496E+002   -1.45481E+003
            8803    3.31937E+006    3.51578E+006    3.51578E+006    5.23689E+005   -5.48146E+004    3.57060E+006   -1.32822E+006    3.20299E+006    3.51578E+006    5.17441E+005   -4.85663E+004    3.00382E+002    9.94038E+002   -5.97950E+004
            8804    3.30786E+006    3.52184E+006    3.52184E+006    5.15291E+005   -2.16363E+004    3.54348E+006   -1.33850E+006    3.20761E+006    3.52184E+006    5.12624E+005   -1.89691E+004   -4.18443E+001    1.66418E+002   -3.77490E+004
            8805    3.30348E+006    3.53674E+006    3.53674E+006    5.37959E+005   -4.33749E+003    3.54108E+006   -1.35679E+006    3.20104E+006    3.53674E+006    5.37620E+005   -3.99853E+003   -6.30818E+001   -1.09011E+002   -1.35536E+004
            8806    3.32497E+006    3.49935E+006    3.49935E+006    4.99294E+005   -7.55796E+004    3.57492E+006   -1.30769E+006    3.21030E+006    3.49935E+006    4.72649E+005   -4.89352E+004    6.16510E+002    5.79797E+002   -1.20860E+005
            8807    3.31122E+006    3.50588E+006    3.50588E+006    4.75345E+005   -2.83234E+004    3.53420E+006   -1.31763E+006    3.22335E+006    3.50588E+006    4.65052E+005   -1.80304E+004   -3.77164E+001    8.51024E+001   -7.12623E+004
            8808    3.30596E+006    3.51657E+006    3.51657E+006    4.83018E+005   -7.07120E+003    3.52364E+006   -1.33084E+006    3.22271E+006    3.51657E+006    4.81585E+005   -5.63888E+003   -1.57804E+002   -1.18969E+002   -2.64558E+004
            8809    3.30540E+006    3.51224E+006    3.51224E+006    4.66616E+005   -2.75011E+003    3.51499E+006   -1.32537E+006    3.22914E+006    3.51224E+006   -1.97838E+003    4.65844E+005    9.96981E+000   -1.02350E+002    1.90165E+004
            8810    3.30884E+006    3.50396E+006    3.50396E+006    4.54616E+005   -1.43341E+004    3.51830E+006   -1.31475E+006    3.23281E+006    3.50396E+006   -7.89164E+003    4.48174E+005    4.76403E+000   -1.28438E+001    5.45864E+004
            8811    3.31392E+006    3.49784E+006    3.49784E+006    4.57600E+005   -3.46863E+004    3.53252E+006   -1.30692E+006    3.23012E+006    3.49784E+006   -1.85506E+004    4.41464E+005   -6.46497E+001   -2.24691E+002    8.76528E+004
            8812    3.32059E+006    3.49338E+006    3.49338E+006    4.72052E+005   -6.17943E+004    3.55517E+006   -1.30121E+006    3.22192E+006    3.49338E+006   -3.42557E+004    4.44514E+005   -3.04228E+002    2.85894E+002    1.18080E+005
            8813    3.33200E+006    3.48780E+006    3.48780E+006    4.92780E+005   -1.01268E+005    3.58907E+006   -1.29310E+006    3.20960E+006    3.48780E+006   -5.25985E+004    4.44111E+005   -4.41463E+002    1.08200E+003    1.62921E+005
            8814    3.30295E+006    3.53400E+006    3.53400E+006    5.28216E+005   -1.96220E+003    3.53597E+006   -1.35342E+006    3.20511E+006    3.53400E+006   -1.72338E+003    5.27977E+005    4.63589E+001   -7.60271E+001    1.12499E+004
            8815    3.30555E+006    3.52424E+006    3.52424E+006    5.08377E+005   -9.80346E+003    3.53404E+006   -1.34094E+006    3.21227E+006    3.52424E+006   -7.78546E+003    5.06359E+005   -2.04327E+001   -1.06766E+001    3.22740E+004
            8816    3.30979E+006    3.51652E+006    3.51652E+006    5.01378E+005   -2.48590E+004    3.54138E+006   -1.33101E+006    3.21364E+006    3.51652E+006   -1.97037E+004    4.96222E+005   -4.10848E+001   -1.38454E+002    5.18295E+004
            8817    3.31473E+006    3.51095E+006    3.51095E+006    5.05265E+005   -4.41635E+004    3.55511E+006   -1.32402E+006    3.20988E+006    3.51095E+006   -3.52807E+004    4.96383E+005   -7.15607E+002    2.45791E+002    6.92926E+004
            8818    3.32510E+006    3.50836E+006    3.50836E+006    5.18591E+005   -7.27214E+004    3.58108E+006   -1.31808E+006    3.20359E+006    3.50836E+006   -5.67337E+004    5.02604E+005   -1.14474E+003    8.56817E+002    9.59055E+004
            8819    3.30204E+006    3.54551E+006    3.54551E+006    5.61029E+005   -1.75261E+003    3.54726E+006   -1.36826E+006    3.19145E+006    3.54551E+006   -1.72677E+003    5.61003E+005    5.68595E+001   -2.68262E+001    3.81300E+003
            8820    3.30414E+006    3.53513E+006    3.53513E+006    5.37771E+005   -7.87010E+003    3.54300E+006   -1.35501E+006    3.20042E+006    3.53513E+006   -7.65694E+003    5.37558E+005   -2.58875E+001   -6.99599E+000    1.07826E+004
            8821    3.30764E+006    3.52711E+006    3.52711E+006    5.26487E+005   -1.95793E+004    3.54669E+006   -1.34467E+006    3.20387E+006    3.52711E+006   -1.90511E+004    5.25959E+005   -2.63494E+001   -4.49606E+001    1.69750E+004
            8822    3.31168E+006    3.52077E+006    3.52077E+006    5.24947E+005   -3.53020E+004    3.55607E+006   -1.33681E+006    3.20245E+006    3.52077E+006   -3.43877E+004    5.24033E+005   -8.85881E+002    7.31579E+001    2.26115E+004
            8823    3.32097E+006    3.52002E+006    3.52002E+006    5.32994E+005   -5.60669E+004    3.57608E+006   -1.33231E+006    3.20025E+006    3.52002E+006   -5.45104E+004    5.31438E+005   -1.52188E+003    2.22291E+002    3.02338E+004
            8824    3.34972E+006    3.42507E+006    3.42507E+006    3.86383E+005   -1.66822E+005    3.59189E+006   -1.21488E+006    3.24456E+006    3.42507E+006    1.62153E+005    5.74088E+004    5.53344E+002   -1.02847E+003    2.71599E+005
            8825    3.35033E+006    3.42813E+006    3.42813E+006    4.01690E+005   -1.71993E+005    3.60013E+006   -1.21928E+006    3.23705E+006    3.42813E+006    1.01792E+005    1.27906E+005    1.15335E+003   -6.28109E+002    2.86544E+005
            8826    3.35114E+006    3.43537E+006    3.43537E+006    4.23567E+005   -1.74560E+005    3.60993E+006   -1.22813E+006    3.22776E+006    3.43537E+006    4.71151E+004    2.01892E+005    1.21137E+003   -1.63392E+001    2.88877E+005
            8827    3.34721E+006    3.44733E+006    3.44733E+006    4.42681E+005   -1.60444E+005    3.60777E+006   -1.24319E+006    3.22154E+006    3.44733E+006   -1.08394E+003    2.83321E+005    8.93611E+002    4.57868E+002    2.65929E+005
            8828    3.34077E+006    3.46505E+006    3.46505E+006    4.66006E+005   -1.35673E+005    3.60073E+006   -1.26513E+006    3.21547E+006    3.46505E+006   -3.63336E+004    3.66667E+005    3.03552E+002    9.44838E+002    2.23387E+005
            8829    3.32852E+006    3.47194E+006    3.47194E+006    4.34116E+005   -8.60192E+004    3.55796E+006   -1.27335E+006    3.23519E+006    3.47194E+006   -2.70824E+004    3.75179E+005    7.18580E+001    1.71476E+002    1.64868E+005
            8830    3.32047E+006    3.47401E+006    3.47401E+006    4.05972E+005   -5.14627E+004    3.52547E+006   -1.27617E+006    3.24845E+006    3.47401E+006   -1.54882E+004    3.69998E+005   -1.24337E+002   -2.73706E+002    1.23133E+005
            8831    3.31415E+006    3.47781E+006    3.47781E+006    3.87034E+005   -2.17992E+004    3.49960E+006   -1.28101E+006    3.25670E+006    3.47781E+006   -6.53860E+003    3.71773E+005    1.60648E+001   -1.33761E+001    7.74995E+004
            8832    3.31016E+006    3.48260E+006    3.48260E+006    3.83269E+005   -4.28315E+003    3.48688E+006   -1.28719E+006    3.25853E+006    3.48260E+006   -2.38989E+003    3.81376E+005   -1.20817E+001   -1.06814E+002    2.70213E+004
            8833    3.33677E+006    3.45128E+006    3.45128E+006    3.99494E+005   -1.11519E+005    3.56280E+006   -1.24642E+006    3.24698E+006    3.45128E+006   -8.66435E+003    2.96640E+005    3.19055E+002    1.79000E+001    2.04893E+005
            8834    3.32725E+006    3.45075E+006    3.45075E+006    3.56449E+005   -6.86110E+004    3.51936E+006   -1.24619E+006    3.26533E+006    3.45075E+006   -3.98342E+003    2.91821E+005   -2.11365E+002   -2.34128E+002    1.52623E+005
            8835    3.32110E+006    3.45001E+006    3.45001E+006    3.17747E+005   -3.22184E+004    3.48223E+006   -1.24518E+006    3.27923E+006    3.45001E+006   -2.95456E+003    2.88484E+005    1.96462E+001   -2.51361E+001    9.68761E+004
            8836    3.31722E+006    3.44961E+006    3.44961E+006    2.90491E+005   -5.83009E+003    3.45544E+006   -1.24476E+006    3.28725E+006    3.44961E+006   -1.90386E+003    2.86565E+005   -5.12952E+001   -8.06562E+001    3.38823E+004
            8837    3.34159E+006    3.43603E+006    3.43603E+006    3.67720E+005   -1.24284E+005    3.56031E+006   -1.22649E+006    3.25860E+006    3.43603E+006    2.64148E+004    2.17021E+005    3.39062E+002   -1.46760E+002    2.26791E+005
            8838    3.33289E+006    3.43076E+006    3.43076E+006    3.11763E+005   -8.11874E+004    3.51194E+006   -1.22044E+006    3.28016E+006    3.43076E+006    1.47609E+004    2.15814E+005   -3.03846E+002   -1.53851E+002    1.68810E+005
            8839    3.32756E+006    3.42554E+006    3.42554E+006    2.55049E+005   -3.95063E+004    3.46505E+006   -1.21369E+006    3.29804E+006    3.42554E+006    6.23104E+003    2.09312E+005   -6.18788E+000   -8.39834E+000    1.06678E+005
            8840    3.32588E+006    3.41755E+006    3.41755E+006    2.00109E+005   -7.09643E+003    3.42464E+006   -1.20352E+006    3.31132E+006    3.41755E+006   -3.23423E+002    1.93336E+005   -4.92555E+001   -5.26475E+001    3.68447E+004
            8841    3.34423E+006    3.42537E+006    3.42537E+006    3.39946E+005   -1.28316E+005    3.55368E+006   -1.21233E+006    3.26926E+006    3.42537E+006    6.94752E+004    1.42155E+005    6.17304E+001   -2.15207E+002    2.31293E+005
            8842    3.33458E+006    3.41685E+006    3.41685E+006    2.68866E+005   -7.73150E+004    3.49417E+006   -1.20280E+006    3.29379E+006    3.41685E+006    4.52598E+004    1.46291E+005   -4.01521E+002    7.35175E+001    1.65555E+005
            8843    3.33281E+006    3.40555E+006    3.40555E+006    1.97514E+005   -3.93948E+004    3.44494E+006   -1.18789E+006    3.31379E+006    3.40555E+006    1.79165E+004    1.40203E+005    7.01153E+001   -3.90442E+001    1.01454E+005
            8844    3.33442E+006    3.39042E+006    3.39042E+006    1.22607E+005   -6.83172E+003    3.39725E+006   -1.16873E+006    3.32876E+006    3.39042E+006    2.86380E+003    1.12912E+005   -9.45906E+001   -9.25802E+000    3.40731E+004
            8845    3.34083E+006    3.42248E+006    3.42248E+006    3.11791E+005   -1.08683E+005    3.53116E+006   -1.20853E+006    3.28050E+006    3.42248E+006    1.31532E+005    7.15762E+004   -2.29397E+002    1.09439E+002    2.08089E+005
            8846    3.33413E+006    3.40548E+006    3.40548E+006    2.17625E+005   -5.78297E+004    3.46331E+006   -1.18843E+006    3.30839E+006    3.40548E+006    7.27084E+004    8.70868E+004   -2.23674E+002    1.78368E+002    1.37540E+005
            8847    3.33637E+006    3.39052E+006    3.39052E+006    1.42883E+005   -2.79982E+004    3.41852E+006   -1.16847E+006    3.32650E+006    3.39052E+006    3.00526E+004    8.48324E+004    3.74315E+001   -5.20583E+001    8.09315E+004
            8848    3.34173E+006    3.37004E+006    3.37004E+006    6.35492E+004   -5.83923E+003    3.37588E+006   -1.14258E+006    3.34011E+006    3.37004E+006    5.56340E+003    5.21465E+004   -7.27758E+001    3.64293E+001    2.57136E+004
            8849    3.34632E+006    3.35869E+006    3.35869E+006    2.57949E+004   -8.93350E+002    3.35958E+006   -1.12786E+006    3.34608E+006    3.35869E+006    8.39863E+003    1.65029E+004   -2.95192E+001    2.04647E+001    1.27140E+004
            8850    3.34927E+006    3.35168E+006    3.35168E+006    4.83979E+003   -5.02428E-001    3.35168E+006   -1.11884E+006    3.34926E+006    3.35168E+006    2.55680E+003    2.28250E+003   -8.78875E+000    6.34806E+000    2.41626E+003
            8851    3.33958E+006    3.37698E+006    3.37698E+006    8.65039E+004   -9.63324E+003    3.38661E+006   -1.15128E+006    3.33647E+006    3.37698E+006    3.66820E+004    4.01887E+004   -1.52378E+001    3.13963E+001    4.80366E+004
            8852    3.34553E+006    3.36064E+006    3.36064E+006    3.10961E+004   -6.43248E+002    3.36129E+006   -1.13037E+006    3.34519E+006    3.36064E+006    2.04218E+004    1.00310E+004   -3.30883E+001    1.60574E+001    1.49951E+004
            8853    3.33524E+006    3.39427E+006    3.39427E+006    1.60555E+005   -3.39765E+004    3.42825E+006   -1.17362E+006    3.32244E+006    3.39427E+006    8.51831E+004    4.13952E+004   -8.82213E+001    7.13777E+001    9.47695E+004
            8854    3.33906E+006    3.37797E+006    3.37797E+006    8.56638E+004   -5.96765E+003    3.38393E+006   -1.15255E+006    3.33623E+006    3.37797E+006    6.95806E+004    1.01155E+004   -2.00383E+000    5.46866E+001    3.48576E+004
            8855    3.33326E+006    3.41679E+006    3.41679E+006    2.54243E+005   -6.43090E+004    3.48110E+006   -1.20224E+006    3.29875E+006    3.41679E+006    1.63929E+005    2.60052E+004   -5.72027E+000    2.75355E+002    1.43573E+005
            8856    3.33065E+006    3.40269E+006    3.40269E+006    1.61008E+005   -1.03066E+004    3.41300E+006   -1.18446E+006    3.32071E+006    3.40269E+006    1.45933E+005    4.76859E+003    4.05573E+001    2.73636E+001    4.85319E+004
            8857    3.32218E+006    3.43101E+006    3.43101E+006    2.43170E+005   -1.09282E+004    3.44193E+006   -1.22108E+006    3.30021E+006    3.43101E+006    2.31709E+005    5.33597E+002    9.86884E+001    9.40369E+001    5.27357E+004
            8858    3.31489E+006    3.46378E+006    3.46378E+006    3.37579E+005   -1.20855E+004    3.47587E+006   -1.26309E+006    3.27302E+006    3.46378E+006    3.31040E+005   -5.54673E+003    1.68563E+002    9.62849E+001    4.73669E+004
            8859    3.33083E+006    3.43900E+006    3.43900E+006    3.24225E+005   -7.23785E+004    3.51137E+006   -1.23028E+006    3.27707E+006    3.43900E+006    2.48367E+005    3.47914E+003    1.37782E+002    8.91357E+001    1.55984E+005
            8860    3.32353E+006    3.46323E+006    3.46323E+006    3.78288E+005   -5.61437E+004    3.51938E+006   -1.26179E+006    3.25873E+006    3.46323E+006    3.34585E+005   -1.24403E+004    2.51427E+002   -1.19168E+002    1.30676E+005
            8861    3.33784E+006    3.45906E+006    3.45906E+006    4.39849E+005   -1.25265E+005    3.58432E+006   -1.25788E+006    3.22757E+006    3.45906E+006    3.31659E+005   -1.70741E+004   -7.27000E+002   -7.61060E+002    2.22340E+005
            8862    3.34446E+006    3.43855E+006    3.43855E+006    4.04021E+005   -1.47320E+005    3.58587E+006   -1.23175E+006    3.23984E+006    3.43855E+006    2.40515E+005    1.61864E+004   -1.13138E+002   -1.08476E+003    2.51820E+005
            8863    3.35085E+006    3.42577E+006    3.42577E+006    3.60299E+005   -1.51564E+005    3.57734E+006   -1.21150E+006    3.26116E+006    3.42577E+006    7.87687E+004    1.29967E+005   -1.63297E+003    6.10848E+002    2.54648E+005
            8864    3.34836E+006    3.44122E+006    3.44122E+006    3.96249E+005   -1.44667E+005    3.58589E+006   -1.23094E+006    3.24788E+006    3.44122E+006    3.28973E+004    2.18686E+005   -2.03720E+003    6.49864E+002    2.54004E+005
            8865    3.34458E+006    3.45544E+006    3.45544E+006    4.31021E+005   -1.36643E+005    3.59208E+006   -1.24994E+006    3.23352E+006    3.45544E+006   -8.53981E+003    3.02919E+005   -1.88791E+003    7.39014E+002    2.37294E+005
            8866    3.33609E+006    3.47205E+006    3.47205E+006    4.59217E+005   -1.13231E+005    3.58528E+006   -1.27268E+006    3.22281E+006    3.47204E+006   -3.57727E+004    3.81760E+005   -1.42214E+003    6.17168E+002    1.95808E+005
            8867    3.31922E+006    3.47634E+006    3.47634E+006    4.08241E+005   -4.69936E+004    3.52334E+006   -1.27920E+006    3.24787E+006    3.47634E+006   -1.50411E+004    3.76289E+005    4.49697E+002    9.00186E+002    1.16297E+005
            8868    3.31110E+006    3.48161E+006    3.48161E+006    3.83988E+005   -8.06075E+003    3.48967E+006   -1.28585E+006    3.25827E+006    3.48161E+006   -3.82614E+003    3.79753E+005   -4.35837E+001   -5.30863E+001    4.05246E+004
            8869    3.32541E+006    3.45178E+006    3.45178E+006    3.52493E+005   -6.10744E+004    3.51285E+006   -1.24773E+006    3.26680E+006    3.45178E+006   -4.73768E+003    2.96157E+005    1.00986E+003    7.87151E+002    1.41863E+005
            8870    3.31890E+006    3.44760E+006    3.44760E+006    2.92059E+005   -1.35269E+004    3.46113E+006   -1.24204E+006    3.28703E+006    3.44760E+006   -5.16481E+003    2.83696E+005   -1.94814E+002   -5.73279E+001    4.98537E+004
            8871    3.33148E+006    3.42892E+006    3.42892E+006    2.99676E+005   -7.33980E+004    3.50232E+006   -1.21840E+006    3.28399E+006    3.42892E+006    9.78818E+003    2.16491E+005    1.13113E+003    3.33348E+002    1.55289E+005
            8872    3.32755E+006    3.41505E+006    3.41505E+006    1.99565E+005   -1.42586E+004    3.42931E+006   -1.20012E+006    3.31204E+006    3.41505E+006    1.76007E+002    1.85131E+005   -1.42582E+002   -8.60277E+001    5.36480E+004
            8873    3.33362E+006    3.41041E+006    3.41041E+006    2.40493E+005   -6.57806E+004    3.47619E+006   -1.19504E+006    3.30175E+006    3.41041E+006    4.26646E+004    1.32048E+005    1.33083E+003   -4.11565E+001    1.46470E+005
            8874    3.33591E+006    3.38833E+006    3.38833E+006    1.17355E+005   -8.92867E+003    3.39726E+006   -1.16559E+006    3.33053E+006    3.38833E+006    8.77547E+003    9.96507E+004   -4.32798E+002    6.48473E+000    4.38440E+004
            8875    3.34287E+006    3.36804E+006    3.36804E+006    5.64910E+004   -5.28739E+003    3.37333E+006   -1.13975E+006    3.34158E+006    3.36804E+006    1.02578E+004    4.09458E+004   -5.69860E+001    1.08653E+002    2.68087E+004
            8876    3.34730E+006    3.35611E+006    3.35611E+006    1.76254E+004    6.27029E+001    3.35604E+006   -1.12460E+006    3.34719E+006    3.35611E+006    9.10400E+003    8.58410E+003    4.15012E+001   -4.05785E+001    8.77750E+003
            8877    3.33507E+006    3.39396E+006    3.39396E+006    1.60358E+005   -3.40753E+004    3.42803E+006   -1.17341E+006    3.32228E+006    3.39396E+006    6.51333E+004    6.11491E+004    2.71185E+002   -2.57677E+002    9.71960E+004
            8878    3.34254E+006    3.36880E+006    3.36880E+006    5.86221E+004   -5.17633E+003    3.37398E+006   -1.14075E+006    3.34117E+006    3.36880E+006    4.38011E+004    9.64463E+003   -1.07877E+002    5.51239E+001    2.69424E+004
            8879    3.33509E+006    3.39056E+006    3.39056E+006    1.23614E+005   -8.73165E+003    3.39929E+006   -1.16848E+006    3.32917E+006    3.39056E+006    1.06856E+005    8.02652E+003   -3.59165E+001    4.26691E+002    4.40117E+004
            8880    3.32631E+006    3.41902E+006    3.41902E+006    2.11015E+005   -1.41479E+004    3.43317E+006   -1.20530E+006    3.30910E+006    3.41902E+006    1.97923E+005   -1.05538E+003    8.52556E+001    1.02558E+002    5.26928E+004
            8881    3.31702E+006    3.45432E+006    3.45432E+006    3.10053E+005   -1.19694E+004    3.46629E+006   -1.25080E+006    3.28158E+006    3.45432E+006    3.03010E+005   -4.92678E+003    5.24955E+001    8.66332E+001    4.70987E+004
            8882    3.30948E+006    3.48934E+006    3.48934E+006    4.05152E+005   -6.83767E+003    3.49618E+006   -1.29589E+006    3.25103E+006    3.48934E+006    4.01747E+005   -3.43290E+003    3.35656E+001   -6.68333E+001    3.72979E+004
            8883    3.33340E+006    3.41123E+006    3.41123E+006    2.43455E+005   -6.61746E+004    3.47741E+006   -1.19617E+006    3.30081E+006    3.41123E+006    1.40561E+005    3.67197E+004    1.08379E+002   -1.28441E+003    1.45849E+005
            8884    3.33058E+006    3.43184E+006    3.43184E+006    3.06161E+005   -7.14401E+004    3.50328E+006   -1.22219E+006    3.28190E+006    3.43184E+006    2.29821E+005    4.90014E+003   -3.66483E+002   -8.98739E+002    1.51652E+005
            8885    3.32393E+006    3.45701E+006    3.45701E+006    3.62784E+005   -5.67912E+004    3.51380E+006   -1.25433E+006    3.26356E+006    3.45701E+006    3.13403E+005   -7.40999E+003   -8.08305E+002   -4.16988E+002    1.35206E+005
            8886    3.31747E+006    3.48273E+006    3.48273E+006    4.21218E+005   -4.20019E+004    3.52474E+006   -1.28732E+006    3.24351E+006    3.48273E+006    3.95140E+005   -1.59232E+004   -7.17173E+002    2.20824E+002    1.06771E+005
            8887    3.33068E+006    3.47760E+006    3.47760E+006    4.68495E+005   -1.01172E+005    3.57877E+006   -1.28164E+006    3.21832E+006    3.47760E+006    4.07942E+005   -4.06191E+004   -1.40561E+002   -1.02786E+001    1.75581E+005
            8888    3.34031E+006    3.45896E+006    3.45896E+006    4.37449E+005   -1.27971E+005    3.58693E+006   -1.25615E+006    3.23000E+006    3.45896E+006    3.27609E+005   -1.81313E+004   -2.39995E+002    7.92860E+002    2.23698E+005
            8889    3.34617E+006    3.44304E+006    3.44304E+006    4.00470E+005   -1.40763E+005    3.58380E+006   -1.23425E+006    3.24550E+006    3.44304E+006    2.39944E+005    1.97638E+004   -4.35133E+002    1.40789E+003    2.47211E+005
            8890    3.35048E+006    3.42623E+006    3.42623E+006    3.61866E+005   -1.51179E+005    3.57741E+006   -1.21231E+006    3.26035E+006    3.42623E+006    1.46920E+005    6.37676E+004   -5.57428E+002    1.34245E+003    2.53131E+005
            8891    3.30664E+006    3.51017E+006    3.51017E+006    4.65184E+005   -7.30013E+003    3.51747E+006   -1.32268E+006    3.22938E+006    3.51017E+006   -5.42364E+003    4.63308E+005   -9.06566E+000   -2.19617E+001    2.97168E+004
            8892    3.31323E+006    3.49976E+006    3.49976E+006    4.61144E+005   -3.26569E+004    3.53242E+006   -1.30942E+006    3.22888E+006    3.49976E+006   -1.84598E+004    4.46947E+005    7.48056E+000    8.76550E+002    8.25164E+004
            8893    3.32632E+006    3.49048E+006    3.49048E+006    4.89181E+005   -8.58816E+004    3.57636E+006   -1.29793E+006    3.21162E+006    3.49048E+006   -4.81282E+004    4.51428E+005   -3.70487E+002    4.51951E+002    1.42426E+005
            8894    3.30370E+006    3.53187E+006    3.53187E+006    5.24963E+005   -4.64556E+003    3.53652E+006   -1.35073E+006    3.20611E+006    3.53187E+006   -4.07180E+003    5.24389E+005    6.58675E+001   -3.36750E+000    1.74224E+004
            8895    3.30942E+006    3.51788E+006    3.51788E+006    5.04807E+005   -2.41712E+004    3.54205E+006   -1.33284E+006    3.21224E+006    3.51788E+006   -1.95048E+004    5.00141E+005   -4.43283E+002    6.03947E+002    4.94635E+004
            8896    3.31732E+006    3.50619E+006    3.50619E+006    5.14832E+005   -6.15594E+004    3.56775E+006   -1.31982E+006    3.20174E+006    3.50619E+006   -4.94359E+004    5.02709E+005    8.16354E+002    9.08303E+001    8.27094E+004
            8897    3.30267E+006    3.54304E+006    3.54304E+006    5.56768E+005   -4.17313E+003    3.54722E+006   -1.36521E+006    3.19285E+006    3.54304E+006   -4.11133E+003    5.56706E+005    1.41468E+002    3.66866E+000    5.88693E+003
            8898    3.30761E+006    3.52799E+006    3.52799E+006    5.29661E+005   -2.00273E+004    3.54802E+006   -1.34588E+006    3.20242E+006    3.52799E+006   -1.95729E+004    5.29207E+005   -7.99509E+002    2.63210E+002    1.57956E+004
            8899    3.31226E+006    3.51447E+006    3.51447E+006    5.29769E+005   -4.90486E+004    3.56352E+006   -1.33173E+006    3.19549E+006    3.51447E+006   -4.77524E+004    5.28474E+005    2.05818E+003    4.94914E+000    2.73483E+004
            8900    3.30869E+006    3.49626E+006    3.49626E+006    4.25410E+005   -7.62902E+003    3.50389E+006   -1.30468E+006    3.24402E+006    3.49626E+006    4.22445E+005   -4.66431E+003   -1.20997E+001    6.31303E+001   -3.57078E+004
            8901    3.31632E+006    3.48769E+006    3.48769E+006    4.33641E+005   -3.99773E+004    3.52767E+006   -1.29378E+006    3.23892E+006    3.48769E+006    4.10860E+005   -1.71957E+004    7.02762E+002   -2.64242E+002   -1.01345E+005
            8902    3.33117E+006    3.48218E+006    3.48218E+006    4.74291E+005   -9.80831E+004    3.58027E+006   -1.28613E+006    3.21773E+006    3.48218E+006    4.18061E+005   -4.18524E+004    6.03110E+002    8.66857E+002   -1.70361E+005
            8903    3.30505E+006    3.52242E+006    3.52242E+006    4.98908E+005   -6.03971E+003    3.52846E+006   -1.33843E+006    3.21654E+006    3.52242E+006    4.97799E+005   -4.93123E+003   -4.68349E+001   -9.72999E+000   -2.36325E+004
            8904    3.31105E+006    3.51026E+006    3.51026E+006    4.85934E+005   -2.75173E+004    3.53778E+006   -1.32289E+006    3.21965E+006    3.51026E+006    4.77361E+005   -1.89439E+004    7.19185E+002    1.60057E+002   -6.57914E+004
            8905    3.32154E+006    3.49973E+006    3.49973E+006    5.03106E+005   -7.16969E+004    3.57142E+006   -1.31038E+006    3.20676E+006    3.49973E+006    4.80651E+005   -4.92419E+004    1.27632E+002   -8.40707E+001   -1.11369E+005
            8906    3.30303E+006    3.53959E+006    3.53959E+006    5.46515E+005   -4.16634E+003    3.54376E+006   -1.36065E+006    3.19729E+006    3.53959E+006    5.46290E+005   -3.94221E+003    1.82120E+001   -1.21236E+002   -1.11073E+004
            8907    3.30838E+006    3.52474E+006    3.52474E+006    5.21420E+005   -2.15329E+004    3.54627E+006   -1.34154E+006    3.20584E+006    3.52474E+006    5.19649E+005   -1.97615E+004    3.55852E+002    5.76615E+002   -3.09608E+004
            8908    3.31465E+006    3.51283E+006    3.51283E+006    5.24986E+005   -5.26853E+004    3.56552E+006   -1.32838E+006    3.19845E+006    3.51283E+006    5.20189E+005   -4.78876E+004    1.87252E+002   -1.22957E+003   -5.24238E+004
            8909    3.30276E+006    3.54437E+006    3.54437E+006    5.60552E+005   -4.44566E+003    3.54882E+006   -1.36683E+006    3.19131E+006    3.54437E+006    5.60549E+005   -4.44245E+003    4.65038E+000   -5.50809E+001    1.34616E+003
            8910    3.30741E+006    3.52934E+006    3.52934E+006    5.32962E+005   -1.95131E+004    3.54886E+006   -1.34760E+006    3.20112E+006    3.52934E+006    5.32943E+005   -1.94946E+004    1.13603E+002    5.22130E+002    3.18929E+003
            8911    3.31274E+006    3.51651E+006    3.51651E+006    5.31668E+005   -4.76932E+004    3.56421E+006   -1.33350E+006    3.19577E+006    3.51651E+006    5.31654E+005   -4.76779E+004    3.64012E+001   -1.53053E+003    2.90585E+003
            8912    3.30314E+006    3.53697E+006    3.53697E+006    5.39033E+005   -4.06298E+003    3.54103E+006   -1.35731E+006    3.20037E+006    3.53697E+006    5.38696E+005   -3.72659E+003   -1.42677E+001   -1.52483E+002    1.35122E+004
            8913    3.30879E+006    3.52251E+006    3.52251E+006    5.16095E+005   -2.25519E+004    3.54507E+006   -1.33869E+006    3.20792E+006    3.52251E+006    5.13406E+005   -1.98622E+004   -1.28398E+002    7.57796E+002    3.79669E+004
            8914    3.31435E+006    3.51088E+006    3.51088E+006    5.22355E+005   -5.37539E+004    3.56464E+006   -1.32649E+006    3.19878E+006    3.51088E+006    5.16537E+005   -4.79349E+004    1.42991E+002   -1.73831E+003    5.76025E+004
            8915    3.30562E+006    3.51712E+006    3.51712E+006    4.84592E+005   -6.62019E+003    3.52374E+006   -1.33170E+006    3.22197E+006    3.51712E+006    4.83193E+005   -5.22133E+003    2.71991E+001   -5.79554E+001    2.61759E+004
            8916    3.31186E+006    3.50615E+006    3.50615E+006    4.75564E+005   -2.90679E+004    3.53521E+006   -1.31755E+006    3.22366E+006    3.50615E+006    4.65047E+005   -1.85504E+004   -5.49525E+002    5.25065E+002    7.20889E+004
            8917    3.32099E+006    3.49649E+006    3.49649E+006    4.99197E+005   -7.36652E+004    3.57016E+006   -1.30734E+006    3.20699E+006    3.49649E+006    4.74083E+005   -4.85504E+004    8.86522E+001   -1.04364E+003    1.17288E+005
            8918    3.32561E+006    3.48973E+006    3.48973E+006    4.89166E+005   -8.59193E+004    3.57564E+006   -1.29766E+006    3.21087E+006    3.48973E+006   -4.82754E+004    4.51522E+005   -4.89770E+001   -3.00924E+002   -1.42237E+005
            8919    3.31312E+006    3.49992E+006    3.49992E+006    4.61548E+005   -3.24678E+004    3.53239E+006   -1.30967E+006    3.22870E+006    3.49992E+006   -1.84203E+004    4.47500E+005   -1.09447E+002   -9.60526E+002   -8.21117E+004
            8920    3.30656E+006    3.51050E+006    3.51050E+006    4.66282E+005   -7.32809E+003    3.51783E+006   -1.32315E+006    3.22893E+006    3.51050E+006   -5.47724E+003    4.64432E+005   -3.57963E+000    3.79621E+001   -2.95492E+004
            8921    3.31652E+006    3.50542E+006    3.50542E+006    5.14722E+005   -6.14256E+004    3.56684E+006   -1.31957E+006    3.20101E+006    3.50542E+006   -4.93505E+004    5.02647E+005    1.41739E+003   -5.73231E-001   -8.25281E+004
            8922    3.30948E+006    3.51789E+006    3.51789E+006    5.04789E+005   -2.42323E+004    3.54212E+006   -1.33282E+006    3.21228E+006    3.51789E+006   -1.95731E+004    5.00130E+005   -7.06646E+002   -5.55899E+002   -4.94269E+004
            8923    3.30360E+006    3.53202E+006    3.53202E+006    5.25442E+005   -4.52318E+003    3.53655E+006   -1.35098E+006    3.20587E+006    3.53202E+006   -3.95713E+003    5.24876E+005    1.38407E+002   -5.30499E-002   -1.73108E+004
            8924    3.31194E+006    3.51420E+006    3.51420E+006    5.29701E+005   -4.89286E+004    3.56313E+006   -1.33166E+006    3.19524E+006    3.51420E+006   -4.76436E+004    5.28417E+005    2.24032E+003    4.82288E+001   -2.72228E+004
            8925    3.30760E+006    3.52799E+006    3.52799E+006    5.29549E+005   -1.99532E+004    3.54794E+006   -1.34586E+006    3.20249E+006    3.52799E+006   -1.94793E+004    5.29076E+005   -8.58433E+002   -1.54400E+002   -1.61263E+004
            8926    3.30265E+006    3.54304E+006    3.54304E+006    5.56834E+005   -4.19263E+003    3.54723E+006   -1.36523E+006    3.19279E+006    3.54304E+006   -4.13038E+003    5.56772E+005    1.32900E+002   -5.73868E+000   -5.90891E+003
            8927    3.34213E+006    3.36974E+006    3.36974E+006    6.19119E+004   -5.67688E+003    3.37541E+006   -1.14199E+006    3.34059E+006    3.36974E+006    5.68530E+003    5.05498E+004    1.05305E+002    4.60143E+001   -2.52756E+004
            8928    3.33497E+006    3.38949E+006    3.38949E+006    1.20136E+005   -7.43560E+003    3.39692E+006   -1.16740E+006    3.32947E+006    3.38949E+006    2.28865E+003    1.10412E+005    5.96339E+001   -4.62853E+000   -3.38523E+004
            8929    3.32608E+006    3.41693E+006    3.41693E+006    1.98168E+005   -6.97377E+003    3.42390E+006   -1.20271E+006    3.31180E+006    3.41693E+006   -3.63885E+002    1.91558E+005    1.12976E+001    7.17322E+000   -3.62253E+004
            8930    3.31722E+006    3.44959E+006    3.44959E+006    2.90092E+005   -5.56502E+003    3.45516E+006   -1.24471E+006    3.28738E+006    3.44959E+006   -1.71657E+003    2.86244E+005    1.87702E+001    1.37454E+001   -3.35114E+004
            8931    3.31020E+006    3.48261E+006    3.48261E+006    3.83309E+005   -4.34565E+003    3.48696E+006   -1.28719E+006    3.25854E+006    3.48261E+006   -2.47696E+003    3.81440E+005    7.79505E+000    2.14028E+001   -2.68499E+004
            8932    3.33591E+006    3.39015E+006    3.39015E+006    1.42577E+005   -2.75940E+004    3.41774E+006   -1.16838E+006    3.32613E+006    3.39015E+006    3.04971E+004    8.44861E+004   -3.09385E+002   -1.41618E+002   -8.06898E+004
            8933    3.33258E+006    3.40501E+006    3.40501E+006    1.95940E+005   -3.86906E+004    3.44370E+006   -1.18742E+006    3.31392E+006    3.40501E+006    1.77264E+004    1.39523E+005   -2.85187E+002   -1.54109E+001   -1.00271E+005
            8934    3.32746E+006    3.42521E+006    3.42521E+006    2.53681E+005   -3.88649E+004    3.46408E+006   -1.21334E+006    3.29834E+006    3.42521E+006    6.50092E+003    2.08315E+005   -1.31692E+002    5.52184E+001   -1.05894E+005
            8935    3.32098E+006    3.44995E+006    3.44995E+006    3.17479E+005   -3.19131E+004    3.48187E+006   -1.24517E+006    3.27925E+006    3.44995E+006   -2.98238E+003    2.88548E+005   -1.13216E+002    1.16397E+002   -9.62870E+004
            8936    3.31402E+006    3.47793E+006    3.47793E+006    3.86938E+005   -2.12902E+004    3.49922E+006   -1.28119E+006    3.25673E+006    3.47793E+006   -6.20979E+003    3.71857E+005   -2.82185E+001    1.26431E+002   -7.69988E+004
            8937    3.33492E+006    3.40639E+006    3.40639E+006    2.18868E+005   -5.85894E+004    3.46498E+006   -1.18889E+006    3.30880E+006    3.40639E+006    7.34479E+004    8.68311E+004    3.57300E+002    2.53852E+002   -1.38567E+005
            8938    3.33494E+006    3.41717E+006    3.41717E+006    2.68418E+005   -7.70456E+004    3.49422E+006   -1.20285E+006    3.29432E+006    3.41717E+006    4.46555E+004    1.46717E+005    3.40453E+002    5.00471E+001   -1.65022E+005
            8939    3.33274E+006    3.43112E+006    3.43112E+006    3.11802E+005   -8.03426E+004    3.51146E+006   -1.22086E+006    3.28023E+006    3.43112E+006    1.41640E+004    2.17295E+005    1.13190E+002   -4.43790E+001   -1.67716E+005
            8940    3.32720E+006    3.45107E+006    3.45107E+006    3.56556E+005   -6.80562E+004    3.51912E+006   -1.24652E+006    3.26541E+006    3.45107E+006   -4.13221E+003    2.92632E+005    1.23289E+002   -7.42202E+001   -1.51844E+005
            8941    3.32034E+006    3.47415E+006    3.47415E+006    4.05758E+005   -5.08628E+004    3.52502E+006   -1.27635E+006    3.24857E+006    3.47415E+006   -1.52755E+004    3.70171E+005    5.35267E+001   -6.25901E+001   -1.22407E+005
            8942    3.33853E+006    3.42089E+006    3.42089E+006    3.10750E+005   -1.06754E+005    3.52764E+006   -1.20830E+006    3.27902E+006    3.42089E+006    1.31770E+005    7.22261E+004   -7.55868E+002   -7.13150E+002   -2.06618E+005
            8943    3.34227E+006    3.42467E+006    3.42467E+006    3.40253E+005   -1.26413E+005    3.55108E+006   -1.21283E+006    3.26777E+006    3.42466E+006    7.08383E+004    1.43002E+005   -1.12299E+003   -1.39404E+002   -2.30526E+005
            8944    3.34061E+006    3.43621E+006    3.43621E+006    3.68493E+005   -1.22874E+005    3.55908E+006   -1.22728E+006    3.25782E+006    3.43621E+006    2.69341E+004    2.18685E+005   -8.00937E+002    4.45730E+002   -2.26204E+005
            8945    3.33616E+006    3.45155E+006    3.45155E+006    4.00188E+005   -1.10514E+005    3.56206E+006   -1.24707E+006    3.24647E+006    3.45155E+006   -7.51910E+003    2.97194E+005   -7.07510E+002    7.69677E+002   -2.04919E+005
            8946    3.32821E+006    3.47172E+006    3.47172E+006    4.34190E+005   -8.59202E+004    3.55764E+006   -1.27333E+006    3.23488E+006    3.47172E+006   -2.61112E+004    3.74381E+005   -3.97044E+002    1.01598E+003   -1.65922E+005
            8947    3.34078E+006    3.46722E+006    3.46722E+006    4.67544E+005   -1.33153E+005    3.60037E+006   -1.26720E+006    3.21589E+006    3.46722E+006   -3.80140E+004    3.72406E+005    8.03577E+002    9.22023E+002   -2.19313E+005
            8948    3.35015E+006    3.45169E+006    3.45169E+006    4.44226E+005   -1.59148E+005    3.61083E+006   -1.24559E+006    3.22449E+006    3.45169E+006   -4.60843E+003    2.89687E+005    1.53852E+003    1.19678E+003   -2.63367E+005
            8949    3.35600E+006    3.44054E+006    3.44054E+006    4.25222E+005   -1.75109E+005    3.61565E+006   -1.23022E+006    3.23187E+006    3.44054E+006    4.29984E+004    2.07116E+005    1.59044E+003    1.19668E+003   -2.88731E+005
            8950    3.35653E+006    3.43498E+006    3.43498E+006    4.05582E+005   -1.73370E+005    3.60835E+006   -1.22240E+006    3.24133E+006    3.43498E+006    1.00468E+005    1.31744E+005    1.88697E+003    1.19413E+003   -2.89053E+005
            8951    3.35434E+006    3.43192E+006    3.43192E+006    3.91206E+005   -1.66203E+005    3.59812E+006   -1.21897E+006    3.24768E+006    3.43192E+006    1.66546E+005    5.84572E+004    9.94115E+002    1.37186E+003   -2.73414E+005
            8952    3.34800E+006    3.44297E+006    3.44297E+006    4.05987E+005   -1.47152E+005    3.59013E+006   -1.23394E+006    3.24280E+006    3.44297E+006    2.46293E+005    1.25432E+004    6.66010E+002    1.52728E+003   -2.50660E+005
            8953    3.33994E+006    3.46265E+006    3.46265E+006    4.40996E+005   -1.23592E+005    3.58625E+006   -1.26002E+006    3.22995E+006    3.46265E+006    3.37937E+005   -2.05318E+004    4.18026E+002    1.35255E+003   -2.18094E+005
            8954    3.32310E+006    3.46259E+006    3.46259E+006    3.77787E+005   -5.61816E+004    3.51877E+006   -1.26140E+006    3.25844E+006    3.46259E+006    3.32556E+005   -1.09511E+004    6.45892E+002   -5.10852E+002   -1.32600E+005
            8955    3.31533E+006    3.46323E+006    3.46323E+006    3.35360E+005   -1.21784E+004    3.47541E+006   -1.26214E+006    3.27397E+006    3.46323E+006    3.28825E+005   -5.64302E+003   -7.69959E+001    7.72632E+001   -4.72080E+004
            8956    3.32960E+006    3.43806E+006    3.43806E+006    3.23753E+005   -7.15336E+004    3.50960E+006   -1.23009E+006    3.27618E+006    3.43806E+006    2.46859E+005    5.36093E+003    2.97094E+002   -8.98349E+002   -1.56469E+005
            8957    3.32301E+006    3.43068E+006    3.43068E+006    2.41908E+005   -1.19874E+004    3.44267E+006   -1.22020E+006    3.30108E+006    3.43068E+006    2.30493E+005   -5.72151E+002   -1.89331E+001    2.22367E+002   -5.26116E+004
            8958    3.33088E+006    3.40264E+006    3.40264E+006    1.60920E+005   -1.07593E+004    3.41340E+006   -1.18427E+006    3.32090E+006    3.40264E+006    1.45720E+005    4.44006E+003    6.08570E+001    1.00027E+001   -4.87688E+004
            8959    3.33890E+006    3.37799E+006    3.37799E+006    8.54692E+004   -5.43502E+003    3.38342E+006   -1.15267E+006    3.33611E+006    3.37799E+006    6.93353E+004    1.06989E+004   -2.38983E+001   -4.61317E+001   -3.47324E+004
            8960    3.34562E+006    3.36046E+006    3.36046E+006    3.06285E+004   -7.22545E+002    3.36119E+006   -1.13012E+006    3.34529E+006    3.36046E+006    2.03491E+004    9.55681E+003   -9.07967E+000    6.98795E+000   -1.47174E+004
            8961    3.34922E+006    3.35167E+006    3.35167E+006    4.87556E+003    2.39960E+001    3.35165E+006   -1.11886E+006    3.34922E+006    3.35167E+006    2.58501E+003    2.31454E+003   -5.53621E+000   -9.00908E+000   -2.42201E+003
            8962    3.33276E+006    3.41648E+006    3.41648E+006    2.53805E+005   -6.36561E+004    3.48013E+006   -1.20221E+006    3.29849E+006    3.41648E+006    1.63713E+005    2.64352E+004   -5.28998E+001   -2.88866E+002   -1.43122E+005
            8963    3.33530E+006    3.39456E+006    3.39456E+006    1.61336E+005   -3.42157E+004    3.42878E+006   -1.17389E+006    3.32237E+006    3.39456E+006    8.57682E+004    4.13523E+004   -2.21047E+000    5.18782E+001   -9.52205E+004
            8964    3.33947E+006    3.37701E+006    3.37701E+006    8.68995E+004   -9.71288E+003    3.38672E+006   -1.15140E+006    3.33632E+006    3.37701E+006    3.70232E+004    4.01633E+004   -3.80773E+001   -5.42018E+001   -4.82806E+004
            8965    3.34650E+006    3.35830E+006    3.35830E+006    2.47112E+004   -9.66438E+002    3.35927E+006   -1.12735E+006    3.34628E+006    3.35830E+006    7.89615E+003    1.58486E+004    2.00275E-002    1.61911E+001   -1.22076E+004
            8966    3.33600E+006    3.38818E+006    3.38818E+006    1.16887E+005   -8.96406E+003    3.39714E+006   -1.16537E+006    3.33065E+006    3.38818E+006    8.75139E+003    9.91715E+004   -4.45020E+002   -6.00497E+000   -4.37683E+004
            8967    3.32752E+006    3.41525E+006    3.41525E+006    2.00079E+005   -1.42586E+004    3.42951E+006   -1.20036E+006    3.31194E+006    3.41525E+006    1.32605E+002    1.85688E+005   -1.64492E+002    8.32159E+001   -5.36421E+004
            8968    3.31870E+006    3.44846E+006    3.44846E+006    2.94434E+005   -1.34645E+004    3.46192E+006   -1.24314E+006    3.28634E+006    3.44846E+006   -5.24629E+003    2.86216E+005   -2.08367E+002    6.41620E+001   -4.96270E+004
            8969    3.31089E+006    3.48254E+006    3.48254E+006    3.86513E+005   -7.87330E+003    3.49041E+006   -1.28706E+006    3.25741E+006    3.48254E+006   -3.72389E+003    3.82363E+005   -2.95508E+001    5.26457E+001   -4.02399E+004
            8970    3.33361E+006    3.41049E+006    3.41049E+006    2.40910E+005   -6.59292E+004    3.47642E+006   -1.19516E+006    3.30162E+006    3.41049E+006    4.26145E+004    1.32367E+005    1.38111E+003    2.84223E+001   -1.46710E+005
            8971    3.33142E+006    3.42907E+006    3.42907E+006    3.00234E+005   -7.34199E+004    3.50249E+006   -1.21863E+006    3.28378E+006    3.42907E+006    9.44762E+003    2.17367E+005    1.22556E+003   -3.36539E+002   -1.55231E+005
            8972    3.32523E+006    3.45208E+006    3.45208E+006    3.53078E+005   -6.06485E+004    3.51273E+006   -1.24817E+006    3.26657E+006    3.45208E+006   -4.90660E+003    2.97337E+005    1.09136E+003   -8.75958E+002   -1.41261E+005
            8973    3.31901E+006    3.47663E+006    3.47663E+006    4.08704E+005   -4.64855E+004    3.52311E+006   -1.27962E+006    3.24767E+006    3.47663E+006   -1.49793E+004    3.77198E+005    4.24590E+002   -9.70917E+002   -1.15536E+005
            8974    3.33588E+006    3.47191E+006    3.47191E+006    4.59368E+005   -1.13190E+005    3.58510E+006   -1.27270E+006    3.22254E+006    3.47191E+006   -3.57072E+004    3.81886E+005   -1.37762E+003   -6.48427E+002   -1.95856E+005
            8975    3.34460E+006    3.45556E+006    3.45556E+006    4.31344E+005   -1.36676E+005    3.59223E+006   -1.25007E+006    3.23340E+006    3.45556E+006   -8.66339E+003    3.03332E+005   -2.02473E+003   -7.40402E+002   -2.37331E+005
            8976    3.34860E+006    3.44156E+006    3.44156E+006    3.96216E+005   -1.44501E+005    3.58606E+006   -1.23109E+006    3.24820E+006    3.44156E+006    3.27508E+004    2.18965E+005   -2.22378E+003   -7.53470E+002   -2.53820E+005
            8977    3.35105E+006    3.42587E+006    3.42587E+006    3.60313E+005   -1.51735E+005    3.57760E+006   -1.21148E+006    3.26129E+006    3.42587E+006    7.80081E+004    1.30571E+005   -1.75293E+003   -6.01988E+002   -2.54671E+005
            8978    3.35044E+006    3.42634E+006    3.42634E+006    3.62033E+005   -1.51038E+005    3.57738E+006   -1.21245E+006    3.26030E+006    3.42634E+006    1.46537E+005    6.44588E+004   -5.50554E+002   -1.34144E+003   -2.53231E+005
            8979    3.34621E+006    3.44311E+006    3.44311E+006    4.00730E+005   -1.40862E+005    3.58398E+006   -1.23433E+006    3.24540E+006    3.44311E+006    2.40154E+005    1.97146E+004   -4.63483E+002   -1.31529E+003   -2.47350E+005
            8980    3.34059E+006    3.45932E+006    3.45932E+006    4.37466E+005   -1.27849E+005    3.58717E+006   -1.25631E+006    3.23033E+006    3.45932E+006    3.27909E+005   -1.82920E+004   -2.96180E+002   -9.34351E+002   -2.23453E+005
            8981    3.33115E+006    3.47795E+006    3.47795E+006    4.68155E+005   -1.01166E+005    3.57912E+006   -1.28165E+006    3.21895E+006    3.47795E+006    4.07636E+005   -4.06464E+004   -2.11547E+002   -2.38444E+002   -1.75477E+005
            8982    3.31756E+006    3.48270E+006    3.48270E+006    4.21618E+005   -4.24721E+004    3.52517E+006   -1.28728E+006    3.24332E+006    3.48270E+006    3.95441E+005   -1.62948E+004   -6.80688E+002   -8.65151E+001   -1.07067E+005
            8983    3.30968E+006    3.48885E+006    3.48885E+006    4.04112E+005   -7.29945E+003    3.49615E+006   -1.29522E+006    3.25140E+006    3.48885E+006    4.00618E+005   -3.80551E+003    3.30699E+001    3.16195E+001   -3.77523E+004
            8984    3.32396E+006    3.45684E+006    3.45684E+006    3.62612E+005   -5.70000E+004    3.51384E+006   -1.25415E+006    3.26358E+006    3.45684E+006    3.12922E+005   -7.30967E+003   -7.33384E+002    4.98868E+002   -1.35579E+005
            8985    3.31700E+006    3.45459E+006    3.45459E+006    3.10805E+005   -1.20182E+004    3.46661E+006   -1.25113E+006    3.28138E+006    3.45459E+006    3.03651E+005   -4.86434E+003    3.78355E+001   -1.11595E+002   -4.75211E+004
            8986    3.33060E+006    3.43189E+006    3.43189E+006    3.06220E+005   -7.14369E+004    3.50333E+006   -1.22222E+006    3.28191E+006    3.43189E+006    2.29454E+005    5.32863E+003   -3.11103E+002    8.54588E+002   -1.51980E+005
            8987    3.32608E+006    3.41974E+006    3.41974E+006    2.13052E+005   -1.40946E+004    3.43383E+006   -1.20623E+006    3.30857E+006    3.41974E+006    1.99972E+005   -1.01460E+003    7.10661E+001   -8.15003E+001   -5.29150E+004
            8988    3.33336E+006    3.41132E+006    3.41132E+006    2.43650E+005   -6.61081E+004    3.47743E+006   -1.19629E+006    3.30075E+006    3.41132E+006    1.40577E+005    3.69647E+004    9.92055E+001    1.28307E+003   -1.45957E+005
            8989    3.33491E+006    3.39103E+006    3.39103E+006    1.24933E+005   -8.67169E+003    3.39970E+006   -1.16910E+006    3.32888E+006    3.39103E+006    1.08185E+005    8.07679E+003   -2.32429E+001   -4.21088E+002   -4.42399E+004
            8990    3.34246E+006    3.36901E+006    3.36901E+006    5.90631E+004   -5.03046E+003    3.37404E+006   -1.14101E+006    3.34107E+006    3.36901E+006    4.43180E+004    9.71456E+003   -1.09743E+002   -6.18506E+001   -2.69749E+004
            8991    3.34730E+006    3.35610E+006    3.35610E+006    1.76127E+004    6.65609E+001    3.35603E+006   -1.12459E+006    3.34719E+006    3.35610E+006    9.26967E+003    8.40957E+003    4.56451E+001    4.23438E+001   -8.76251E+003
            8992    3.33504E+006    3.39401E+006    3.39401E+006    1.60502E+005   -3.40424E+004    3.42805E+006   -1.17349E+006    3.32224E+006    3.39401E+006    6.52291E+004    6.12307E+004    2.85141E+002    2.72134E+002   -9.72517E+004
            8993    3.34297E+006    3.36784E+006    3.36784E+006    5.60077E+004   -5.42750E+003    3.37326E+006   -1.13947E+006    3.34170E+006    3.36784E+006    1.01733E+004    4.04069E+004   -6.57320E+001   -1.17209E+002   -2.67405E+004
            8994    3.32845E+006    3.48641E+006    3.48641E+006    4.93270E+005   -9.80861E+004    3.58449E+006   -1.29386E+006    3.20705E+006    3.48641E+006   -5.23991E+004    4.47583E+005   -4.21523E+002    3.68610E+002   -1.57892E+005
            8995    3.32033E+006    3.49272E+006    3.49272E+006    4.71540E+005   -6.21259E+004    3.55484E+006   -1.30071E+006    3.22172E+006    3.49272E+006   -3.40238E+004    4.43438E+005   -8.02295E+000    9.30288E+002   -1.19195E+005
            8996    3.31379E+006    3.49763E+006    3.49763E+006    4.57227E+005   -3.45683E+004    3.53220E+006   -1.30676E+006    3.23015E+006    3.49763E+006   -1.83974E+004    4.41056E+005   -1.48179E+001   -6.02680E+001   -8.76998E+004
            8997    3.30883E+006    3.50392E+006    3.50392E+006    4.54640E+005   -1.43993E+004    3.51832E+006   -1.31472E+006    3.23277E+006    3.50392E+006   -7.95611E+003    4.48197E+005    4.49978E+001    1.26073E+002   -5.45947E+004
            8998    3.30536E+006    3.51254E+006    3.51254E+006    4.67185E+005   -2.55262E+003    3.51509E+006   -1.32572E+006    3.22898E+006    3.51254E+006   -1.78183E+003    4.66414E+005    1.15192E+001    2.97631E+001   -1.90126E+004
            8999    3.31881E+006    3.50324E+006    3.50324E+006    5.17477E+005   -7.01338E+004    3.57337E+006   -1.31686E+006    3.19862E+006    3.50324E+006   -5.53054E+004    5.02650E+005   -1.71252E+003    5.90325E+001   -9.21574E+004
            9000    3.31432E+006    3.51011E+006    3.51011E+006    5.05090E+005   -4.47295E+004    3.55484E+006   -1.32349E+006    3.20930E+006    3.51011E+006   -3.55983E+004    4.95959E+005    1.30069E+002    4.91890E+002   -7.02646E+004
            9001    3.30963E+006    3.51608E+006    3.51608E+006    5.01507E+005   -2.53874E+004    3.54147E+006   -1.33073E+006    3.21323E+006    3.51608E+006   -2.01766E+004    4.96297E+005   -7.90748E+001   -1.97677E+000   -5.21381E+004
            9002    3.30560E+006    3.52411E+006    3.52411E+006    5.08316E+005   -1.00358E+004    3.53415E+006   -1.34080E+006    3.21225E+006    3.52411E+006   -7.96001E+003    5.06240E+005    1.16848E+002    7.29920E+001   -3.27365E+004
            9003    3.30303E+006    3.53403E+006    3.53403E+006    5.28356E+005   -2.15289E+003    3.53618E+006   -1.35341E+006    3.20508E+006    3.53403E+006   -1.90813E+003    5.28112E+005    7.73418E+000    2.80911E+001   -1.13923E+004
            9004    3.31365E+006    3.51239E+006    3.51239E+006    5.31231E+005   -5.54111E+004    3.56780E+006   -1.32940E+006    3.19367E+006    3.51238E+006   -5.39768E+004    5.29798E+005   -2.47584E+003   -8.80284E+001   -2.89548E+004
            9005    3.31138E+006    3.51965E+006    3.51965E+006    5.25012E+005   -3.66301E+004    3.55628E+006   -1.33601E+006    3.20158E+006    3.51965E+006   -3.56812E+004    5.24063E+005    1.35379E+002    1.72678E+002   -2.30661E+004
            9006    3.30737E+006    3.52652E+006    3.52652E+006    5.26356E+005   -2.00123E+004    3.54654E+006   -1.34429E+006    3.20347E+006    3.52652E+006   -1.94744E+004    5.25818E+005   -7.26905E+001   -1.05144E+000   -1.71343E+004
            9007    3.30423E+006    3.53497E+006    3.53497E+006    5.37865E+005   -8.33099E+003    3.54330E+006   -1.35483E+006    3.20030E+006    3.53497E+006   -8.11657E+003    5.37651E+005    1.43461E+002    3.00537E+001   -1.08196E+004
            9008    3.30205E+006    3.54566E+006    3.54566E+006    5.61194E+005   -1.62917E+003    3.54729E+006   -1.36841E+006    3.19145E+006    3.54566E+006   -1.60269E+003    5.61168E+005    1.90537E+001    1.33999E+001   -3.86043E+003
            9009    3.33062E+006    3.48147E+006    3.48147E+006    4.74378E+005   -9.83875E+004    3.57986E+006   -1.28582E+006    3.21701E+006    3.48147E+006    4.18077E+005   -4.20861E+004    4.61495E+002   -6.00911E+002    1.70522E+005
            9010    3.31621E+006    3.48805E+006    3.48805E+006    4.34302E+005   -3.96260E+004    3.52768E+006   -1.29424E+006    3.23870E+006    3.48805E+006    4.11812E+005   -1.71355E+004    8.37686E+002    1.34251E+002    1.00763E+005
            9011    3.30854E+006    3.49690E+006    3.49690E+006    4.27201E+005   -7.50198E+003    3.50440E+006   -1.30553E+006    3.24335E+006    3.49690E+006    4.24293E+005   -4.59395E+003   -4.28972E+001   -3.20576E+001    3.54355E+004
            9012    3.32104E+006    3.49924E+006    3.49924E+006    5.03017E+005   -7.16086E+004    3.57085E+006   -1.31022E+006    3.20632E+006    3.49924E+006    4.80577E+005   -4.91685E+004    1.28678E+002    4.36659E+002    1.11315E+005
            9013    3.31103E+006    3.51039E+006    3.51039E+006    4.86293E+005   -2.75007E+004    3.53789E+006   -1.32306E+006    3.21951E+006    3.51039E+006    4.77785E+005   -1.89927E+004    6.64378E+002   -3.30133E+002    6.55664E+004
            9014    3.30493E+006    3.52286E+006    3.52286E+006    5.00248E+005   -5.96936E+003    3.52883E+006   -1.33905E+006    3.21597E+006    3.52286E+006    4.99164E+005   -4.88486E+003   -2.77721E+001    5.67511E+001    2.34054E+004
            9015    3.31440E+006    3.51242E+006    3.51242E+006    5.25042E+005   -5.29537E+004    3.56538E+006   -1.32817E+006    3.19805E+006    3.51242E+006    5.20281E+005   -4.81924E+004    7.49349E+001    1.41511E+003    5.22399E+004
            9016    3.30837E+006    3.52466E+006    3.52466E+006    5.21532E+005   -2.17122E+004    3.54637E+006   -1.34149E+006    3.20571E+006    3.52466E+006    5.19777E+005   -1.99565E+004    3.40638E+002   -5.98689E+002    3.08319E+004
            9017    3.30300E+006    3.53974E+006    3.53974E+006    5.47033E+005   -4.18568E+003    3.54393E+006   -1.36086E+006    3.19705E+006    3.53974E+006    5.46817E+005   -3.96988E+003    1.03786E+001    1.07716E+002    1.09045E+004
            9018    3.31246E+006    3.51624E+006    3.51624E+006    5.31432E+005   -4.75359E+004    3.56378E+006   -1.33338E+006    3.19564E+006    3.51624E+006    5.31412E+005   -4.75152E+004    3.74812E+001    1.73083E+003   -3.39230E+003
            9019    3.30741E+006    3.52933E+006    3.52933E+006    5.32770E+005   -1.94124E+004    3.54875E+006   -1.34756E+006    3.20123E+006    3.52933E+006    5.32749E+005   -1.93914E+004    4.08759E+001   -6.25033E+002   -3.39609E+003
            9020    3.30272E+006    3.54434E+006    3.54434E+006    5.60427E+005   -4.35157E+003    3.54869E+006   -1.36681E+006    3.19136E+006    3.54434E+006    5.60423E+005   -4.34783E+003    3.17716E+000    8.91134E+001   -1.45152E+003
            9021    3.31463E+006    3.51104E+006    3.51104E+006    5.22514E+005   -5.40519E+004    3.56509E+006   -1.32650E+006    3.19888E+006    3.51104E+006    5.16548E+005   -4.80860E+004    9.41824E+001    1.55924E+003   -5.83421E+004
            9022    3.30881E+006    3.52235E+006    3.52235E+006    5.15712E+005   -2.26197E+004    3.54497E+006   -1.33848E+006    3.20806E+006    3.52235E+006    5.12994E+005   -1.99020E+004   -2.05838E+002   -6.78376E+002   -3.81519E+004
            9023    3.30319E+006    3.53670E+006    3.53670E+006    5.38225E+005   -4.08893E+003    3.54079E+006   -1.35695E+006    3.20073E+006    3.53670E+006    5.37885E+005   -3.74899E+003   -8.58333E+000    1.23030E+002   -1.35734E+004
            9024    3.32153E+006    3.49680E+006    3.49680E+006    4.98996E+005   -7.39202E+004    3.57072E+006   -1.30729E+006    3.20753E+006    3.49680E+006    4.73695E+005   -4.86199E+004    1.20559E+001    7.49788E+002   -1.17706E+005
            9025    3.31191E+006    3.50612E+006    3.50612E+006    4.75753E+005   -2.93119E+004    3.53543E+006   -1.31752E+006    3.22356E+006    3.50612E+006    4.65165E+005   -1.87241E+004   -5.71664E+002   -4.11532E+002   -7.23561E+004
            9026    3.30573E+006    3.51662E+006    3.51662E+006    4.83171E+005   -6.70854E+003    3.52333E+006   -1.33103E+006    3.22254E+006    3.51662E+006    4.81749E+005   -5.28663E+003    2.11832E+001    4.09763E+001   -2.63541E+004
            9027    3.30545E+006    3.51227E+006    3.51227E+006    4.66626E+005   -2.80224E+003    3.51507E+006   -1.32536E+006    3.22918E+006    3.51227E+006   -2.02758E+003    4.65851E+005    1.29388E+001   -3.26992E+001    1.90537E+004
            9028    3.30885E+006    3.50393E+006    3.50393E+006    4.54610E+005   -1.43980E+004    3.51833E+006   -1.31471E+006    3.23279E+006    3.50393E+006   -7.90532E+003    4.48117E+005    3.11667E+001   -1.22215E+002    5.47995E+004
            9029    3.31391E+006    3.49765E+006    3.49765E+006    4.57550E+005   -3.49452E+004    3.53259E+006   -1.30675E+006    3.23003E+006    3.49765E+006   -1.86981E+004    4.41303E+005    3.85143E+000    4.66233E+001    8.79640E+004
            9030    3.32046E+006    3.49282E+006    3.49282E+006    4.72095E+005   -6.24982E+004    3.55532E+006   -1.30081E+006    3.22150E+006    3.49282E+006   -3.42901E+004    4.43887E+005   -8.76756E+001   -8.80741E+002    1.19516E+005
            9031    3.32896E+006    3.48703E+006    3.48703E+006    4.93623E+005   -9.81261E+004    3.58515E+006   -1.29417E+006    3.20742E+006    3.48703E+006   -5.25675E+004    4.48065E+005   -7.02392E+001   -4.71175E+002    1.57746E+005
            9032    3.30299E+006    3.53411E+006    3.53411E+006    5.28341E+005   -1.93935E+003    3.53605E+006   -1.35350E+006    3.20511E+006    3.53411E+006   -1.69900E+003    5.28101E+005    1.22518E+001   -2.68041E+001    1.12869E+004
            9033    3.30560E+006    3.52416E+006    3.52416E+006    5.08419E+005   -1.00232E+004    3.53419E+006   -1.34085E+006    3.21222E+006    3.52416E+006   -7.98150E+003    5.06378E+005    1.09837E+002   -8.24360E+001    3.24708E+004
            9034    3.30960E+006    3.51611E+006    3.51611E+006    5.01350E+005   -2.51995E+004    3.54131E+006   -1.33075E+006    3.21333E+006    3.51611E+006   -1.99998E+004    4.96150E+005   -5.99383E+001    1.36716E+001    5.20656E+004
            9035    3.31438E+006    3.51002E+006    3.51002E+006    5.05344E+005   -4.51241E+004    3.55515E+006   -1.32341E+006    3.20911E+006    3.51002E+006   -3.59840E+004    4.96204E+005    7.19657E+001   -5.69506E+002    7.03403E+004
            9036    3.31890E+006    3.50319E+006    3.50319E+006    5.17805E+005   -7.05273E+004    3.57372E+006   -1.31682E+006    3.19840E+006    3.50319E+006   -5.56755E+004    5.02954E+005   -1.69059E+003   -2.39602E+001    9.22866E+004
            9037    3.30209E+006    3.54563E+006    3.54563E+006    5.61234E+005   -1.76887E+003    3.54740E+006   -1.36837E+006    3.19142E+006    3.54563E+006   -1.74277E+003    5.61208E+005    1.34194E+001   -1.43754E+001    3.83325E+003
            9038    3.30418E+006    3.53505E+006    3.53505E+006    5.37865E+005   -8.10447E+003    3.54316E+006   -1.35494E+006    3.20033E+006    3.53505E+006   -7.88915E+003    5.37649E+005    1.56888E+002   -3.02570E+001    1.08403E+004
            9039    3.30738E+006    3.52654E+006    3.52654E+006    5.26443E+005   -2.00463E+004    3.54659E+006   -1.34431E+006    3.20343E+006    3.52654E+006   -1.95111E+004    5.25907E+005   -8.93400E+001   -6.16235E-001    1.70947E+004
            9040    3.31131E+006    3.51969E+006    3.51969E+006    5.24888E+005   -3.63841E+004    3.55607E+006   -1.33606E+006    3.20165E+006    3.51969E+006   -3.54525E+004    5.23957E+005    1.83100E+002   -1.76737E+002    2.28471E+004
            9041    3.31337E+006    3.51217E+006    3.51217E+006    5.30952E+005   -5.51466E+004    3.56731E+006   -1.32932E+006    3.19361E+006    3.51216E+006   -5.37081E+004    5.29515E+005   -2.64922E+003    4.51903E+001    2.89813E+004
            9042    3.35434E+006    3.43200E+006    3.43200E+006    3.91123E+005   -1.66033E+005    3.59803E+006   -1.21903E+006    3.24778E+006    3.43200E+006    1.66765E+005    5.83262E+004    1.00802E+003   -1.40535E+003    2.73250E+005
            9043    3.35645E+006    3.43484E+006    3.43484E+006    4.05544E+005   -1.73441E+005    3.60828E+006   -1.22231E+006    3.24123E+006    3.43484E+006    1.00733E+005    1.31371E+005    1.75422E+003   -1.15055E+003    2.89087E+005
            9044    3.35591E+006    3.44060E+006    3.44060E+006    4.25367E+005   -1.74959E+005    3.61556E+006   -1.23034E+006    3.23178E+006    3.44060E+006    4.29246E+004    2.07484E+005    1.51009E+003   -1.15191E+003    2.88665E+005
            9045    3.35030E+006    3.45177E+006    3.45177E+006    4.44184E+005   -1.59239E+005    3.61101E+006   -1.24557E+006    3.22462E+006    3.45177E+006   -5.12295E+003    2.90069E+005    1.52847E+003   -1.15955E+003    2.63144E+005
            9046    3.34106E+006    3.46774E+006    3.46774E+006    4.67480E+005   -1.32761E+005    3.60050E+006   -1.26749E+006    3.21638E+006    3.46774E+006   -3.81019E+004    3.72822E+005    9.53070E+002   -9.74338E+002    2.18764E+005
            9047    3.32840E+006    3.47172E+006    3.47172E+006    4.34113E+005   -8.61959E+004    3.55792E+006   -1.27321E+006    3.23501E+006    3.47172E+006   -2.61607E+004    3.74078E+005   -3.70433E+002   -9.57005E+002    1.66231E+005
            9048    3.32052E+006    3.47403E+006    3.47403E+006    4.05882E+005   -5.14666E+004    3.52549E+006   -1.27615E+006    3.24853E+006    3.47403E+006   -1.53801E+004    3.69795E+005    6.11110E+001    6.18310E+001    1.23296E+005
            9049    3.31417E+006    3.47776E+006    3.47776E+006    3.86993E+005   -2.18644E+004    3.49963E+006   -1.28096E+006    3.25670E+006    3.47776E+006   -6.52643E+003    3.71655E+005   -4.14271E+001   -1.21470E+002    7.76903E+004
            9050    3.31019E+006    3.48262E+006    3.48262E+006    3.83204E+005   -4.24395E+003    3.48686E+006   -1.28719E+006    3.25859E+006    3.48262E+006   -2.34856E+003    3.81308E+005    1.12568E+001   -2.20753E+001    2.70328E+004
            9051    3.33632E+006    3.45123E+006    3.45123E+006    3.99478E+005   -1.10851E+005    3.56208E+006   -1.24662E+006    3.24677E+006    3.45123E+006   -7.04717E+003    2.95675E+005   -6.68875E+002   -6.91559E+002    2.05423E+005
            9052    3.32738E+006    3.45084E+006    3.45084E+006    3.56368E+005   -6.86222E+004    3.51946E+006   -1.24619E+006    3.26548E+006    3.45084E+006   -3.93074E+003    2.91677E+005    1.30157E+002    6.24679E+001    1.52670E+005
            9053    3.32101E+006    3.44999E+006    3.44999E+006    3.17727E+005   -3.20871E+004    3.48207E+006   -1.24521E+006    3.27918E+006    3.44999E+006   -2.73379E+003    2.88374E+005   -1.18982E+002   -1.05099E+002    9.69877E+004
            9054    3.31728E+006    3.44956E+006    3.44956E+006    2.90386E+005   -5.94184E+003    3.45550E+006   -1.24467E+006    3.28731E+006    3.44956E+006   -2.01704E+003    2.86461E+005    1.58724E+001   -1.50730E+001    3.38766E+004
            9055    3.34077E+006    3.43580E+006    3.43580E+006    3.67984E+005   -1.23478E+005    3.55928E+006   -1.22677E+006    3.25795E+006    3.43580E+006    2.80216E+004    2.16484E+005   -7.60498E+002   -3.88825E+002    2.26945E+005
            9056    3.33290E+006    3.43087E+006    3.43087E+006    3.11697E+005   -8.09748E+004    3.51184E+006   -1.22053E+006    3.28025E+006    3.43087E+006    1.49992E+004    2.15723E+005    1.03791E+002    3.13746E+001    1.68746E+005
            9057    3.32747E+006    3.42549E+006    3.42549E+006    2.55021E+005   -3.94202E+004    3.46491E+006   -1.21370E+006    3.29797E+006    3.42549E+006    6.35353E+003    2.09248E+005   -1.36670E+002   -4.71731E+001    1.06689E+005
            9058    3.32590E+006    3.41754E+006    3.41754E+006    2.00016E+005   -7.07051E+003    3.42461E+006   -1.20349E+006    3.31135E+006    3.41754E+006   -2.98120E+002    1.93244E+005    1.28707E+001   -7.83713E+000    3.68321E+004
            9059    3.34226E+006    3.42453E+006    3.42453E+006    3.39928E+005   -1.26408E+005    3.55094E+006   -1.21268E+006    3.26786E+006    3.42453E+006    7.15731E+004    1.41948E+005   -1.08994E+003    1.83697E+002    2.30498E+005
            9060    3.33496E+006    3.41719E+006    3.41719E+006    2.68821E+005   -7.73597E+004    3.49455E+006   -1.20288E+006    3.29417E+006    3.41719E+006    4.50576E+004    1.46403E+005    3.18938E+002   -5.74511E+001    1.65507E+005
            9061    3.33251E+006    3.40543E+006    3.40543E+006    1.97544E+005   -3.90975E+004    3.44452E+006   -1.18796E+006    3.31353E+006    3.40543E+006    1.82928E+004    1.40153E+005   -2.78927E+002    2.46238E+001    1.01426E+005
            9062    3.33463E+006    3.39040E+006    3.39040E+006    1.22461E+005   -7.14373E+003    3.39754E+006   -1.16857E+006    3.32895E+006    3.39040E+006    2.54644E+003    1.12771E+005    5.26390E+001    5.86279E+000    3.40880E+004
            9063    3.33854E+006    3.42082E+006    3.42082E+006    3.10794E+005   -1.06907E+005    3.52773E+006   -1.20824E+006    3.27897E+006    3.42082E+006    1.31895E+005    7.19924E+004   -7.48859E+002    7.47304E+002    2.06692E+005
            9064    3.33488E+006    3.40628E+006    3.40628E+006    2.18048E+005   -5.80774E+004    3.46435E+006   -1.18875E+006    3.30901E+006    3.40628E+006    7.27906E+004    8.71798E+004    3.56156E+002   -2.58488E+002    1.37875E+005
            9065    3.33589E+006    3.39017E+006    3.39017E+006    1.42667E+005   -2.75935E+004    3.41776E+006   -1.16841E+006    3.32609E+006    3.39017E+006    3.02586E+004    8.48145E+004   -3.28827E+002    1.49705E+002    8.06414E+004
            9066    3.34202E+006    3.37009E+006    3.37009E+006    6.34668E+004   -6.23693E+003    3.37632E+006   -1.14244E+006    3.34038E+006    3.37009E+006    5.21395E+003    5.20159E+004    1.11895E+002   -4.59714E+001    2.58272E+004
            9067    3.34634E+006    3.35868E+006    3.35868E+006    2.57559E+004   -9.21456E+002    3.35960E+006   -1.12784E+006    3.34610E+006    3.35868E+006    8.39081E+003    1.64436E+004    4.42411E-001   -1.70653E+001    1.27165E+004
            9068    3.34923E+006    3.35166E+006    3.35166E+006    4.84163E+003    2.79768E+001    3.35163E+006   -1.11884E+006    3.34922E+006    3.35166E+006    2.55301E+003    2.31659E+003   -5.43492E+000    1.15864E+001    2.40392E+003
            9069    3.33947E+006    3.37694E+006    3.37694E+006    8.64940E+004   -9.49276E+003    3.38643E+006   -1.15131E+006    3.33637E+006    3.37694E+006    3.67128E+004    4.02885E+004   -4.19007E+001    6.57797E+001    4.79601E+004
            9070    3.34556E+006    3.36061E+006    3.36061E+006    3.10439E+004   -7.04269E+002    3.36132E+006   -1.13032E+006    3.34522E+006    3.36061E+006    2.03960E+004    9.94369E+003   -6.76803E+000   -1.16147E+001    1.49891E+004
            9071    3.33535E+006    3.39435E+006    3.39435E+006    1.60515E+005   -3.40057E+004    3.42835E+006   -1.17362E+006    3.32255E+006    3.39435E+006    8.52607E+004    4.12486E+004   -1.86688E+000   -5.97423E+001    9.47381E+004
            9072    3.33894E+006    3.37792E+006    3.37792E+006    8.56385E+004   -5.80740E+003    3.38373E+006   -1.15258E+006    3.33612E+006    3.37792E+006    6.95544E+004    1.02767E+004   -2.06836E+001    5.46265E+001    3.48156E+004
            9073    3.33276E+006    3.41651E+006    3.41651E+006    2.53904E+005   -6.36610E+004    3.48017E+006   -1.20225E+006    3.29846E+006    3.41651E+006    1.63660E+005    2.65830E+004   -4.21804E+001    3.12961E+002    1.43228E+005
            9074    3.33084E+006    3.40274E+006    3.40274E+006    1.60874E+005   -1.04780E+004    3.41321E+006   -1.18438E+006    3.32091E+006    3.40274E+006    1.45789E+005    4.60664E+003    6.58942E+001   -2.52096E+001    4.85513E+004
            9075    3.32291E+006    3.43105E+006    3.43105E+006    2.42826E+005   -1.18749E+004    3.44293E+006   -1.22067E+006    3.30084E+006    3.43105E+006    2.31453E+005   -5.02065E+002   -2.52269E+001   -2.21147E+002    5.26054E+004
            9076    3.31522E+006    3.46389E+006    3.46389E+006    3.37322E+005   -1.22663E+004    3.47616E+006   -1.26298E+006    3.27336E+006    3.46389E+006    3.30861E+005   -5.80494E+003   -7.95573E+001   -1.04197E+002    4.70856E+004
            9077    3.32951E+006    3.43830E+006    3.43830E+006    3.24128E+005   -7.12348E+004    3.50954E+006   -1.23040E+006    3.27607E+006    3.43830E+006    2.47501E+005    5.39247E+003    3.71067E+002    9.29862E+002    1.56281E+005
            9078    3.32295E+006    3.46285E+006    3.46285E+006    3.78375E+005   -5.58709E+004    3.51872E+006   -1.26178E+006    3.25819E+006    3.46285E+006    3.33686E+005   -1.11820E+004    7.13986E+002    5.60618E+002    1.31943E+005
            9079    3.33988E+006    3.46262E+006    3.46262E+006    4.41034E+005   -1.23589E+005    3.58620E+006   -1.26002E+006    3.22988E+006    3.46262E+006    3.37703E+005   -2.02567E+004    4.75206E+002   -1.44311E+003    2.18325E+005
            9080    3.34815E+006    3.44303E+006    3.44303E+006    4.06035E+005   -1.47327E+005    3.59036E+006   -1.23391E+006    3.24287E+006    3.44303E+006    2.46151E+005    1.25588E+004    6.70145E+002   -1.66706E+003    2.50820E+005


  Minimum           3.30200E+006    3.35166E+006    3.35166E+006    4.83979E+003   -1.75109E+005    3.35163E+006   -1.36841E+006    3.19131E+006    3.35166E+006   -5.68480E+004   -4.98279E+004   -2.64922E+003   -1.73831E+003   -2.89319E+005
      At Element            8790            9068            9068            8850            8949            9068            9008            8909            9068            8600            8576            9041            8914            7859

  Maximum           3.35653E+006    3.54589E+006    3.54589E+006    5.61234E+005    6.65609E+001    3.61565E+006   -1.11884E+006    3.34931E+006    3.54589E+006    5.60549E+005    5.61208E+005    2.64922E+003    1.73831E+003    2.89103E+005
      At Element            8950            8136            8136            9037            8991            8949            8850            8414            8136            8909            9037            4899            4772            7954

           Total    1.44982E+010    1.50938E+010    1.50938E+010    1.61398E+009   -2.20346E+008    1.53141E+010   -5.49580E+009    1.41896E+010    1.50938E+010    5.85868E+008    8.07762E+008    5.14649E-006    7.33882E-007    7.79729E+004


