********************************************************************************
Field Output Report, written Thu Apr 13 00:07:05 2023

Source 1
---------

   ODB: E:/COMPOSITE PROJECT/Normal_yy.odb
   Step: Loadingstep
   Frame: Increment      1: Step Time =    1.000

Loc 1 : Integration point values from source 1

Output sorted by column "Element Label".

Field Output reported at integration points for region: RVE-1.Region_1

         Element             Int         S.Mises     S.Max. Prin  S.Max. Prin(a)     S.Mid. Prin     S.Min. Prin        S.Tresca      S.Pressure     S.Third Inv           S.S11           S.S22           S.S33           S.S12           S.S13           S.S23
           Label              Pt          @Loc 1          @Loc 1          @Loc 1          @Loc 1          @Loc 1          @Loc 1          @Loc 1          @Loc 1          @Loc 1          @Loc 1          @Loc 1          @Loc 1          @Loc 1          @Loc 1
-----------------------------------------------------------------------------------------------------------------------------------------------------------------------------------------------------------------------------------------------------------------
               1               1     5.70826E+09     5.87934E+09     5.87934E+09     755.931E+06    -273.635E+06     6.15298E+09    -2.12055E+09     5.49351E+09    -265.927E+06     5.87796E+09     749.604E+06     28.8067E+06    -87.6064E+06     80.3300E+06
               2               1     5.76140E+09     5.89772E+09     5.89772E+09     764.461E+06    -333.737E+06     6.23146E+09    -2.10948E+09     5.51850E+09    -322.186E+06     5.87648E+09     774.156E+06    -85.0964E+06    -102.036E+06    -322.104E+06
               3               1     5.90904E+09     5.99485E+09     5.99485E+09     715.001E+06    -387.961E+06     6.38281E+09    -2.10730E+09     5.67047E+09    -377.965E+06     5.93963E+09     760.219E+06     127.200E+06    -80.0479E+06     526.646E+06
               4               1     6.20026E+09     5.92042E+09     5.92042E+09     671.391E+06    -920.603E+06     6.84103E+09    -1.89040E+09     5.71264E+09    -879.290E+06     5.85804E+09     692.466E+06    -240.393E+06    -207.840E+06    -537.802E+06
               5               1     9.15169E+09     8.46985E+09     8.46985E+09     621.940E+06    -1.58283E+09     10.0527E+09    -2.50298E+09     8.52287E+09    -1.51788E+09     8.31990E+09     706.930E+06     794.406E+06     117.320E+06     811.270E+06
               6               1     10.5323E+09     9.37304E+09     9.37304E+09     475.967E+06    -2.25604E+09     11.6291E+09    -2.53099E+09     9.68578E+09    -2.17622E+09     9.29330E+09     475.895E+06     959.318E+06    -20.4767E+06    -20.5533E+06
               7               1     10.2264E+09     9.15453E+09     9.15453E+09     526.557E+06    -2.14135E+09     11.2959E+09    -2.51324E+09     9.39433E+09    -2.06484E+09     9.05943E+09     545.136E+06     917.546E+06     25.8937E+06    -417.660E+06
               8               1     7.04416E+09     6.74455E+09     6.74455E+09     524.207E+06    -904.421E+06     7.64897E+09    -2.12145E+09     6.70649E+09    -874.153E+06     6.61575E+09     622.735E+06     371.962E+06     89.6457E+06    -827.282E+06
               9               1     6.25471E+09     6.18421E+09     6.18421E+09     646.262E+06    -599.716E+06     6.78392E+09    -2.07692E+09     5.96583E+09    -581.785E+06     6.09082E+09     721.719E+06     212.691E+06     96.1928E+06    -691.129E+06
              10               1     5.88715E+09     5.96261E+09     5.96261E+09     744.769E+06    -419.795E+06     6.38241E+09    -2.09586E+09     5.61917E+09    -406.713E+06     5.91690E+09     777.400E+06     136.933E+06     98.2303E+06    -472.964E+06
              11               1     5.66459E+09     5.80543E+09     5.80543E+09     770.408E+06    -327.881E+06     6.13331E+09    -2.08265E+09     5.41722E+09    -316.874E+06     5.80386E+09     760.972E+06    -31.3112E+06     108.188E+06     84.9060E+06
              12               1     5.91025E+09     5.97090E+09     5.97090E+09     724.706E+06    -432.289E+06     6.40319E+09    -2.08777E+09     5.64696E+09    -417.472E+06     5.93032E+09     750.473E+06    -142.343E+06     105.811E+06     444.218E+06
              13               1     6.22679E+09     6.13381E+09     6.13381E+09     647.299E+06    -633.951E+06     6.76776E+09    -2.04905E+09     5.91922E+09    -612.516E+06     6.04922E+09     710.451E+06    -204.982E+06     119.150E+06     655.391E+06
              14               1     6.10233E+09     6.48765E+09     6.48765E+09     652.691E+06     149.160E+06     6.33849E+09    -2.42983E+09     6.05532E+09     156.748E+06     6.47863E+09     654.130E+06    -52.2729E+06    -57.7832E+06    -224.392E+06
              15               1     9.32683E+09     8.54002E+09     8.54002E+09     549.949E+06    -1.70871E+09     10.2487E+09    -2.46042E+09     8.67891E+09    -1.64649E+09     8.40594E+09     621.814E+06    -793.068E+06    -68.5249E+06     751.501E+06
              16               1     10.2872E+09     9.21537E+09     9.21537E+09     535.700E+06    -2.14755E+09     11.3629E+09    -2.53451E+09     9.45057E+09    -2.07426E+09     9.12624E+09     551.538E+06    -901.412E+06     26.2046E+06     387.645E+06
              17               1     10.6519E+09     9.43194E+09     9.43194E+09     469.481E+06    -2.34441E+09     11.7763E+09    -2.51900E+09     9.76180E+09    -2.26238E+09     9.35000E+09     469.395E+06    -978.843E+06     15.5051E+06     9.40054E+06
              18               1     8.90892E+09     8.73121E+09     8.73121E+09    -113.716E+06    -240.366E+06     8.97157E+09    -2.79237E+09     8.90690E+09    -228.812E+06     8.73057E+09    -124.635E+06     15.9743E+06     36.5592E+06     73.2469E+06
              19               1     9.20430E+09     8.43078E+09     8.43078E+09     453.687E+06    -1.64000E+09     10.0708E+09    -2.41483E+09     8.64383E+09    -1.58323E+09     8.31019E+09     517.512E+06    -711.086E+06    -58.3068E+06    -748.922E+06
              20               1     5.85576E+09     5.93795E+09     5.93795E+09     768.778E+06    -421.502E+06     6.35946E+09    -2.09508E+09     5.57375E+09    -405.471E+06     5.88333E+09     807.374E+06    -157.946E+06    -106.885E+06    -512.564E+06
              21               1     7.65354E+09     7.74256E+09     7.74256E+09     133.558E+06     45.2450E+06     7.69732E+09    -2.64045E+09     7.65240E+09     123.474E+06     7.72702E+09     70.8736E+06    -67.2656E+06     25.8251E+06     338.894E+06
              22               1     7.14959E+09     7.56666E+09     7.56666E+09     551.660E+06     289.682E+06     7.27698E+09    -2.80267E+09     7.13878E+09     378.503E+06     7.48111E+09     548.393E+06    -147.075E+06    -107.879E+06    -763.250E+06
              23               1     7.56351E+09     7.64169E+09     7.64169E+09     99.7286E+06     56.8072E+06     7.58488E+09    -2.59941E+09     7.56324E+09     73.5994E+06     7.62927E+09     95.3495E+06    -58.0778E+06    -18.5484E+06    -300.658E+06
              24               1     8.28520E+09     8.85029E+09     8.85029E+09     715.045E+06     422.868E+06     8.42742E+09    -3.32940E+09     8.27359E+09     683.754E+06     8.78572E+09     518.723E+06    -276.608E+06    -78.3807E+06    -680.753E+06
              25               1     7.80008E+09     7.75425E+09     7.75425E+09     28.1298E+06    -117.748E+06     7.87200E+09    -2.55488E+09     7.79701E+09     28.0458E+06     7.75425E+09    -117.662E+06    -2.51748E+06    -3.51451E+06    -2.49324E+06
              26               1     9.20211E+09     8.84659E+09     8.84659E+09    -10.7921E+06    -665.315E+06     9.51190E+09    -2.72349E+09     9.14952E+09    -664.903E+06     8.84292E+09    -7.54219E+06    -6.76156E+06    -16.1850E+06    -179.945E+06
              27               1     5.65749E+09     5.84984E+09     5.84984E+09     793.342E+06    -260.462E+06     6.11030E+09    -2.12757E+09     5.43005E+09    -253.235E+06     5.84769E+09     788.265E+06    -27.6596E+06    -85.7689E+06    -101.590E+06
              28               1     6.43513E+09     6.38730E+09     6.38730E+09     610.057E+06    -548.346E+06     6.93565E+09    -2.14967E+09     6.19400E+09    -529.611E+06     6.29818E+09     680.443E+06     231.909E+06    -89.1808E+06     684.265E+06
              29               1     7.01244E+09     7.09074E+09     7.09074E+09     226.879E+06    -61.3788E+06     7.15212E+09    -2.41875E+09     6.99909E+09    -61.2413E+06     7.09051E+09     226.978E+06     8.57920E+06     6.00666E+06    -39.4185E+06
              30               1     7.00118E+09     6.66963E+09     6.66963E+09     451.892E+06    -913.756E+06     7.58339E+09    -2.06925E+09     6.69160E+09    -877.491E+06     6.57242E+09     512.836E+06     314.051E+06    -146.520E+06     725.679E+06
              31               1     7.62506E+09     7.11692E+09     7.11692E+09     402.876E+06    -1.17292E+09     8.28984E+09    -2.11563E+09     7.24500E+09    -1.13972E+09     6.98750E+09     499.108E+06     480.752E+06    -39.5566E+06     821.586E+06
              32               1     9.11721E+09     8.25740E+09     8.25740E+09     425.920E+06    -1.75132E+09     10.0087E+09    -2.31066E+09     8.50226E+09    -1.69094E+09     8.13384E+09     489.092E+06     756.027E+06     19.9372E+06    -718.092E+06
              33               1     5.76118E+09     5.88831E+09     5.88831E+09     767.812E+06    -349.792E+06     6.23810E+09    -2.10211E+09     5.50932E+09    -339.715E+06     5.87446E+09     771.586E+06     89.7964E+06     95.0936E+06    -254.800E+06
              34               1     5.68065E+09     5.83743E+09     5.83743E+09     800.875E+06    -320.161E+06     6.15760E+09    -2.10605E+09     5.42334E+09    -310.492E+06     5.83572E+09     792.922E+06     29.7440E+06     102.475E+06    -89.5048E+06
              35               1     6.88128E+09     6.55476E+09     6.55476E+09     510.044E+06    -933.920E+06     7.48868E+09    -2.04363E+09     6.52723E+09    -902.168E+06     6.43098E+09     602.074E+06    -351.576E+06     108.863E+06     803.876E+06
              36               1     7.94600E+09     7.34269E+09     7.34269E+09     379.836E+06    -1.31348E+09     8.65616E+09    -2.13635E+09     7.52382E+09    -1.27269E+09     7.19093E+09     490.793E+06    -572.434E+06     2.84027E+06     882.903E+06
              37               1     10.1603E+09     9.03944E+09     9.03944E+09     434.163E+06    -2.16930E+09     11.2087E+09    -2.43477E+09     9.36474E+09    -2.09481E+09     8.94989E+09     449.222E+06    -883.809E+06    -72.1039E+06    -413.822E+06
              38               1     8.78443E+09     9.56541E+09     9.56541E+09     1.01290E+09     566.115E+06     8.99930E+09    -3.71481E+09     8.75881E+09     1.02943E+09     9.54775E+09     567.250E+06     383.190E+06    -20.2583E+06    -63.1849E+06
              39               1     7.86097E+09     7.43833E+09     7.43833E+09     507.402E+06    -1.10321E+09     8.54154E+09    -2.28084E+09     7.47610E+09    -1.06289E+09     7.24263E+09     662.773E+06    -580.092E+06     73.9545E+06    -1.02338E+09
              40               1     8.25161E+09     8.73585E+09     8.73585E+09     649.620E+06     328.245E+06     8.40760E+09    -3.23790E+09     8.23751E+09     584.806E+06     8.67435E+09     454.558E+06     257.427E+06     113.915E+06    -668.338E+06
              41               1     6.66362E+09     6.21297E+09     6.21297E+09     513.534E+06    -1.11348E+09     7.32645E+09    -1.87101E+09     6.19261E+09    -1.07497E+09     6.07868E+09     609.311E+06    -420.313E+06    -104.821E+06    -791.231E+06
              42               1     7.57071E+09     7.89439E+09     7.89439E+09     384.030E+06     264.750E+06     7.62964E+09    -2.84772E+09     7.56859E+09     269.565E+06     7.80643E+09     467.177E+06     176.496E+06    -9.40917E+06    -789.064E+06
              43               1     6.24589E+09     6.61059E+09     6.61059E+09     612.075E+06     143.687E+06     6.46690E+09    -2.45545E+09     6.20620E+09     154.481E+06     6.59045E+09     621.425E+06     57.7003E+06     65.6431E+06    -343.432E+06
              44               1     6.13094E+09     6.49689E+09     6.49689E+09     623.247E+06     137.552E+06     6.35934E+09    -2.41923E+09     6.08743E+09     145.624E+06     6.49677E+09     615.293E+06    -12.0660E+06     61.9615E+06     23.7729E+06
              45               1     5.71286E+09     5.88046E+09     5.88046E+09     792.694E+06    -299.727E+06     6.18019E+09    -2.12448E+09     5.47041E+09    -291.832E+06     5.86640E+09     798.866E+06     70.1168E+06    -84.8982E+06     260.623E+06
              46               1     6.78595E+09     7.13181E+09     7.13181E+09     521.032E+06     183.303E+06     6.94851E+09    -2.61205E+09     6.76700E+09     232.931E+06     7.07853E+09     524.679E+06    -136.337E+06     105.708E+06     580.107E+06
              47               1     8.81044E+09     9.44153E+09     9.44153E+09     837.065E+06     438.648E+06     9.00289E+09    -3.57242E+09     8.79013E+09     844.206E+06     9.41897E+09     454.071E+06    -367.235E+06     47.1238E+06     250.619E+06
              48               1     8.65008E+09     9.29277E+09     9.29277E+09     839.766E+06     458.232E+06     8.83454E+09    -3.53026E+09     8.63112E+09     838.280E+06     9.25894E+09     493.553E+06    -355.441E+06    -60.3967E+06    -410.232E+06
              49               1     9.11223E+09     8.82422E+09     8.82422E+09    -104.501E+06    -461.058E+06     9.28528E+09    -2.75289E+09     9.09652E+09    -457.513E+06     8.82279E+09    -106.620E+06    -11.0048E+06    -35.1821E+06    -112.403E+06
              50               1     5.92745E+09     6.31877E+09     6.31877E+09     682.244E+06     137.940E+06     6.18083E+09    -2.37965E+09     5.87083E+09     143.748E+06     6.31827E+09     676.933E+06    -10.3196E+06    -55.7612E+06    -52.1464E+06
              51               1     5.72934E+09     5.89134E+09     5.89134E+09     818.911E+06    -322.938E+06     6.21428E+09    -2.12911E+09     5.46447E+09    -312.117E+06     5.87466E+09     824.770E+06    -100.372E+06     97.6753E+06     277.728E+06
              52               1     6.40721E+09     6.76479E+09     6.76479E+09     600.065E+06     139.892E+06     6.62489E+09    -2.50158E+09     6.36987E+09     154.634E+06     6.72397E+09     626.143E+06     82.8231E+06    -72.2044E+06     495.044E+06
              53               1     8.58957E+09     8.44744E+09     8.44744E+09     27.5114E+06    -302.266E+06     8.74971E+09    -2.72423E+09     8.57531E+09    -286.004E+06     8.42581E+09     32.8778E+06     14.8858E+06    -70.7103E+06     426.465E+06
              54               1     6.77705E+09     6.95116E+09     6.95116E+09     381.201E+06    -15.5656E+06     6.96672E+09    -2.43893E+09     6.75085E+09    -15.4044E+06     6.93708E+09     395.113E+06     27.0803E+06     3.52754E+06    -302.621E+06
              55               1     6.67943E+09     6.98525E+09     6.98525E+09     478.736E+06     145.390E+06     6.83986E+09    -2.53646E+09     6.66068E+09     163.368E+06     6.95486E+09     491.148E+06    -74.8123E+06     68.9768E+06     438.947E+06
              56               1     10.3363E+09     9.30157E+09     9.30157E+09     591.112E+06    -2.12007E+09     11.4216E+09    -2.59087E+09     9.48554E+09    -2.04548E+09     9.21025E+09     607.846E+06     910.994E+06    -28.1102E+06     399.811E+06
              57               1     7.58219E+09     7.57732E+09     7.57732E+09     193.072E+06    -188.400E+06     7.76572E+09    -2.52733E+09     7.56055E+09    -188.246E+06     7.54024E+09     229.999E+06    -30.5624E+06     5.64317E+06    -521.098E+06
              58               1     6.12071E+09     6.45587E+09     6.45587E+09     613.326E+06     90.5275E+06     6.36534E+09    -2.38658E+09     6.07017E+09     97.2644E+06     6.45294E+09     609.519E+06     9.04286E+06     58.7354E+06    -130.649E+06
              59               1     6.48657E+09     6.80691E+09     6.80691E+09     533.886E+06     126.038E+06     6.68087E+09    -2.48894E+09     6.45763E+09     141.659E+06     6.77874E+09     546.430E+06    -76.6525E+06    -71.4906E+06    -414.083E+06
              60               1     8.85439E+09     9.45712E+09     9.45712E+09     760.390E+06     453.066E+06     9.00406E+09    -3.55686E+09     8.84238E+09     758.321E+06     9.43560E+09     476.654E+06     330.754E+06    -54.7135E+06     285.467E+06
              61               1     6.52663E+09     7.00954E+09     7.00954E+09     704.509E+06     281.862E+06     6.72768E+09    -2.66530E+09     6.49573E+09     317.160E+06     6.89202E+09     786.736E+06     30.1318E+06     113.842E+06    -855.067E+06
              62               1     7.61545E+09     7.58921E+09     7.58921E+09     202.333E+06    -235.890E+06     7.82510E+09    -2.51855E+09     7.58701E+09    -230.196E+06     7.54770E+09     238.153E+06    -464.465E+03     49.7922E+06    -552.409E+06
              63               1     7.85592E+09     7.78420E+09     7.78420E+09     114.181E+06    -245.277E+06     8.02948E+09    -2.55104E+09     7.83739E+09    -242.457E+06     7.73757E+09     157.995E+06    -7.03129E+06    -32.2960E+06     596.285E+06
              64               1     7.96988E+09     7.39107E+09     7.39107E+09     444.277E+06    -1.30971E+09     8.70078E+09    -2.17521E+09     7.51699E+09    -1.26267E+09     7.25444E+09     533.862E+06     534.897E+06     101.868E+06    -848.942E+06
              65               1     8.16525E+09     8.07759E+09     8.07759E+09     81.1968E+06    -246.650E+06     8.32424E+09    -2.63738E+09     8.15042E+09    -245.642E+06     8.02928E+09     128.492E+06     49.5582E+06     19.0009E+06     617.642E+06
              66               1     6.83042E+09     7.15720E+09     7.15720E+09     518.931E+06     149.611E+06     7.00759E+09    -2.60858E+09     6.80790E+09     192.230E+06     7.08834E+09     545.167E+06     91.4780E+06    -108.214E+06     670.160E+06
              67               1     7.84242E+09     8.31924E+09     8.31924E+09     571.168E+06     385.744E+06     7.93349E+09    -3.09205E+09     7.83749E+09     486.237E+06     8.21861E+09     571.298E+06     172.603E+06    -73.8698E+06     867.699E+06
              68               1     8.42500E+09     8.36097E+09     8.36097E+09    -36.5517E+06    -91.2536E+06     8.45222E+09    -2.74439E+09     8.42460E+09    -84.9258E+06     8.34706E+09    -28.9776E+06     58.4037E+06    -19.3418E+06    -336.389E+06
              69               1     6.36159E+09     6.68344E+09     6.68344E+09     526.046E+06     135.638E+06     6.54780E+09    -2.44838E+09     6.33455E+09     149.016E+06     6.67416E+09     521.952E+06    -50.7736E+06     68.2249E+06     234.540E+06
              70               1     8.86910E+09     9.58940E+09     9.58940E+09     869.124E+06     578.625E+06     9.01078E+09    -3.67905E+09     8.85838E+09     883.702E+06     9.57365E+09     579.799E+06    -367.382E+06     18.3571E+06    -46.5276E+06
              71               1     7.98356E+09     7.96138E+09     7.96138E+09     110.058E+06    -148.166E+06     8.10954E+09    -2.64109E+09     7.97416E+09     110.226E+06     7.96059E+09    -147.546E+06     44.3500E+06     4.22913E+06    -66.0666E+06
              72               1     5.92726E+09     6.32963E+09     6.32963E+09     715.830E+06     132.116E+06     6.19752E+09    -2.39253E+09     5.86207E+09     137.394E+06     6.32805E+09     712.139E+06     7.45420E+06    -55.1018E+06     94.2138E+06
              73               1     6.64785E+09     6.85739E+09     6.85739E+09     408.065E+06     27.3709E+06     6.83002E+09    -2.43094E+09     6.62326E+09     28.7042E+06     6.85202E+09     412.102E+06     19.3977E+06    -21.5047E+06     185.159E+06
              74               1     6.67988E+09     6.84020E+09     6.84020E+09     382.181E+06    -41.3777E+06     6.88158E+09    -2.39367E+09     6.64957E+09    -40.8617E+06     6.83920E+09     382.667E+06    -3.24396E+06    -14.7159E+06    -80.3672E+06
              75               1     7.90969E+09     7.83877E+09     7.83877E+09    -51.2152E+06    -90.4643E+06     7.92924E+09    -2.56570E+09     7.90947E+09    -55.5035E+06     7.82941E+09    -76.8122E+06     30.1695E+06     11.3594E+06    -270.613E+06
              76               1     7.96142E+09     8.37144E+09     8.37144E+09     532.847E+06     292.617E+06     8.07882E+09    -3.06563E+09     7.95326E+09     422.052E+06     8.26834E+09     506.511E+06    -145.906E+06     104.164E+06     890.542E+06
              77               1     7.18924E+09     7.59292E+09     7.59292E+09     577.041E+06     242.024E+06     7.35089E+09    -2.80399E+09     7.17165E+09     344.881E+06     7.48815E+09     578.956E+06     115.593E+06    -141.077E+06     851.752E+06
              78               1     7.41431E+09     7.46442E+09     7.46442E+09     85.6968E+06     15.0290E+06     7.44939E+09    -2.52171E+09     7.41355E+09     21.9651E+06     7.46356E+09     79.6204E+06     13.5700E+06     20.8495E+06    -78.5620E+06
              79               1     6.12460E+09     6.46850E+09     6.46850E+09     637.148E+06     87.6809E+06     6.38082E+09    -2.39778E+09     6.06878E+09     92.9385E+06     6.45782E+09     642.571E+06     49.1469E+06    -49.6908E+06     245.358E+06
              80               1     7.23967E+09     7.29780E+09     7.29780E+09     207.752E+06    -82.7446E+06     7.38054E+09    -2.47427E+09     7.22654E+09    -82.2050E+06     7.27922E+09     225.786E+06     18.2719E+06    -11.0888E+06     362.007E+06
              81               1     8.56178E+09     8.99252E+09     8.99252E+09     590.234E+06     279.709E+06     8.71281E+09    -3.28749E+09     8.54909E+09     602.435E+06     8.93740E+09     322.628E+06    -324.320E+06    -12.4241E+06     607.130E+06
              82               1     8.37279E+09     8.51651E+09     8.51651E+09     412.145E+06    -101.096E+06     8.61760E+09    -2.94252E+09     8.33729E+09     414.867E+06     8.51033E+09    -97.6404E+06    -183.767E+06    -30.1911E+06     130.882E+06
              83               1     8.10368E+09     8.06523E+09     8.06523E+09     81.0992E+06    -152.921E+06     8.21815E+09    -2.66447E+09     8.09607E+09    -152.250E+06     8.03708E+09     108.576E+06    -71.6363E+06     7.33089E+06    -467.903E+06
              84               1     7.70205E+09     7.67449E+09     7.67449E+09    -9.39417E+06    -45.5923E+06     7.72009E+09    -2.53984E+09     7.70186E+09    -12.2764E+06     7.67274E+09    -40.9564E+06    -6.95391E+06    -9.70501E+06    -116.118E+06
              85               1     8.28950E+09     8.36091E+09     8.36091E+09     218.302E+06    -68.0497E+06     8.42896E+09    -2.83706E+09     8.27836E+09     219.797E+06     8.35929E+09    -67.9231E+06     112.725E+06     4.64521E+06     22.6274E+06
              86               1     7.61300E+09     7.69893E+09     7.69893E+09     163.960E+06     10.2138E+06     7.68871E+09    -2.62437E+09     7.60951E+09     12.1880E+06     7.66383E+09     197.081E+06     62.2306E+06    -10.8427E+06     509.496E+06
              87               1     7.48286E+09     7.56915E+09     7.56915E+09     138.949E+06     34.7216E+06     7.53443E+09    -2.58094E+09     7.48123E+09     136.058E+06     7.56685E+09     39.9170E+06    -20.1924E+06     16.9238E+06     130.172E+06
              88               1     7.05674E+09     7.15059E+09     7.15059E+09     227.296E+06    -32.4252E+06     7.18302E+09    -2.44849E+09     7.04598E+09    -32.4169E+06     7.14752E+09     230.357E+06    -6.85529E+06     535.698E+03     145.589E+06
              89               1     7.09090E+09     7.17786E+09     7.17786E+09     241.493E+06    -58.0799E+06     7.23594E+09    -2.45376E+09     7.07664E+09    -57.9591E+06     7.16833E+09     250.905E+06     1.82142E+06    -6.07275E+06    -256.954E+06
              90               1     6.38203E+09     6.57224E+09     6.57224E+09     522.979E+06    -97.2577E+06     6.66950E+09    -2.33265E+09     6.31368E+09    -97.2456E+06     6.57219E+09     523.019E+06     3.74143E+06     2.49672E+06     17.3683E+06
              91               1     8.08392E+09     8.13254E+09     8.13254E+09     176.842E+06    -73.7801E+06     8.20632E+09    -2.74520E+09     8.07517E+09     176.404E+06     8.12230E+09    -63.0990E+06     83.8782E+06    -15.2469E+06     277.117E+06
              92               1     8.24965E+09     8.18886E+09     8.18886E+09     8.63908E+06    -128.500E+06     8.31736E+09    -2.68967E+09     8.24708E+09    -127.749E+06     8.16767E+09     29.0764E+06    -74.6610E+06    -379.393E+03     409.173E+06
              93               1     8.68090E+09     8.46828E+09     8.46828E+09     11.1344E+06    -420.278E+06     8.88856E+09    -2.68638E+09     8.65673E+09    -420.276E+06     8.44639E+09     33.0236E+06    -2.25690E+06     659.630E+03    -429.705E+06
              94               1     8.77586E+09     8.57402E+09     8.57402E+09     29.0045E+06    -415.772E+06     8.98979E+09    -2.72908E+09     8.75045E+09    -406.567E+06     8.55681E+09     37.0114E+06     24.8704E+06     64.2086E+06     382.368E+06
              95               1     7.36986E+09     7.49281E+09     7.49281E+09     151.105E+06     95.1223E+06     7.39769E+09    -2.57968E+09     7.36938E+09     104.961E+06     7.47959E+09     154.490E+06     62.2051E+06     18.2916E+06    -305.432E+06
              96               1     6.58064E+09     6.86840E+09     6.86840E+09     535.381E+06     65.3530E+06     6.80305E+09    -2.48971E+09     6.54271E+09     76.0396E+06     6.82226E+09     570.839E+06     81.0261E+06     60.6821E+06    -534.097E+06
              97               1     7.93698E+09     7.87476E+09     7.87476E+09    -19.0750E+06    -104.672E+06     7.97943E+09    -2.58367E+09     7.93594E+09    -23.0944E+06     7.87141E+09    -97.3065E+06     22.6401E+06    -17.7861E+06     161.776E+06
              98               1     8.14446E+09     8.26364E+09     8.26364E+09     299.398E+06    -49.7977E+06     8.31344E+09    -2.83775E+09     8.12759E+09     298.448E+06     8.25740E+09    -42.6015E+06     101.140E+06     25.2761E+06    -203.332E+06
              99               1     7.32497E+09     7.32933E+09     7.32933E+09     146.033E+06    -129.549E+06     7.45888E+09    -2.44860E+09     7.31330E+09    -129.421E+06     7.31575E+09     159.480E+06    -11.7021E+06     5.02771E+06     311.776E+06
             100               1     8.28476E+09     8.03405E+09     8.03405E+09    -228.667E+06    -272.581E+06     8.30663E+09    -2.51093E+09     8.28450E+09    -268.353E+06     8.03402E+09    -232.864E+06    -8.31307E+06    -12.9281E+06    -13.7025E+06
             101               1     7.45995E+09     7.49618E+09     7.49618E+09     57.3806E+06     15.2409E+06     7.48094E+09    -2.52293E+09     7.45969E+09     26.1018E+06     7.49574E+09     46.9569E+06    -33.2381E+06    -18.1423E+06    -46.5119E+06
             102               1     8.18608E+09     8.19045E+09     8.19045E+09     70.6942E+06    -60.3699E+06     8.25082E+09    -2.73359E+09     8.18372E+09     60.9842E+06     8.18041E+09    -40.6143E+06    -44.9069E+06     33.1776E+06     284.160E+06
             103               1     8.36619E+09     8.53279E+09     8.53279E+09     390.725E+06    -40.8285E+06     8.57362E+09    -2.96090E+09     8.34110E+09     393.611E+06     8.52688E+09    -37.8039E+06    -166.226E+06     17.8234E+06    -146.474E+06
             104               1     7.98637E+09     7.95883E+09     7.95883E+09     125.737E+06    -172.450E+06     8.13128E+09    -2.63737E+09     7.97383E+09     125.180E+06     7.95871E+09    -171.769E+06    -25.5401E+06     13.8533E+06    -18.3468E+06
             105               1     8.00673E+09     7.95682E+09     7.95682E+09     67.8852E+06    -162.725E+06     8.11954E+09    -2.62066E+09     7.99925E+09     67.0950E+06     7.95667E+09    -161.784E+06     18.0090E+06     13.8894E+06     29.7643E+06
             106               1     7.67407E+09     7.67113E+09     7.67113E+09     42.4276E+06    -47.5254E+06     7.71865E+09    -2.55534E+09     7.67289E+09     42.4562E+06     7.67080E+09    -47.2221E+06     19.7728E+06     1.54714E+06     46.5379E+06
             107               1     7.89277E+09     7.82029E+09     7.82029E+09    -34.2458E+06    -110.167E+06     7.93046E+09    -2.55863E+09     7.89195E+09    -34.8585E+06     7.81881E+09    -108.071E+06    -22.0235E+06     6.82675E+06     106.189E+06
             108               1     8.12234E+09     8.05234E+09     8.05234E+09    -11.3114E+06    -127.449E+06     8.17979E+09    -2.63786E+09     8.12048E+09    -15.4902E+06     8.04633E+09    -117.260E+06    -46.6208E+06    -21.0450E+06    -216.684E+06
             109               1     8.19195E+09     8.07856E+09     8.07856E+09    -34.4038E+06    -190.153E+06     8.26871E+09    -2.61800E+09     8.18862E+09    -35.9029E+06     8.07797E+09    -188.064E+06    -33.8526E+06    -16.1538E+06     60.8532E+06
             110               1     7.69708E+09     7.66496E+09     7.66496E+09     5.85865E+06    -69.5417E+06     7.73450E+09    -2.53376E+09     7.69625E+09     3.67979E+06     7.66462E+09    -67.0221E+06    -657.252E+03     12.6357E+06    -51.3283E+06
             111               1     7.99113E+09     7.91959E+09     7.91959E+09     47.9724E+06    -185.927E+06     8.10551E+09    -2.59388E+09     7.98342E+09     47.8941E+06     7.91952E+09    -185.781E+06     7.54683E+06     4.45181E+06    -22.1083E+06
             112               1     7.95274E+09     7.90162E+09     7.90162E+09     28.8916E+06    -128.796E+06     8.03041E+09    -2.60057E+09     7.94922E+09     28.2182E+06     7.90084E+09    -127.341E+06    -37.4488E+06    -11.2256E+06    -69.6549E+06
             113               1     8.00939E+09     7.90476E+09     7.90476E+09    -27.0300E+06    -180.045E+06     8.08480E+09    -2.56589E+09     8.00610E+09    -27.0255E+06     7.90450E+09    -179.793E+06    -11.6552E+06     1.32155E+06     43.9192E+06
             114               1     8.37235E+09     8.28167E+09     8.28167E+09    -57.5777E+06    -123.407E+06     8.40507E+09    -2.70023E+09     8.37177E+09     -64.427E+06     8.28140E+09    -116.293E+06    -39.0341E+06     20.4565E+06    -26.2025E+06
             115               1     8.02071E+09     7.88897E+09     7.88897E+09    -71.0455E+06    -191.096E+06     8.08006E+09    -2.54228E+09     8.01869E+09    -75.5136E+06     7.88887E+09    -186.532E+06     14.1734E+06    -22.7443E+06     23.9352E+06
             116               1     7.08151E+09     7.53404E+09     7.53404E+09     649.807E+06     270.502E+06     7.26354E+09    -2.81812E+09     7.05860E+09     402.449E+06     7.43746E+09     614.442E+06    -145.431E+06     164.205E+06     807.977E+06
             117               1     7.63299E+09     8.08096E+09     8.08096E+09     617.985E+06     288.630E+06     7.79233E+09    -2.99586E+09     7.61697E+09     433.996E+06     7.99768E+09     555.901E+06    -185.701E+06    -144.858E+06    -773.287E+06
             118               1     6.82506E+09     7.16934E+09     7.16934E+09     511.039E+06     188.923E+06     6.98042E+09    -2.62310E+09     6.80793E+09     233.309E+06     7.11823E+09     517.763E+06    -99.4090E+06    -101.587E+06    -576.270E+06
             119               1     8.47757E+09     8.93828E+09     8.93828E+09     582.325E+06     344.114E+06     8.59417E+09    -3.28824E+09     8.47004E+09     590.066E+06     8.88408E+09     390.574E+06     282.397E+06    -42.5412E+03     617.772E+06
             120               1     8.64254E+09     9.34621E+09     9.34621E+09     933.522E+06     490.815E+06     8.85539E+09    -3.59018E+09     8.61698E+09     910.953E+06     9.31535E+09     544.241E+06     343.729E+06     106.246E+06    -389.406E+06
             121               1     9.05522E+09     8.81085E+09     8.81085E+09    -77.1046E+06    -402.844E+06     9.21369E+09    -2.77697E+09     9.04202E+09    -402.815E+06     8.80711E+09    -73.3928E+06     16.1571E+06     707.215E+03     181.604E+06
             122               1     9.03782E+09     8.78193E+09     8.78193E+09    -4.02954E+06    -488.288E+06     9.27021E+09    -2.76320E+09     9.00856E+09    -487.541E+06     8.76835E+09     8.80282E+06     23.5802E+06    -19.1118E+06    -344.340E+06
             123               1     8.13706E+09     8.27549E+09     8.27549E+09     253.031E+06     28.4730E+06     8.24702E+09    -2.85233E+09     8.13009E+09     239.864E+06     8.25897E+09     58.1573E+06    -75.0983E+06    -50.7345E+06    -360.963E+06
             124               1     7.03632E+09     7.19610E+09     7.19610E+09     233.640E+06     88.1766E+06     7.10792E+09    -2.50597E+09     7.03293E+09     90.7844E+06     7.19560E+09     231.528E+06     8.48510E+06    -19.1956E+06     58.1671E+06
             125               1     7.52291E+09     7.54680E+09     7.54680E+09     52.2338E+06    -4.13420E+06     7.55093E+09    -2.53163E+09     7.52243E+09     3.54674E+06     7.54019E+09     51.1627E+06     31.1796E+06    -18.2967E+06     220.481E+06
             126               1     5.17686E+09     4.92792E+09     4.92792E+09     175.724E+06    -588.614E+06     5.51654E+09    -1.50501E+09     5.04757E+09    -515.925E+06     4.92466E+09     106.294E+06     64.0346E+06    -221.922E+06     112.425E+06
             127               1     5.23461E+09     4.86109E+09     4.86109E+09     105.513E+06    -747.714E+06     5.60880E+09    -1.40630E+09     5.07461E+09    -663.872E+06     4.82203E+09     60.7352E+06    -214.439E+06    -227.816E+06    -392.617E+06
             128               1     5.39176E+09     4.86502E+09     4.86502E+09    -77.9065E+06    -884.658E+06     5.74968E+09    -1.30082E+09     5.25340E+09    -786.918E+06     4.77090E+09    -81.5253E+06     342.511E+06    -200.930E+06     614.154E+06
             129               1     5.57625E+09     4.43487E+09     4.43487E+09    -443.743E+06    -1.64365E+09     6.07853E+09    -782.492E+06     5.27392E+09    -1.51101E+09     4.27421E+09    -415.728E+06    -622.604E+06    -203.471E+06    -701.324E+06
             130               1     8.18049E+09     6.05861E+09     6.05861E+09    -768.175E+06    -3.00870E+09     9.06730E+09    -760.578E+06     7.44185E+09    -2.76523E+09     5.70047E+09    -653.502E+06     1.45343E+09     100.792E+06     876.048E+06
             131               1     9.32487E+09     6.49152E+09     6.49152E+09    -1.01916E+09    -3.94554E+09     10.4371E+09    -508.940E+06     8.19200E+09    -3.66291E+09     6.20888E+09    -1.01914E+09     1.69407E+09    -5.66081E+06    -11.3969E+06
             132               1     8.98396E+09     6.32811E+09     6.32811E+09    -955.669E+06    -3.71077E+09     10.0389E+09    -553.892E+06     7.94671E+09    -3.42419E+09     6.00325E+09    -917.382E+06     1.66579E+09    -41.0849E+06    -533.520E+06
             133               1     6.38335E+09     5.03839E+09     5.03839E+09    -697.262E+06    -1.83865E+09     6.87704E+09    -834.160E+06     6.14744E+09    -1.67714E+09     4.76891E+09    -589.298E+06     846.651E+06     117.730E+06    -971.663E+06
             134               1     5.72598E+09     4.84778E+09     4.84778E+09    -351.755E+06    -1.28901E+09     6.13679E+09    -1.06900E+09     5.54946E+09    -1.17144E+09     4.67978E+09    -301.326E+06     556.887E+06     167.070E+06    -789.549E+06
             135               1     5.37687E+09     4.80974E+09     4.80974E+09    -79.7497E+06    -948.671E+06     5.75841E+09    -1.26044E+09     5.21539E+09    -841.620E+06     4.72085E+09    -97.9136E+06     354.980E+06     222.293E+06    -585.120E+06
             136               1     5.15854E+09     4.84299E+09     4.84299E+09     165.050E+06    -689.436E+06     5.53243E+09    -1.43954E+09     4.99558E+09    -621.729E+06     4.83951E+09     100.826E+06    -73.7337E+06     227.814E+06     111.594E+06
             137               1     5.39383E+09     4.76542E+09     4.76542E+09    -129.453E+06    -1.01722E+09     5.78264E+09    -1.20625E+09     5.22566E+09    -904.136E+06     4.67876E+09    -155.869E+06    -370.176E+06     230.630E+06     569.115E+06
             138               1     5.67309E+09     4.73210E+09     4.73210E+09    -393.886E+06    -1.36320E+09     6.09530E+09    -991.673E+06     5.48213E+09    -1.23250E+09     4.56273E+09    -355.215E+06    -574.397E+06     185.126E+06     779.129E+06
             139               1     5.51630E+09     5.51634E+09     5.51634E+09     120.811E+06    -113.281E+06     5.62962E+09    -1.84129E+09     5.50511E+09    -24.1366E+06     5.50076E+09     47.2494E+06     59.3903E+06     110.588E+06    -287.028E+06
             140               1     8.24501E+09     6.01011E+09     6.01011E+09    -847.011E+06    -3.13816E+09     9.14827E+09    -674.979E+06     7.47695E+09    -2.88458E+09     5.65070E+09    -741.182E+06    -1.48554E+09    -68.7030E+06     855.351E+06
             141               1     9.01742E+09     6.31829E+09     6.31829E+09    -1.00022E+09    -3.75527E+09     10.0736E+09    -520.932E+06     7.98482E+09    -3.44995E+09     5.97466E+09    -961.912E+06    -1.72140E+09    -47.8431E+06     533.103E+06
             142               1     9.38507E+09     6.48868E+09     6.48868E+09    -1.03068E+09    -4.02925E+09     10.5179E+09    -476.253E+06     8.19861E+09    -3.73228E+09     6.19181E+09    -1.03078E+09    -1.74181E+09    -23.2125E+06     13.9547E+06
             143               1     7.57568E+09     7.33358E+09     7.33358E+09     45.9766E+06    -500.572E+06     7.83415E+09    -2.29299E+09     7.53113E+09     29.9148E+06     7.33161E+09    -482.545E+06     55.0946E+06    -92.6340E+06     110.756E+06
             144               1     8.12697E+09     5.92976E+09     5.92976E+09    -963.638E+06    -3.03133E+09     8.96109E+09    -644.932E+06     7.50015E+09    -2.77288E+09     5.55664E+09    -848.964E+06    -1.47832E+09     63.6483E+06    -898.532E+06
             145               1     5.38114E+09     4.69963E+09     4.69963E+09    -131.925E+06    -1.09974E+09     5.79938E+09    -1.15599E+09     5.17988E+09    -960.344E+06     4.59124E+09    -162.934E+06    -433.260E+06    -256.515E+06    -623.713E+06
             146               1     6.97049E+09     6.80057E+09     6.80057E+09    -37.9444E+06    -294.805E+06     7.09537E+09    -2.15594E+09     6.95983E+09    -38.8353E+06     6.77940E+09    -272.749E+06     29.8303E+06     17.8776E+06     385.646E+06
             147               1     6.19467E+09     5.85515E+09     5.85515E+09    -119.312E+06    -538.435E+06     6.39359E+09    -1.73247E+09     6.16265E+09    -182.417E+06     5.68863E+09    -308.813E+06     349.954E+06     113.280E+06    -955.811E+06
             148               1     6.84998E+09     6.71197E+09     6.71197E+09    -6.46967E+06    -262.378E+06     6.97435E+09    -2.14771E+09     6.83921E+09    -6.59429E+06     6.69661E+09    -246.888E+06     9.18638E+06    -6.37868E+06    -326.846E+06
             149               1     6.85660E+09     6.36124E+09     6.36124E+09    -281.293E+06    -691.054E+06     7.05229E+09    -1.79630E+09     6.82897E+09    -291.785E+06     6.20417E+09    -523.500E+06     668.604E+06     82.2923E+06    -794.807E+06
             150               1     7.18135E+09     7.00872E+09     7.00872E+09     33.4345E+06    -362.317E+06     7.37104E+09    -2.22661E+09     7.15675E+09     33.0703E+06     7.00871E+09    -361.933E+06    -11.6625E+06     12.3150E+06     544.536E+03
             151               1     7.39365E+09     7.31804E+09     7.31804E+09     258.097E+06    -369.328E+06     7.68737E+09    -2.40227E+09     7.33340E+09     254.738E+06     7.31170E+09    -359.624E+06     115.532E+06     54.1381E+06    -185.826E+06
             152               1     5.17444E+09     4.89627E+09     4.89627E+09     167.410E+06    -630.951E+06     5.52722E+09    -1.47758E+09     5.03307E+09    -563.722E+06     4.89119E+09     105.261E+06    -81.0282E+06    -217.925E+06    -139.416E+06
             153               1     5.85831E+09     4.97630E+09     4.97630E+09    -382.551E+06    -1.27829E+09     6.25460E+09    -1.10515E+09     5.70119E+09    -1.14517E+09     4.81157E+09    -350.941E+06     576.286E+06    -180.683E+06     783.796E+06
             154               1     6.32410E+09     6.32280E+09     6.32280E+09     69.4756E+06    -69.7744E+06     6.39258E+09    -2.10750E+09     6.32065E+09     69.3042E+06     6.32237E+09    -69.1705E+06    -4.37789E+06    -4.88866E+06    -52.3957E+06
             155               1     6.27795E+09     4.89372E+09     4.89372E+09    -783.091E+06    -1.84893E+09     6.74264E+09    -753.900E+06     6.06937E+09    -1.68301E+09     4.65976E+09    -715.047E+06     805.856E+06    -148.733E+06     888.823E+06
             156               1     7.04319E+09     5.31418E+09     5.31418E+09    -863.997E+06    -2.35520E+09     7.66939E+09    -698.328E+06     6.67401E+09    -2.18324E+09     4.99820E+09    -719.980E+06     1.08715E+09     14.1322E+06     975.422E+06
             157               1     8.12951E+09     5.81426E+09     5.81426E+09    -995.938E+06    -3.18591E+09     9.00017E+09    -544.140E+06     7.42114E+09    -2.94476E+09     5.46947E+09    -892.291E+06     1.43403E+09    -52.2087E+06    -850.407E+06
             158               1     5.24203E+09     4.87136E+09     4.87136E+09     95.2763E+06    -737.043E+06     5.60840E+09    -1.40986E+09     5.09018E+09    -659.650E+06     4.84114E+09     48.1039E+06     204.208E+06     218.818E+06    -338.532E+06
             159               1     5.17561E+09     4.87907E+09     4.87907E+09     182.657E+06    -669.876E+06     5.54894E+09    -1.46395E+09     5.01398E+09    -596.729E+06     4.87571E+09     112.871E+06     66.7354E+06     236.255E+06    -112.944E+06
             160               1     6.25954E+09     4.88482E+09     4.88482E+09    -693.067E+06    -1.88497E+09     6.76980E+09    -768.928E+06     5.99620E+09    -1.74420E+09     4.62255E+09    -571.574E+06    -832.647E+06     80.8858E+06     937.647E+06
             161               1     7.27345E+09     5.40311E+09     5.40311E+09    -930.333E+06    -2.54050E+09     7.94361E+09    -644.091E+06     6.85502E+09    -2.35171E+09     5.06319E+09    -779.209E+06    -1.15799E+09    -12.2292E+06     1.01427E+09
             162               1     9.00674E+09     6.27663E+09     6.27663E+09    -1.02787E+09    -3.78691E+09     10.0635E+09    -487.281E+06     7.96938E+09    -3.50279E+09     5.95176E+09    -987.129E+06    -1.66239E+09     61.4296E+06    -543.710E+06
             163               1     7.09806E+09     6.57330E+09     6.57330E+09    -456.947E+06    -590.677E+06     7.16398E+09    -1.84189E+09     7.09522E+09    -351.265E+06     6.45655E+09    -579.609E+06    -896.176E+06     44.8187E+06    -68.3238E+06
             164               1     7.14995E+09     5.49111E+09     5.49111E+09    -754.735E+06    -2.30770E+09     7.79881E+09    -809.559E+06     6.75468E+09    -2.11940E+09     5.12855E+09    -580.475E+06    -1.14037E+09     19.7501E+06    -1.07585E+09
             165               1     6.78330E+09     6.43716E+09     6.43716E+09    -142.377E+06     -533.02E+06     6.97018E+09    -1.92059E+09     6.75793E+09    -159.005E+06     6.32232E+09    -401.552E+06    -487.075E+06    -79.6541E+06    -740.267E+06
             166               1     6.20773E+09     4.72299E+09     4.72299E+09    -675.210E+06    -2.06028E+09     6.78327E+09    -662.501E+06     5.84470E+09    -1.92158E+09     4.46291E+09    -553.823E+06    -830.726E+06    -95.7076E+06    -919.798E+06
             167               1     6.37267E+09     5.99822E+09     5.99822E+09    -221.663E+06    -516.965E+06     6.51519E+09    -1.75320E+09     6.35725E+09    -216.154E+06     5.84891E+09    -373.160E+06    -417.831E+06    -19.9736E+06    -880.172E+06
             168               1     5.64713E+09     5.58478E+09     5.58478E+09     39.7600E+06    -159.208E+06     5.74399E+09    -1.82178E+09     5.63924E+09    -53.8313E+06     5.54629E+09    -27.1246E+06    -95.1634E+06    -91.9785E+06    -456.466E+06
             169               1     5.56765E+09     5.60148E+09     5.60148E+09     121.270E+06    -49.6883E+06     5.65116E+09    -1.89102E+09     5.56174E+09     7.25859E+06     5.60132E+09     64.4807E+06    -5.69821E+06    -80.6052E+06     28.8815E+06
             170               1     5.22539E+09     4.88912E+09     4.88912E+09     101.231E+06    -684.726E+06     5.57384E+09    -1.43521E+09     5.08985E+09    -608.151E+06     4.86025E+09     53.5193E+06     188.978E+06    -212.939E+06     335.911E+06
             171               1     5.97433E+09     5.81445E+09     5.81445E+09    -5.74026E+06    -302.935E+06     6.11738E+09    -1.83526E+09     5.95767E+09    -34.2652E+06     5.70569E+09    -165.651E+06     136.693E+06    -73.7548E+06     796.197E+06
             172               1     7.08643E+09     6.65947E+09     6.65947E+09    -308.311E+06    -539.935E+06     7.19940E+09    -1.93707E+09     7.07791E+09    -238.549E+06     6.56639E+09    -516.624E+06     745.180E+06    -16.6412E+06     302.169E+06
             173               1     7.06358E+09     6.54061E+09     6.54061E+09    -375.680E+06    -661.576E+06     7.20219E+09    -1.83445E+09     7.05054E+09    -316.160E+06     6.41740E+09    -597.891E+06     796.898E+06     37.7238E+06    -471.675E+06
             174               1     7.52123E+09     7.35808E+09     7.35808E+09     138.484E+06    -432.266E+06     7.79035E+09    -2.35477E+09     7.47228E+09     138.672E+06     7.35359E+09     -427.96E+06    -145.372E+06     41.6713E+06    -109.596E+06
             175               1     5.39301E+09     5.38225E+09     5.38225E+09     155.353E+06    -162.796E+06     5.54504E+09    -1.79160E+09     5.37183E+09    -68.5570E+06     5.38120E+09     62.1574E+06     18.7813E+06     144.997E+06     -72.626E+06
             176               1     5.24369E+09     4.86604E+09     4.86604E+09     134.351E+06    -771.594E+06     5.63764E+09    -1.40960E+09     5.06311E+09    -690.529E+06     4.83133E+09     88.0017E+06    -225.396E+06     231.007E+06     358.573E+06
             177               1     5.73021E+09     5.64358E+09     5.64358E+09     13.2170E+06    -181.512E+06     5.82509E+09    -1.82509E+09     5.72276E+09    -51.1556E+06     5.57347E+09    -47.0291E+06    -118.086E+06     79.9787E+06     622.112E+06
             178               1     7.26656E+09     7.12137E+09     7.12137E+09     119.053E+06    -383.357E+06     7.50473E+09    -2.28569E+09     7.22733E+09     115.791E+06     7.09047E+09    -349.195E+06     70.3537E+06     49.3760E+06     474.425E+06
             179               1     6.08494E+09     6.07278E+09     6.07278E+09     16.6584E+06    -40.5727E+06     6.11336E+09    -2.01629E+09     6.08434E+09     13.5991E+06     6.05297E+09    -17.7025E+06    -18.8021E+06     14.0901E+06    -346.802E+06
             180               1     5.96176E+09     5.89851E+09     5.89851E+09     44.4726E+06    -165.431E+06     6.06394E+09    -1.92585E+09     5.95344E+09     21.9612E+06     5.85015E+09    -94.5628E+06     63.1305E+06    -60.2845E+06     535.168E+06
             181               1     9.02882E+09     6.39822E+09     6.39822E+09    -917.888E+06    -3.69223E+09     10.0904E+09    -596.034E+06     7.98184E+09    -3.39535E+09     6.06016E+09    -876.707E+06     1.69595E+09     24.4335E+06     563.904E+06
             182               1     6.57651E+09     6.48483E+09     6.48483E+09     81.7955E+06    -252.410E+06     6.73724E+09    -2.10474E+09     6.55736E+09     60.9173E+06     6.43581E+09    -182.509E+06     1.56530E+06    -81.3322E+06    -571.640E+06
             183               1     5.50365E+09     5.54164E+09     5.54164E+09     163.574E+06    -79.5403E+06     5.62118E+09    -1.87523E+09     5.49155E+09     28.3136E+06     5.53656E+09     60.8018E+06    -3.42955E+06    -120.734E+06    -166.882E+06
             184               1     5.79542E+09     5.74542E+09     5.74542E+09     46.9217E+06    -142.277E+06     5.88770E+09    -1.88336E+09     5.78846E+09     467.589E+03     5.69903E+09    -49.4323E+06     76.9207E+06     75.4373E+06    -513.665E+06
             185               1     7.11460E+09     6.71019E+09     6.71019E+09    -253.200E+06    -546.534E+06     7.25673E+09    -1.97015E+09     7.10097E+09    -210.264E+06     6.62518E+09    -504.459E+06    -702.724E+06     54.9916E+06     319.443E+06
             186               1     5.97009E+09     5.43600E+09     5.43600E+09    -271.423E+06    -765.991E+06     6.20199E+09    -1.46620E+09     5.92374E+09    -488.556E+06     5.23097E+09    -343.825E+06    -486.931E+06    -167.717E+06    -989.984E+06
             187               1     6.61263E+09     6.52185E+09     6.52185E+09     77.0133E+06    -246.669E+06     6.76852E+09    -2.11740E+09     6.59477E+09     77.1135E+06     6.46589E+09    -190.803E+06     25.8301E+06    -1.29927E+06    -612.357E+06
             188               1     6.70122E+09     6.59540E+09     6.59540E+09     97.1727E+06    -291.854E+06     6.88726E+09    -2.13357E+09     6.67574E+09     78.4512E+06     6.55092E+09    -228.644E+06    -5.11976E+06     83.1211E+06     550.988E+06
             189               1     7.18533E+09     5.33043E+09     5.33043E+09    -952.562E+06    -2.50383E+09     7.83426E+09    -624.677E+06     6.79307E+09    -2.30397E+09     4.99142E+09    -813.416E+06     1.15967E+09     23.0158E+06    -1.00376E+09
             190               1     6.83923E+09     6.66670E+09     6.66670E+09     84.0373E+06    -403.059E+06     7.06976E+09    -2.11589E+09     6.80004E+09     64.2423E+06     6.60004E+09    -316.599E+06    -24.3498E+06    -99.4178E+06     681.408E+06
             191               1     5.98342E+09     5.76034E+09     5.76034E+09    -56.6304E+06    -376.684E+06     6.13702E+09    -1.77568E+09     5.96411E+09    -106.255E+06     5.64341E+09    -210.134E+06    -189.746E+06     95.8168E+06     816.296E+06
             192               1     6.61113E+09     6.12946E+09     6.12946E+09    -319.150E+06    -633.014E+06     6.76247E+09    -1.72576E+09     6.59434E+09    -337.306E+06     5.93658E+09    -421.980E+06    -605.533E+06     45.7877E+06     948.806E+06
             193               1     7.34945E+09     7.10170E+09     7.10170E+09     712.139E+03    -473.265E+06     7.57497E+09    -2.20972E+09     7.31494E+09    -16.9467E+06     7.08175E+09    -435.655E+06     20.4925E+06     88.9188E+06    -387.446E+06
             194               1     5.72429E+09     5.73967E+09     5.73967E+09     99.8755E+06    -65.5320E+06     5.80520E+09    -1.92467E+09     5.71891E+09     46.9808E+06     5.72453E+09     2.50270E+06     36.7408E+06    -75.4441E+06     292.867E+06
             195               1     7.10381E+09     6.65821E+09     6.65821E+09    -353.507E+06    -534.249E+06     7.19246E+09    -1.92348E+09     7.09863E+09    -253.179E+06     6.55355E+09    -529.917E+06     849.188E+06    -32.2589E+06    -44.1154E+06
             196               1     7.36327E+09     7.14454E+09     7.14454E+09    -7.73454E+06    -412.989E+06     7.55753E+09    -2.24127E+09     7.33812E+09    -8.39368E+06     7.14350E+09    -411.292E+06    -24.6340E+06     17.6412E+06    -84.7785E+06
             197               1     5.38420E+09     5.38284E+09     5.38284E+09     178.036E+06    -164.414E+06     5.54725E+09    -1.79882E+09     5.35962E+09    -65.4673E+06     5.37946E+09     82.4630E+06    -40.1933E+06     154.181E+06     128.812E+06
             198               1     6.03499E+09     6.02969E+09     6.02969E+09     25.2522E+03    -10.6138E+06     6.04030E+09    -2.00637E+09     6.03497E+09    -8.45446E+06     6.02149E+09     6.06351E+06     6.45047E+06     4.51452E+06     222.117E+06
             199               1     6.01298E+09     6.03974E+09     6.03974E+09     34.7616E+06     18.8010E+06     6.02094E+09    -2.03110E+09     6.01293E+09     34.7950E+06     6.03829E+09     20.2195E+06    -18.7537E+06     919.076E+03    -91.5794E+06
             200               1     7.13023E+09     6.98262E+09     6.98262E+09     90.4811E+06    -363.975E+06     7.34659E+09    -2.23637E+09     7.09754E+09     90.3339E+06     6.97307E+09    -354.286E+06     28.5341E+06     9.89917E+06    -262.987E+06
             201               1     6.70661E+09     6.30240E+09     6.30240E+09    -180.867E+06    -607.206E+06     6.90961E+09    -1.83811E+09     6.67602E+09    -181.941E+06     6.14625E+09    -449.981E+06     467.171E+06    -51.9879E+06     913.182E+06
             202               1     6.25002E+09     5.85199E+09     5.85199E+09    -160.949E+06    -610.807E+06     6.46280E+09    -1.69341E+09     6.21344E+09    -247.555E+06     5.67158E+09    -343.791E+06    -407.024E+06     131.607E+06     982.981E+06
             203               1     6.77174E+09     6.67642E+09     6.67642E+09     45.8649E+06    -228.185E+06     6.90460E+09    -2.16470E+09     6.75924E+09     46.0122E+06     6.67439E+09    -226.305E+06     32.0705E+06     917.636E+03    -113.668E+06
             204               1     5.48579E+09     5.45974E+09     5.45974E+09     99.2789E+06    -143.324E+06     5.60306E+09    -1.80523E+09     5.47370E+09    -45.5445E+06     5.43810E+09     23.1358E+06    -70.0786E+06     114.744E+06     337.214E+06
             205               1     6.44625E+09     6.39532E+09     6.39532E+09     62.6178E+06    -158.777E+06     6.55410E+09    -2.09972E+09     6.43769E+09     62.2636E+06     6.37252E+09    -135.623E+06     33.4919E+06    -8.81792E+06     384.431E+06
             206               1     6.95213E+09     6.48726E+09     6.48726E+09    -259.387E+06    -653.584E+06     7.14084E+09    -1.85810E+09     6.92692E+09    -235.401E+06     6.37073E+09    -561.045E+06     611.236E+06    -48.2042E+06     659.805E+06
             207               1     7.57828E+09     7.21411E+09     7.21411E+09    -216.743E+06    -503.464E+06     7.71757E+09    -2.16463E+09     7.56606E+09    -215.880E+06     7.20802E+09    -498.240E+06     156.014E+06     29.2911E+06     146.602E+06
             208               1     6.98049E+09     6.81533E+09     6.81533E+09     52.2267E+06    -363.934E+06     7.17926E+09    -2.16787E+09     6.95250E+09     29.3156E+06     6.77353E+09    -299.227E+06    -52.9953E+06    -91.7554E+06    -543.274E+06
             209               1     7.02237E+09     6.89715E+09     6.89715E+09     67.5834E+06    -303.331E+06     7.20048E+09    -2.22047E+09     7.00028E+09     67.2787E+06     6.89461E+09    -300.483E+06    -43.5173E+06    -13.8709E+06    -127.802E+06
             210               1     7.50601E+09     7.24627E+09     7.24627E+09    -41.1642E+06    -460.721E+06     7.70699E+09    -2.24813E+09     7.47956E+09    -40.2358E+06     7.24528E+09    -460.665E+06    -83.0469E+06     2.56266E+06     17.0692E+06
             211               1     6.77859E+09     6.62783E+09     6.62783E+09    -3.18868E+06    -289.273E+06     6.91710E+09    -2.11179E+09     6.76498E+09    -20.5028E+06     6.58277E+09    -226.898E+06    -31.9508E+06    -71.4168E+06     554.448E+06
             212               1     6.92075E+09     6.77280E+09     6.77280E+09    -19.2405E+06    -269.863E+06     7.04266E+09    -2.16123E+09     6.91053E+09    -19.9696E+06     6.76997E+09    -266.306E+06    -9.49118E+06    -13.8198E+06     140.746E+06
             213               1     6.38366E+09     6.35344E+09     6.35344E+09     35.8372E+06    -94.2857E+06     6.44773E+09    -2.09833E+09     6.38068E+09     27.9747E+06     6.34988E+09    -82.8535E+06    -8.20803E+06     30.8363E+06     151.389E+06
             214               1     6.38012E+09     6.34675E+09     6.34675E+09     36.4064E+06    -100.925E+06     6.44768E+09    -2.09408E+09     6.37679E+09     32.2157E+06     6.33487E+09    -84.8505E+06    -41.1661E+06    -22.5790E+06    -273.473E+06
             215               1     5.66497E+09     5.74785E+09     5.74785E+09     115.947E+06     50.3729E+06     5.69747E+09    -1.97139E+09     5.66412E+09     64.9445E+06     5.74771E+09     101.514E+06     126.891E+03     27.2623E+06     27.9746E+06
             216               1     7.32242E+09     7.06068E+09     7.06068E+09    -54.5996E+06    -452.653E+06     7.51333E+09    -2.18447E+09     7.29802E+09    -55.5513E+06     7.04844E+09    -439.470E+06    -60.6845E+06     21.6333E+06     296.588E+06
             217               1     7.11445E+09     6.94941E+09     6.94941E+09     63.4188E+06    -373.366E+06     7.32278E+09    -2.21315E+09     7.08419E+09     56.0236E+06     6.91117E+09    -327.727E+06    -37.4755E+06     54.3939E+06     526.423E+06
             218               1     7.20436E+09     7.05688E+09     7.05688E+09     171.433E+06    -428.835E+06     7.48571E+09    -2.26649E+09     7.14777E+09     152.440E+06     7.01959E+09    -372.554E+06    -47.0696E+06    -102.623E+06    -524.710E+06
             219               1     7.34821E+09     7.21607E+09     7.21607E+09     182.583E+06    -410.867E+06     7.62694E+09    -2.32926E+09     7.29400E+09     177.586E+06     7.19022E+09    -380.014E+06    -85.6580E+06     54.3775E+06     434.800E+06
             220               1     6.69566E+09     6.56253E+09     6.56253E+09    -27.8466E+06    -233.666E+06     6.79619E+09    -2.10034E+09     6.68854E+09    -28.2307E+06     6.54645E+09    -217.203E+06    -4.30947E+06    -8.70997E+06    -330.143E+06
             221               1     5.78457E+09     5.61918E+09     5.61918E+09    -66.7236E+06    -259.234E+06     5.87842E+09    -1.76441E+09     5.77735E+09    -101.282E+06     5.52915E+09    -134.644E+06    -110.305E+06    -62.2853E+06    -712.349E+06
             222               1     7.17868E+09     7.03659E+09     7.03659E+09     77.4983E+06    -343.176E+06     7.37977E+09    -2.25697E+09     7.15087E+09     78.1691E+06     7.03202E+09    -339.279E+06     68.9960E+06    -724.423E+03     169.241E+06
             223               1     7.42410E+09     7.15157E+09     7.15157E+09    -82.0033E+06    -449.422E+06     7.60099E+09    -2.20671E+09     7.40360E+09    -81.5415E+06     7.14481E+09    -443.130E+06    -90.7808E+06    -13.1856E+06    -206.648E+06
             224               1     6.52729E+09      6.4864E+09      6.4864E+09     78.6171E+06    -154.163E+06     6.64056E+09    -2.13695E+09     6.51794E+09     77.3963E+06     6.46953E+09    -136.077E+06    -36.9160E+06     16.3199E+06     332.178E+06
             225               1     7.36765E+09     7.24330E+09     7.24330E+09     203.216E+06    -413.177E+06     7.65648E+09    -2.34445E+09     7.30930E+09     205.834E+06     7.24063E+09    -413.121E+06     136.107E+06    -3.38548E+06    -17.7990E+06
             226               1     6.79760E+09     6.70844E+09     6.70844E+09     65.2897E+06    -233.744E+06     6.94218E+09    -2.17999E+09     6.78278E+09     63.6142E+06     6.70785E+09    -231.484E+06     38.3247E+06     23.4494E+06    -50.3737E+06
             227               1     7.35329E+09     7.13343E+09     7.13343E+09     36.0663E+06    -451.508E+06     7.58494E+09    -2.23933E+09     7.31679E+09     28.7160E+06     7.12432E+09    -435.045E+06     2.27554E+06    -59.3688E+06     262.613E+06
             228               1     7.57752E+09     7.19515E+09     7.19515E+09    -215.028E+06    -539.305E+06     7.73445E+09    -2.14694E+09     7.56188E+09    -219.789E+06     7.18583E+09    -525.232E+06     193.525E+06    -60.2849E+06    -179.798E+06
             229               1     7.41125E+09     7.16168E+09     7.16168E+09    -36.4795E+06    -445.692E+06     7.60738E+09    -2.22650E+09     7.38576E+09    -37.2979E+06     7.16160E+09    -444.795E+06     14.4046E+06    -18.6396E+06    -19.5132E+06
             230               1     7.38779E+09     7.16212E+09     7.16212E+09    -5.86633E+06    -427.421E+06     7.58954E+09    -2.24294E+09     7.36065E+09    -6.23923E+06     7.16184E+09    -426.774E+06     1.94472E+06    -12.5291E+06     45.5564E+06
             231               1     7.07954E+09     6.92224E+09     6.92224E+09     14.5603E+06    -317.463E+06     7.23971E+09    -2.20645E+09     7.06199E+09     14.2912E+06     6.92181E+09    -316.763E+06    -16.3105E+06    -10.2277E+06     53.3018E+06
             232               1     7.16317E+09     7.00919E+09     7.00919E+09     76.5252E+06    -364.139E+06     7.37333E+09    -2.24053E+09     7.13258E+09     76.5832E+06     7.00755E+09    -362.556E+06    -32.3799E+06     5.92062E+06     104.813E+06
             233               1     7.28004E+09     7.10199E+09     7.10199E+09     66.6395E+06    -400.261E+06     7.50225E+09    -2.25612E+09     7.24624E+09     66.7877E+06     7.09411E+09    -392.535E+06    -38.8361E+06     6.89302E+06    -239.570E+06
             234               1     7.40065E+09     7.21498E+09     7.21498E+09     74.6329E+06    -421.065E+06     7.63604E+09    -2.28952E+09     7.36317E+09     73.4575E+06     7.21376E+09    -418.674E+06    -44.6092E+06     26.2803E+06     84.7612E+06
             235               1     7.04255E+09     6.90211E+09     6.90211E+09     49.8213E+06    -316.415E+06     7.21853E+09    -2.21184E+09     7.02108E+09     49.6108E+06     6.90194E+09    -316.032E+06     13.3239E+06    -9.36530E+06    -32.4978E+06
             236               1     7.36473E+09     7.15377E+09     7.15377E+09     24.9274E+06    -426.113E+06     7.57989E+09    -2.25086E+09     7.33356E+09     24.8498E+06     7.15372E+09    -425.980E+06    -108.895E+03     5.91938E+06    -20.3936E+06
             237               1     7.28366E+09     7.09922E+09     7.09922E+09     29.6086E+06    -381.107E+06     7.48033E+09    -2.24924E+09     7.25753E+09     28.8863E+06     7.09834E+09    -379.505E+06     434.607E+03    -17.2146E+06    -81.1423E+06
             238               1     7.32298E+09     7.15732E+09     7.15732E+09     87.3794E+06    -394.879E+06     7.55219E+09    -2.28327E+09     7.28713E+09     87.3243E+06     7.15712E+09    -394.624E+06     1.43619E+06     5.17792E+06     38.8154E+06
             239               1     7.44511E+09     7.26898E+09     7.26898E+09     122.740E+06    -442.737E+06     7.71172E+09    -2.31633E+09     7.39656E+09     122.403E+06     7.26859E+09    -442.004E+06    -41.0080E+06    -17.7746E+06    -35.2996E+06
             240               1     7.28015E+09     7.14271E+09     7.14271E+09     125.196E+06    -374.348E+06     7.51706E+09    -2.29785E+09     7.24144E+09     125.246E+06     7.14259E+09    -374.274E+06    -22.1209E+06     3.08844E+06     20.2551E+06
             241               1     6.25689E+09     5.96874E+09     5.96874E+09    -82.3406E+06    -475.432E+06     6.44417E+09    -1.80366E+09     6.22902E+09    -117.798E+06      5.7856E+09    -256.835E+06     335.392E+06    -80.2926E+06     1.01681E+09
             242               1     6.43064E+09     6.03388E+09     6.03388E+09    -170.570E+06    -601.302E+06     6.63518E+09    -1.75400E+09     6.39807E+09    -221.980E+06     5.86670E+09    -382.712E+06     477.296E+06     104.484E+06    -923.848E+06
             243               1     5.99052E+09     5.82544E+09     5.82544E+09    -3.27825E+06    -314.744E+06     6.14018E+09    -1.83580E+09     5.97226E+09    -52.2337E+06     5.73098E+09    -171.332E+06     149.810E+06     98.6976E+06    -739.661E+06
             244               1     6.96176E+09     6.47115E+09     6.47115E+09    -323.189E+06    -646.753E+06     7.11790E+09    -1.83374E+09     6.94481E+09    -281.379E+06     6.34350E+09    -560.910E+06    -632.871E+06     9.36110E+06     694.101E+06
             245               1     6.99199E+09     6.52163E+09     6.52163E+09    -264.931E+06    -659.120E+06     7.18075E+09    -1.86586E+09     6.96693E+09    -264.554E+06     6.40198E+09    -539.850E+06    -789.071E+06    -114.679E+06    -457.109E+06
             246               1     7.55196E+09     7.36143E+09     7.36143E+09     123.245E+06    -469.376E+06     7.83081E+09    -2.33843E+09     7.49938E+09     124.895E+06     7.35535E+09    -464.947E+06    -112.777E+06     5.15286E+06     183.983E+06
             247               1     7.35327E+09     7.22720E+09     7.22720E+09     170.609E+06    -390.582E+06     7.61779E+09    -2.33574E+09     7.30485E+09     167.072E+06     7.20825E+09    -368.087E+06    -110.826E+06    -48.5565E+06    -362.381E+06
             248               1     7.32117E+09     7.04739E+09     7.04739E+09    -65.2624E+06    -465.851E+06     7.51324E+09    -2.17209E+09     7.29645E+09    -90.6053E+06     7.02914E+09    -422.259E+06     82.9879E+06     95.1604E+06    -360.389E+06
             249               1     6.43794E+09     6.37464E+09     6.37464E+09     2.71654E+06    -127.339E+06     6.50198E+09    -2.08334E+09     6.43498E+09    -4.71842E+06     6.37404E+09    -119.305E+06     973.658E+03     30.2052E+06     62.3584E+06
             250               1     6.83472E+09     6.72928E+09     6.72928E+09     52.9880E+06    -253.541E+06     6.98282E+09    -2.17624E+09     6.81923E+09     52.9387E+06     6.72118E+09    -245.385E+06    -15.2704E+06     4.54219E+06     237.293E+06
             251               1     4.83421E+09     4.59736E+09     4.59736E+09     307.341E+06    -640.606E+06     5.23796E+09    -1.42136E+09     4.61810E+09    -599.257E+06     4.59522E+09     268.125E+06     68.9950E+06    -190.599E+06     75.0589E+06
             252               1     4.95182E+09     4.57371E+09     4.57371E+09     207.921E+06    -806.916E+06     5.38062E+09    -1.32490E+09     4.70924E+09    -753.761E+06     4.53860E+09     189.873E+06    -291.726E+06    -174.712E+06    -298.989E+06
             253               1     5.20680E+09     4.64885E+09     4.64885E+09     32.2354E+06    -995.004E+06     5.64385E+09    -1.22869E+09     4.97108E+09    -935.803E+06     4.57006E+09     51.8261E+06     427.808E+06    -126.706E+06     469.512E+06
             254               1     5.64835E+09     4.64739E+09     4.64739E+09    -229.463E+06    -1.54151E+09     6.18890E+09    -958.807E+06     5.28893E+09    -1.48388E+09     4.55920E+09    -198.899E+06    -571.039E+06    -35.2103E+06    -415.148E+06
             255               1     9.04858E+09     7.33895E+09     7.33895E+09    -412.978E+06    -2.60393E+09     9.94288E+09    -1.44068E+09     8.42018E+09    -2.49641E+09     7.16443E+09    -345.984E+06     1.00160E+09     177.780E+06     728.258E+06
             256               1     10.4100E+09     8.44138E+09     8.44138E+09    -521.125E+06    -2.97689E+09     11.4183E+09    -1.64779E+09     9.72566E+09    -2.88903E+09     8.35356E+09    -521.166E+06     997.535E+06    -10.3043E+06    -1.31291E+06
             257               1     10.0525E+09     8.15400E+09     8.15400E+09    -487.119E+06    -2.87856E+09     11.0326E+09    -1.59611E+09     9.37991E+09    -2.78788E+09     8.04453E+09    -468.314E+06     984.979E+06    -103.925E+06    -414.196E+06
             258               1     6.63851E+09     5.38496E+09     5.38496E+09    -473.412E+06    -1.82550E+09     7.21047E+09    -1.02868E+09     6.31747E+09    -1.74112E+09     5.21695E+09    -389.785E+06     768.335E+06    -48.2661E+06    -696.090E+06
             259               1     5.71981E+09     4.84611E+09     4.84611E+09    -195.651E+06    -1.36959E+09     6.21570E+09    -1.09362E+09     5.43876E+09    -1.30122E+09     4.72294E+09    -140.856E+06     593.533E+06     54.9416E+06    -578.383E+06
             260               1     5.18434E+09     4.62777E+09     4.62777E+09     58.6553E+06    -1.00639E+09     5.63416E+09    -1.22668E+09     4.92911E+09    -948.496E+06     4.55955E+09     68.9718E+06     421.571E+06     133.077E+06    -416.950E+06
             261               1     4.81237E+09     4.55158E+09     4.55158E+09     326.130E+06    -686.546E+06     5.23812E+09    -1.39705E+09     4.56331E+09    -649.134E+06     4.54865E+09     291.645E+06    -90.7740E+06     185.754E+06     78.8504E+06
             262               1     5.23210E+09     4.61152E+09     4.61152E+09    -13.6279E+06    -1.06720E+09     5.67872E+09    -1.17690E+09     4.98499E+09    -1.00699E+09     4.54671E+09    -9.02856E+06    -433.935E+06     135.618E+06     390.590E+06
             263               1     5.69733E+09     4.77546E+09     4.77546E+09    -224.435E+06    -1.42723E+09     6.20270E+09    -1.04127E+09     5.40047E+09    -1.35996E+09     4.65905E+09    -175.293E+06    -596.274E+06     50.0650E+06     542.858E+06
             264               1     5.22254E+09     4.96731E+09     4.96731E+09     81.1690E+06    -536.670E+06     5.50398E+09    -1.50393E+09     5.13935E+09    -385.639E+06     4.95072E+09    -53.2754E+06     166.216E+06     255.096E+06    -247.139E+06
             265               1     9.13101E+09     7.39050E+09     7.39050E+09    -482.690E+06    -2.61940E+09     10.0099E+09    -1.42947E+09     8.54091E+09    -2.51512E+09     7.22982E+09    -426.303E+06    -989.297E+06    -170.850E+06     678.237E+06
             266               1     10.0720E+09     8.17125E+09     8.17125E+09    -506.088E+06    -2.87357E+09     11.0448E+09    -1.59720E+09     9.41490E+09    -2.78156E+09     8.06580E+09    -492.651E+06    -985.481E+06    -120.890E+06     370.382E+06
             267               1     10.4782E+09     8.50917E+09     8.50917E+09    -491.319E+06    -2.99367E+09     11.5028E+09    -1.67473E+09     9.77142E+09    -2.91198E+09     8.42745E+09    -491.279E+06    -965.673E+06     7.38033E+06     27.0042E+06
             268               1     7.08350E+09     6.50238E+09     6.50238E+09    -253.980E+06    -868.261E+06     7.37064E+09    -1.79338E+09     7.02320E+09    -221.505E+06     6.44727E+09    -845.622E+06    -596.697E+06     98.8050E+06     134.752E+06
             269               1     8.96958E+09     7.22717E+09     7.22717E+09    -603.030E+06    -2.55900E+09     9.78617E+09    -1.35504E+09     8.46957E+09    -2.45692E+09     7.07231E+09    -550.256E+06    -969.734E+06     159.292E+06    -654.120E+06
             270               1     5.25934E+09     4.59075E+09     4.59075E+09    -35.6747E+06    -1.12947E+09     5.72023E+09    -1.14187E+09     4.99372E+09    -1.07202E+09     4.51168E+09    -14.0512E+06    -470.364E+06    -103.903E+06    -437.722E+06
             271               1     6.47210E+09     6.15712E+09     6.15712E+09    -53.3299E+06    -548.217E+06     6.70534E+09    -1.85186E+09     6.42933E+09    -57.7779E+06     6.13253E+09    -519.172E+06     135.485E+06    -51.8881E+06     381.249E+06
             272               1     6.41758E+09     5.54339E+09     5.54339E+09    -506.786E+06    -1.18735E+09     6.73074E+09    -1.28309E+09     6.33563E+09    -976.045E+06     5.36236E+09    -537.054E+06     766.096E+06     171.994E+06    -763.837E+06
             273               1     6.37828E+09     6.08281E+09     6.08281E+09    -62.0756E+06    -505.689E+06     6.58850E+09    -1.83835E+09     6.34343E+09    -64.7615E+06     6.06297E+09    -483.160E+06     124.743E+06     41.0567E+06    -337.979E+06
             274               1     7.85516E+09     6.52202E+09     6.52202E+09    -874.455E+06    -1.72295E+09     8.24496E+09    -1.30820E+09     7.75106E+09    -1.51398E+09     6.29099E+09    -852.402E+06     1.19522E+09     63.8176E+06    -636.121E+06
             275               1     6.68990E+09     6.39391E+09     6.39391E+09     1.85481E+06    -558.576E+06     6.95249E+09    -1.94573E+09     6.63678E+09     1.88532E+06     6.39388E+09    -558.569E+06     15.2540E+06    -1.81107E+06     2.89550E+06
             276               1     7.08803E+09     6.45567E+09     6.45567E+09    -427.208E+06    -821.093E+06     7.27676E+09    -1.73579E+09     7.06335E+09    -327.129E+06     6.33300E+09    -798.499E+06    -892.013E+06    -54.5894E+06    -204.403E+06
             277               1     4.82397E+09     4.57851E+09     4.57851E+09     315.679E+06    -658.054E+06     5.23656E+09    -1.41204E+09     4.59499E+09    -614.200E+06     4.57441E+09     275.918E+06    -94.7220E+06    -196.275E+06    -104.372E+06
             278               1     5.87772E+09     4.99311E+09     4.99311E+09    -269.456E+06    -1.34986E+09     6.34298E+09    -1.12460E+09     5.64780E+09    -1.27893E+09     4.87451E+09    -221.792E+06     603.720E+06    -60.3971E+06     567.421E+06
             279               1     5.87568E+09     5.67497E+09     5.67497E+09    -21.6956E+06    -364.685E+06     6.03966E+09    -1.76286E+09     5.85309E+09    -52.1702E+06     5.67452E+09    -333.760E+06    -28.3175E+06    -97.5797E+06    -43.6878E+06
             280               1     6.57076E+09     5.26757E+09     5.26757E+09    -594.061E+06    -1.83528E+09     7.10285E+09    -946.075E+06     6.29885E+09    -1.75231E+09     5.12371E+09    -533.176E+06     754.724E+06     27.6513E+06     600.177E+06
             281               1     7.51288E+09     5.92741E+09     5.92741E+09    -581.389E+06    -2.29388E+09     8.22130E+09    -1.01738E+09     7.05341E+09    -2.19440E+09     5.74860E+09    -502.065E+06     883.741E+06     142.502E+06     713.327E+06
             282               1     8.95149E+09     7.14643E+09     7.14643E+09    -590.014E+06    -2.65810E+09     9.80453E+09    -1.29944E+09     8.38833E+09    -2.55623E+09     6.99555E+09    -541.002E+06     964.411E+06    -170.355E+06    -633.318E+06
             283               1     4.94947E+09     4.60082E+09     4.60082E+09     236.013E+06    -776.665E+06     5.37749E+09    -1.35339E+09     4.70784E+09    -731.114E+06     4.57822E+09     213.066E+06     241.681E+06     173.659E+06    -233.806E+06
             284               1     4.82729E+09     4.58616E+09     4.58616E+09     352.117E+06    -670.510E+06     5.25667E+09    -1.42259E+09     4.57396E+09    -635.401E+06     4.58383E+09     319.343E+06     74.5132E+06     182.412E+06    -76.2323E+06
             285               1     6.53813E+09     5.25715E+09     5.25715E+09    -444.872E+06    -1.87899E+09     7.13614E+09    -977.765E+06     6.16918E+09    -1.79497E+09     5.09299E+09    -364.730E+06    -763.917E+06    -52.0079E+06     670.871E+06
             286               1     7.78417E+09     6.16585E+09     6.16585E+09    -606.917E+06    -2.33820E+09     8.50405E+09    -1.07358E+09     7.33198E+09    -2.23990E+09     5.97892E+09    -518.290E+06    -888.649E+06    -159.017E+06     771.375E+06
             287               1     10.0088E+09     8.09017E+09     8.09017E+09    -526.612E+06    -2.88826E+09     10.9784E+09    -1.55843E+09     9.35058E+09    -2.79998E+09     7.98332E+09    -508.040E+06    -964.781E+06     116.505E+06    -418.427E+06
             288               1     8.74946E+09     7.11950E+09     7.11950E+09    -986.855E+06    -2.15558E+09     9.27508E+09    -1.32569E+09     8.57121E+09    -1.91653E+09     6.88221E+09    -988.610E+06    -1.46240E+09    -40.6108E+06    -77.5576E+06
             289               1     7.67756E+09     6.17022E+09     6.17022E+09    -518.344E+06    -2.21313E+09     8.38335E+09    -1.14625E+09     7.23851E+09    -2.11346E+09     5.94935E+09    -397.137E+06    -896.289E+06     143.653E+06    -886.319E+06
             290               1     7.51213E+09     6.37441E+09     6.37441E+09    -782.094E+06    -1.44888E+09     7.82329E+09    -1.38115E+09     7.44511E+09    -1.25442E+09     6.14791E+09    -750.038E+06    -1.14229E+09    -25.9832E+06    -632.541E+06
             291               1     6.34675E+09     5.04244E+09     5.04244E+09    -367.237E+06    -1.94408E+09     6.98652E+09    -910.372E+06     5.88131E+09    -1.86848E+09     4.88777E+09    -288.177E+06    -715.354E+06     100.959E+06    -645.004E+06
             292               1     6.81157E+09     5.81358E+09     5.81358E+09    -680.148E+06    -1.27659E+09     7.09018E+09    -1.28561E+09     6.75244E+09    -1.07635E+09     5.62395E+09    -690.752E+06    -879.369E+06    -119.655E+06    -724.684E+06
             293               1     5.36958E+09     5.03974E+09     5.03974E+09    -1.65201E+06    -606.756E+06     5.64650E+09    -1.47711E+09     5.29205E+09    -425.732E+06     5.00052E+09    -143.451E+06    -226.148E+06    -256.941E+06    -403.626E+06
             294               1     5.20633E+09     5.01800E+09     5.01800E+09     109.758E+06    -442.415E+06     5.46041E+09    -1.56178E+09     5.13983E+09    -267.417E+06     5.01759E+09    -64.8394E+06     41.4664E+06    -256.627E+06     21.5715E+06
             295               1     4.91712E+09     4.58505E+09     4.58505E+09     228.188E+06    -746.377E+06     5.33143E+09    -1.35562E+09     4.69239E+09    -696.136E+06     4.56149E+09     201.512E+06     238.589E+06    -181.381E+06     244.767E+06
             296               1     5.89622E+09     5.29624E+09     5.29624E+09    -281.442E+06    -873.801E+06     6.17004E+09    -1.38033E+09     5.82871E+09    -653.234E+06     5.17529E+09    -381.058E+06     526.960E+06    -212.363E+06     667.752E+06
             297               1     8.39252E+09     6.96141E+09     6.96141E+09    -924.271E+06    -1.85959E+09     8.82100E+09    -1.39252E+09     8.27404E+09    -1.63912E+09     6.73909E+09    -922.423E+06     1.36167E+09    -29.8691E+06     235.111E+06
             298               1     8.38993E+09     6.88504E+09     6.88504E+09    -977.844E+06    -1.94764E+09     8.83269E+09    -1.31985E+09     8.26242E+09    -1.73403E+09     6.65857E+09    -964.989E+06     1.34885E+09    -7.98750E+06    -346.232E+06
             299               1     7.09673E+09     6.45608E+09     6.45608E+09    -397.324E+06    -861.219E+06     7.31730E+09    -1.73251E+09     7.06250E+09    -302.584E+06     6.35677E+09    -856.643E+06     812.889E+06    -49.8455E+06    -100.356E+06
             300               1     5.06681E+09     4.84098E+09     4.84098E+09     169.501E+06    -545.268E+06     5.38624E+09    -1.48840E+09     4.95148E+09    -406.143E+06     4.83998E+09     31.3709E+06     51.5678E+06     282.128E+06    -51.1169E+06
             301               1     4.94979E+09     4.60073E+09     4.60073E+09     261.640E+06    -790.564E+06     5.39130E+09    -1.35727E+09     4.68816E+09    -745.973E+06     4.57371E+09     244.070E+06    -259.714E+06     168.389E+06     258.551E+06
             302               1     5.53388E+09     5.11235E+09     5.11235E+09    -100.189E+06    -694.837E+06     5.80719E+09    -1.43911E+09     5.46130E+09    -509.665E+06     5.03600E+09    -209.008E+06    -359.172E+06     231.250E+06     547.402E+06
             303               1     6.85266E+09     6.31375E+09     6.31375E+09    -321.363E+06    -737.487E+06     7.05124E+09    -1.75163E+09     6.82414E+09    -262.042E+06     6.22503E+09    -708.085E+06    -623.915E+06    -35.3650E+06     451.969E+06
             304               1     5.68678E+09     5.46872E+09     5.46872E+09    -4.88436E+06    -409.595E+06     5.87832E+09    -1.68475E+09     5.65424E+09    -105.192E+06     5.44377E+09    -284.333E+06    -126.560E+06     -168.58E+06    -360.090E+06
             305               1     5.70434E+09     5.32803E+09     5.32803E+09    -109.209E+06    -610.329E+06     5.93836E+09    -1.53617E+09     5.65450E+09    -368.825E+06     5.27104E+09    -293.720E+06     313.595E+06    -223.554E+06     484.543E+06
             306               1     10.0899E+09     8.21095E+09     8.21095E+09    -454.583E+06    -2.86633E+09     11.0773E+09    -1.63001E+09     9.40807E+09    -2.77203E+09     8.10061E+09    -438.549E+06     1.00521E+09     107.890E+06     388.323E+06
             307               1     6.23414E+09     5.79964E+09     5.79964E+09    -166.815E+06    -671.508E+06     6.47115E+09    -1.65377E+09     6.18793E+09    -213.337E+06     5.71962E+09    -544.961E+06     379.460E+06     137.794E+06    -605.027E+06
             308               1     5.18872E+09     4.95444E+09     4.95444E+09     94.7341E+06    -510.264E+06     5.46470E+09    -1.51297E+09     5.10846E+09    -360.461E+06     4.94773E+09    -48.3609E+06    -123.548E+06    -256.236E+06    -144.314E+06
             309               1     5.53740E+09     5.17387E+09     5.17387E+09    -86.5247E+06    -604.191E+06     5.77806E+09    -1.49438E+09     5.48257E+09    -413.809E+06     5.12114E+09    -224.172E+06     291.345E+06     221.853E+06    -461.379E+06
             310               1     8.31312E+09     6.93231E+09     6.93231E+09    -896.811E+06    -1.79232E+09     8.72462E+09    -1.41439E+09     8.20356E+09    -1.57099E+09     6.70586E+09    -891.692E+06    -1.36119E+09     12.5493E+06     260.730E+06
             311               1     6.21693E+09     5.27858E+09     5.27858E+09    -418.691E+06    -1.35238E+09     6.63096E+09    -1.16917E+09     6.05617E+09    -1.21623E+09     5.09639E+09    -372.636E+06    -724.260E+06    -133.828E+06    -771.843E+06
             312               1     6.23657E+09     5.80242E+09     5.80242E+09    -226.809E+06    -622.649E+06     6.42506E+09    -1.65099E+09     6.20822E+09    -228.321E+06     5.71923E+09    -537.952E+06    -406.709E+06    -63.4195E+06    -598.820E+06
             313               1     6.43223E+09     5.96437E+09     5.96437E+09    -165.619E+06    -732.551E+06     6.69693E+09    -1.68873E+09     6.37565E+09    -177.521E+06     5.87719E+09    -633.460E+06     416.364E+06    -103.723E+06     630.673E+06
             314               1     7.73395E+09     6.13839E+09     6.13839E+09    -621.036E+06    -2.29569E+09     8.43408E+09    -1.07389E+09     7.30913E+09    -2.19778E+09     5.96184E+09    -542.397E+06     894.972E+06    -117.377E+06    -720.511E+06
             315               1     6.64897E+09     6.00720E+09     6.00720E+09    -343.613E+06    -904.402E+06     6.91160E+09    -1.58640E+09     6.59545E+09    -402.765E+06     5.87458E+09    -712.629E+06    -660.300E+06     167.390E+06     675.907E+06
             316               1     5.97610E+09     5.31591E+09     5.31591E+09    -362.084E+06    -919.279E+06     6.23519E+09    -1.34485E+09     5.91724E+09    -721.081E+06     5.18243E+09    -426.801E+06    -576.111E+06     179.267E+06     688.223E+06
             317               1     7.36285E+09     6.18254E+09     6.18254E+09    -736.466E+06    -1.55565E+09     7.73819E+09    -1.29681E+09     7.25926E+09    -1.36861E+09     5.95754E+09    -698.511E+06    -1.03771E+09     79.0999E+06     763.753E+06
             318               1     6.83906E+09     6.32005E+09     6.32005E+09    -206.571E+06    -793.611E+06     7.11366E+09    -1.77329E+09     6.78203E+09    -204.873E+06     6.26492E+09    -740.183E+06    -453.249E+06    -100.646E+06    -415.503E+06
             319               1     5.40972E+09     5.15047E+09     5.15047E+09     8.53051E+06    -492.217E+06     5.64269E+09    -1.55559E+09     5.35721E+09    -307.687E+06     5.13388E+09    -159.413E+06     150.624E+06    -233.475E+06     263.110E+06
             320               1     8.57505E+09     7.07221E+09     7.07221E+09    -918.185E+06    -1.98725E+09     9.05945E+09    -1.38893E+09     8.42316E+09    -1.76408E+09     6.84972E+09    -918.866E+06     1.40166E+09     24.0084E+06    -37.5680E+06
             321               1     6.83656E+09     6.52512E+09     6.52512E+09     36.9534E+06    -613.368E+06     7.13848E+09    -1.98290E+09     6.76645E+09      34.875E+06     6.52392E+09    -610.099E+06    -17.8890E+06    -36.8912E+06    -90.3538E+06
             322               1     5.07735E+09     4.85243E+09     4.85243E+09     183.044E+06    -552.627E+06     5.40505E+09    -1.49428E+09     4.95531E+09    -423.868E+06     4.84912E+09     57.5919E+06    -78.8479E+06     277.049E+06     105.006E+06
             323               1     5.58882E+09     5.41328E+09     5.41328E+09     11.5458E+06    -345.505E+06     5.75879E+09    -1.69311E+09     5.56308E+09    -98.3260E+06     5.40195E+09    -224.298E+06    -91.0838E+06     161.647E+06     237.976E+06
             324               1     5.57788E+09     5.41392E+09     5.41392E+09     11.7059E+06    -324.419E+06     5.73834E+09    -1.70040E+09     5.55502E+09    -86.3139E+06     5.41146E+09    -223.935E+06     47.8794E+06     152.049E+06    -108.700E+06
             325               1     6.67544E+09     6.31097E+09     6.31097E+09    -67.3023E+06    -626.467E+06     6.93744E+09    -1.87240E+09     6.62244E+09    -66.5361E+06     6.29767E+09    -613.933E+06    -147.790E+06    -32.4569E+06    -262.249E+06
             326               1     7.25805E+09     6.19553E+09     6.19553E+09    -770.125E+06    -1.32327E+09     7.51879E+09    -1.36738E+09     7.21040E+09    -1.11786E+09     5.97447E+09    -754.476E+06     978.350E+06    -81.3072E+06     802.496E+06
             327               1     6.59408E+09     5.63528E+09     5.63528E+09    -594.422E+06    -1.27099E+09     6.90628E+09    -1.25662E+09     6.51530E+09    -1.11778E+09     5.44207E+09    -554.422E+06    -809.168E+06     92.2222E+06     782.844E+06
             328               1     6.28581E+09     6.04268E+09     6.04268E+09    -30.7750E+06    -435.899E+06     6.47858E+09    -1.85867E+09     6.25634E+09    -43.5656E+06     6.04018E+09    -420.613E+06    -51.3524E+06    -71.0248E+06    -116.053E+06
             329               1     5.22196E+09     4.92287E+09     4.92287E+09     52.6658E+06    -591.152E+06     5.51402E+09    -1.46146E+09     5.13153E+09    -436.185E+06     4.89979E+09    -79.2214E+06    -213.215E+06     259.299E+06     280.191E+06
             330               1     6.03369E+09     5.73600E+09     5.73600E+09    -93.7321E+06    -482.829E+06     6.21882E+09    -1.71981E+09     6.00537E+09    -122.540E+06     5.70316E+09    -421.187E+06    -201.248E+06     98.8119E+06     402.843E+06
             331               1     7.90979E+09     6.60788E+09     6.60788E+09    -947.894E+06    -1.61383E+09     8.22170E+09    -1.34872E+09     7.84635E+09    -1.41945E+09     6.39780E+09    -932.196E+06     1.18846E+09    -32.3645E+06     512.029E+06
             332               1     7.10017E+09     6.64006E+09     6.64006E+09    -111.383E+06    -763.800E+06     7.40386E+09    -1.92162E+09     7.03225E+09    -108.292E+06     6.63208E+09    -758.911E+06     188.795E+06    -33.8032E+06     142.237E+06
             333               1     6.58117E+09     6.05979E+09     6.05979E+09    -227.031E+06    -780.749E+06     6.84054E+09    -1.68400E+09     6.52846E+09    -255.328E+06     5.96472E+09    -657.388E+06     529.615E+06     138.541E+06    -594.768E+06
             334               1     6.53005E+09     6.24083E+09     6.24083E+09    -22.4559E+06    -526.755E+06     6.76758E+09    -1.89721E+09     6.48602E+09    -27.5299E+06     6.23726E+09    -518.111E+06     82.8012E+06     53.7277E+06    -130.063E+06
             335               1     7.07449E+09     6.64397E+09     6.64397E+09    -124.522E+06    -701.214E+06     7.34519E+09    -1.93941E+09     7.02132E+09    -120.826E+06     6.63981E+09    -700.752E+06    -165.787E+06     13.8825E+06     26.8120E+06
             336               1     6.37077E+09     5.97828E+09     5.97828E+09    -133.518E+06    -623.197E+06     6.60148E+09    -1.74052E+09     6.32822E+09    -163.624E+06     5.91391E+09    -528.720E+06    -291.470E+06     113.156E+06     578.744E+06
             337               1     6.40674E+09     6.16810E+09     6.16810E+09    -1.02556E+06    -452.383E+06     6.62048E+09    -1.90490E+09     6.37082E+09    -6.58826E+06     6.16481E+09    -443.532E+06     62.2407E+06    -51.1666E+06     133.130E+06
             338               1     5.92747E+09     5.73523E+09     5.73523E+09     21.7036E+06    -385.219E+06     6.12045E+09    -1.79057E+09     5.89592E+09    -12.9917E+06     5.73025E+09    -345.547E+06     51.0141E+06    -112.880E+06     166.824E+06
             339               1     5.90852E+09     5.68902E+09     5.68902E+09    -11.7293E+06    -407.394E+06     6.09641E+09    -1.75663E+09     5.87860E+09    -48.5128E+06     5.67150E+09    -353.091E+06     132.907E+06     112.366E+06    -297.939E+06
             340               1     5.28743E+09     5.12083E+09     5.12083E+09     57.8497E+06    -365.576E+06     5.48641E+09    -1.60437E+09     5.24908E+09    -174.539E+06     5.12061E+09    -132.962E+06    -27.6345E+06     210.578E+06     21.7442E+06
             341               1     6.84697E+09     6.43570E+09     6.43570E+09    -111.414E+06    -676.145E+06     7.11185E+09    -1.88271E+09     6.79428E+09    -107.024E+06     6.41970E+09    -664.533E+06    -176.098E+06     6.58989E+06     282.972E+06
             342               1     6.69506E+09     6.17340E+09     6.17340E+09    -258.060E+06    -757.311E+06     6.93071E+09    -1.71934E+09     6.65298E+09    -246.230E+06     6.09505E+09    -690.790E+06     511.892E+06    -76.7266E+06     513.655E+06
             343               1     6.89932E+09     6.23936E+09     6.23936E+09    -382.889E+06    -907.132E+06     7.14649E+09    -1.64978E+09     6.85429E+09    -360.386E+06     6.11603E+09    -806.310E+06     744.655E+06     109.766E+06    -538.555E+06
             344               1     6.96826E+09     6.37172E+09     6.37172E+09    -340.803E+06    -826.833E+06     7.19855E+09    -1.73469E+09     6.92997E+09    -290.121E+06     6.27077E+09    -776.566E+06     695.597E+06    -54.5923E+06     455.601E+06
             345               1     6.23944E+09     5.94566E+09     5.94566E+09    -79.5193E+06    -487.957E+06     6.43362E+09    -1.79273E+09     6.20925E+09    -85.8214E+06     5.92488E+09    -460.870E+06    -134.419E+06    -53.4802E+06    -338.772E+06
             346               1     5.64602E+09     5.11329E+09     5.11329E+09    -153.989E+06    -847.430E+06     5.96072E+09    -1.37062E+09     5.54901E+09    -610.710E+06     5.01234E+09    -289.760E+06    -473.041E+06    -265.529E+06    -599.395E+06
             347               1     6.69870E+09     6.37537E+09     6.37537E+09    -38.1396E+06    -576.077E+06     6.95145E+09    -1.92038E+09     6.64984E+09    -36.0791E+06     6.36808E+09    -570.846E+06    -142.747E+06     20.7540E+06     169.508E+06
             348               1     6.97836E+09     6.58262E+09     6.58262E+09    -99.4143E+06    -658.439E+06     7.24106E+09    -1.94159E+09     6.92772E+09    -95.6088E+06     6.57346E+09    -653.083E+06    -159.789E+06     1.28971E+06    -196.507E+06
             349               1     6.07501E+09     5.80344E+09     5.80344E+09    -55.9229E+06    -466.412E+06     6.26985E+09    -1.76037E+09     6.04369E+09    -64.7299E+06     5.77880E+09    -432.969E+06     147.008E+06    -61.5626E+06     363.008E+06
             350               1     6.88772E+09     6.47641E+09     6.47641E+09    -77.4981E+06    -702.510E+06     7.17892E+09    -1.89880E+09     6.82348E+09    -70.0539E+06     6.46856E+09    -702.102E+06    -225.998E+06    -14.2843E+06    -19.5613E+06
             351               1     6.34253E+09     6.08991E+09     6.08991E+09    -37.5379E+06    -447.788E+06     6.53769E+09    -1.86819E+09     6.31257E+09    -43.9390E+06     6.08955E+09    -441.034E+06    -25.4636E+06     51.4223E+06    -39.9481E+06
             352               1     6.88179E+09     6.47255E+09     6.47255E+09    -122.784E+06    -663.754E+06     7.13631E+09    -1.89534E+09     6.83370E+09    -114.457E+06     6.45397E+09    -653.502E+06     241.244E+06     26.4300E+06     262.540E+06
             353               1     7.11696E+09     6.62730E+09     6.62730E+09    -161.726E+06    -777.583E+06     7.40488E+09    -1.89600E+09     7.05664E+09    -165.359E+06     6.61735E+09    -764.002E+06     197.482E+06     70.2818E+06    -178.369E+06
             354               1     6.87182E+09     6.56068E+09     6.56068E+09     42.9315E+06    -617.521E+06     7.17820E+09    -1.99536E+09     6.79986E+09     42.5717E+06     6.56054E+09    -617.028E+06     24.3620E+06     17.1834E+06    -17.4903E+06
             355               1     6.85759E+09     6.53913E+09     6.53913E+09     33.9467E+06    -623.525E+06     7.16265E+09    -1.98318E+09     6.78614E+09     32.5850E+06     6.53828E+09    -621.321E+06    -58.5582E+06     34.7603E+06     47.8031E+06
             356               1     6.56716E+09     6.29843E+09     6.29843E+09     35.6202E+06    -535.746E+06     6.83418E+09    -1.93277E+09     6.51089E+09     24.6118E+06     6.29803E+09    -524.334E+06     8.26981E+06     78.6496E+06     51.6173E+06
             357               1     6.70245E+09     6.37332E+09     6.37332E+09    -33.0513E+06    -590.407E+06     6.96373E+09    -1.91662E+09     6.65002E+09    -33.7689E+06     6.37026E+09    -586.632E+06     87.8289E+06    -31.1167E+06     114.013E+06
             358               1     6.80627E+09     6.41731E+09     6.41731E+09    -81.5204E+06    -659.537E+06     7.07684E+09    -1.89208E+09     6.75072E+09    -76.8346E+06     6.40310E+09    -650.014E+06     208.827E+06     26.8536E+06    -231.001E+06
             359               1     6.90040E+09     6.52271E+09     6.52271E+09    -29.2925E+06    -680.000E+06     7.20271E+09    -1.93780E+09     6.83086E+09    -28.8197E+06     6.51848E+09    -676.244E+06     147.514E+06    -41.1355E+06     81.7445E+06
             360               1     6.55643E+09     6.27247E+09     6.27247E+09    -5.62859E+06    -530.721E+06     6.80319E+09    -1.91204E+09     6.50887E+09    -5.77749E+06     6.27216E+09    -530.268E+06    -27.8475E+06    -11.8019E+06    -35.0823E+06
             361               1     6.87453E+09     6.54744E+09     6.54744E+09     18.7737E+06    -627.330E+06     7.17477E+09    -1.97963E+09     6.80572E+09     18.6927E+06     6.54735E+09    -627.157E+06    -15.0895E+06    -8.60739E+06    -20.2035E+06
             362               1     6.77185E+09     6.45642E+09     6.45642E+09     7.94036E+06    -598.068E+06     7.05449E+09    -1.95543E+09     6.71044E+09     7.26315E+06     6.45505E+09    -596.026E+06     28.5696E+06     21.6438E+06    -93.5162E+06
             363               1     6.82792E+09     6.50138E+09     6.50138E+09     6.00944E+06    -616.464E+06     7.11785E+09    -1.96364E+09     6.76365E+09     5.41973E+06     6.50118E+09    -615.674E+06     4.36308E+06    -19.1728E+06     37.4985E+06
             364               1     7.02711E+09     6.57723E+09     6.57723E+09    -150.291E+06    -715.353E+06     7.29258E+09    -1.90386E+09     6.97572E+09    -140.831E+06     6.56671E+09    -714.295E+06     262.689E+06     19.7295E+06    -43.1775E+06
             365               1     6.81855E+09     6.48275E+09     6.48275E+09    -24.9950E+06    -609.025E+06     7.09178E+09    -1.94958E+09     6.76193E+09    -25.0816E+06     6.48268E+09    -608.864E+06     11.5141E+06    -7.87059E+06     19.5660E+06
             366               1     6.43958E+09     5.59010E+09     5.59010E+09    -490.692E+06    -1.15653E+09     6.74662E+09    -1.31429E+09     6.36144E+09    -954.915E+06     5.39221E+09    -494.422E+06     764.773E+06    -153.113E+06     830.235E+06
             367               1     7.01450E+09     5.93120E+09     5.93120E+09    -711.823E+06    -1.40353E+09     7.33473E+09    -1.27195E+09     6.93715E+09    -1.22860E+09     5.71646E+09    -672.006E+06     976.141E+06     62.1210E+06    -742.759E+06
             368               1     5.92101E+09     5.34037E+09     5.34037E+09    -278.614E+06    -842.340E+06     6.18271E+09    -1.40647E+09     5.86018E+09    -642.641E+06     5.23359E+09    -371.524E+06     508.122E+06     201.323E+06    -619.626E+06
             369               1     7.87508E+09     6.56839E+09     6.56839E+09    -919.728E+06    -1.64366E+09     8.21205E+09    -1.33500E+09     7.79969E+09    -1.44533E+09     6.35084E+09    -900.514E+06    -1.18996E+09     39.1291E+06     558.149E+06
             370               1     8.44727E+09     6.92201E+09     6.92201E+09    -949.879E+06    -2.00206E+09     8.92407E+09    -1.32336E+09     8.29792E+09    -1.78331E+09     6.69303E+09    -939.638E+06    -1.37609E+09     15.3258E+06    -297.713E+06
             371               1     7.09229E+09     6.47638E+09     6.47638E+09    -361.618E+06    -845.439E+06     7.32182E+09    -1.75644E+09     7.05502E+09    -280.800E+06     6.38895E+09    -838.829E+06     745.462E+06    -5.35759E+06     195.405E+06
             372               1     7.04048E+09     6.38592E+09     6.38592E+09    -442.733E+06    -848.796E+06     7.23472E+09    -1.69813E+09     7.01406E+09    -350.694E+06     6.25264E+09    -807.555E+06     870.991E+06     39.9633E+06    -390.747E+06
             373               1     6.86490E+09     6.43648E+09     6.43648E+09    -163.454E+06    -665.778E+06     7.10226E+09    -1.86908E+09     6.82336E+09    -161.123E+06     6.40911E+09    -640.740E+06     262.145E+06    -77.1227E+06    -343.294E+06
             374               1     5.96268E+09     5.77473E+09     5.77473E+09    -30.5052E+06    -333.822E+06     6.10855E+09    -1.80347E+09     5.94529E+09    -53.5499E+06     5.77390E+09    -309.946E+06    -22.6194E+06     80.2505E+06     67.5409E+06
             375               1     6.36067E+09     6.08168E+09     6.08168E+09    -42.1053E+06    -491.997E+06     6.57367E+09    -1.84919E+09     6.32473E+09    -49.9311E+06     6.07287E+09    -475.364E+06    -73.7130E+06     59.2933E+06     228.597E+06
             376               1     4.77607E+09     4.46700E+09     4.46700E+09     239.162E+06    -713.657E+06     5.18066E+09    -1.33083E+09     4.55481E+09    -689.074E+06     4.46448E+09     217.098E+06     72.1094E+06    -146.894E+06     82.1371E+06
             377               1     4.95761E+09     4.49805E+09     4.49805E+09     127.328E+06    -888.949E+06     5.38699E+09    -1.24548E+09     4.71462E+09    -856.297E+06     4.46442E+09     128.307E+06    -273.535E+06    -121.406E+06    -299.187E+06
             378               1     5.25800E+09     4.59483E+09     4.59483E+09    -98.9020E+06    -1.08719E+09     5.68202E+09    -1.13624E+09     5.04264E+09    -1.04734E+09     4.51649E+09    -60.4215E+06     388.569E+06    -78.2946E+06     495.314E+06
             379               1     5.61409E+09     4.50518E+09     4.50518E+09    -461.287E+06    -1.58618E+09     6.09137E+09    -819.238E+06     5.35165E+09    -1.54152E+09     4.39983E+09    -400.600E+06    -506.843E+06     2.47603E+06    -555.136E+06
             380               1     8.53905E+09     7.06401E+09     7.06401E+09    -552.584E+06    -2.16701E+09     9.23103E+09    -1.44814E+09     8.18505E+09    -2.11346E+09     6.90133E+09    -443.459E+06     676.342E+06     139.160E+06     910.012E+06
             381               1     9.48353E+09     7.83600E+09     7.83600E+09    -669.524E+06    -2.38999E+09     10.2260E+09    -1.59216E+09     9.12245E+09    -2.35108E+09     7.79707E+09    -669.513E+06     629.584E+06     2.41123E+06    -12.0662E+06
             382               1     9.21138E+09     7.60446E+09     7.60446E+09    -626.543E+06    -2.34520E+09     9.94966E+09    -1.54424E+09     8.83979E+09    -2.30006E+09     7.52563E+09    -592.851E+06     660.420E+06    -75.9081E+06    -528.979E+06
             383               1     6.64501E+09     5.32544E+09     5.32544E+09    -712.935E+06    -1.79370E+09     7.11915E+09    -939.602E+06     6.44281E+09    -1.73937E+09     5.14323E+09    -585.057E+06     613.790E+06    -71.3947E+06    -866.547E+06
             384               1     5.78739E+09     4.80824E+09     4.80824E+09    -392.910E+06    -1.42618E+09     6.23443E+09    -996.384E+06     5.57417E+09    -1.38071E+09     4.67907E+09    -309.214E+06     507.467E+06     2.97215E+06    -669.637E+06
             385               1     5.21957E+09     4.54835E+09     4.54835E+09    -95.5155E+06    -1.10071E+09     5.64906E+09    -1.11737E+09     4.99479E+09    -1.06205E+09     4.47666E+09    -62.4910E+06     383.283E+06     79.1507E+06    -463.400E+06
             386               1     4.75414E+09     4.41989E+09     4.41989E+09     236.920E+06    -750.373E+06     5.17026E+09    -1.30215E+09     4.51476E+09    -727.443E+06     4.41676E+09     217.121E+06    -91.8551E+06     141.996E+06     81.6740E+06
             387               1     5.25010E+09     4.54003E+09     4.54003E+09    -144.265E+06    -1.13478E+09     5.67481E+09    -1.08699E+09     5.03340E+09    -1.09585E+09     4.47267E+09    -115.835E+06    -393.063E+06     75.2724E+06     436.472E+06
             388               1     5.76072E+09     4.73303E+09     4.73303E+09    -434.425E+06    -1.47823E+09     6.21126E+09    -940.125E+06     5.54194E+09    -1.43275E+09     4.60742E+09    -354.294E+06    -512.297E+06    -4.85503E+06     649.582E+06
             389               1     5.11802E+09     4.80217E+09     4.80217E+09     58.0447E+06    -621.803E+06     5.42397E+09    -1.41280E+09     5.01493E+09    -566.112E+06     4.78920E+09     15.3255E+06     151.597E+06     174.046E+06    -208.758E+06
             390               1     8.58857E+09     7.05591E+09     7.05591E+09    -625.145E+06    -2.21735E+09     9.27326E+09    -1.40447E+09     8.24666E+09    -2.16293E+09     6.90765E+09    -531.306E+06    -680.613E+06    -140.190E+06     851.878E+06
             391               1     9.26433E+09     7.61744E+09     7.61744E+09    -684.685E+06    -2.37605E+09     9.99349E+09    -1.51890E+09     8.90698E+09    -2.32788E+09     7.53465E+09    -650.060E+06    -685.648E+06    -72.3224E+06     536.895E+06
             392               1     9.50969E+09     7.84873E+09     7.84873E+09    -653.929E+06    -2.42031E+09     10.2690E+09    -1.59150E+09     9.12960E+09    -2.37669E+09     7.80503E+09    -653.851E+06    -667.742E+06     2.86223E+06     27.9727E+06
             393               1     7.72555E+09     6.70745E+09     6.70745E+09    -976.663E+06    -1.05888E+09     7.76633E+09    -1.55730E+09     7.72457E+09    -956.867E+06     6.62024E+09    -991.470E+06    -814.265E+06    -39.6902E+06     69.1728E+06
             394               1     8.54963E+09     6.93046E+09     6.93046E+09    -797.858E+06    -2.25357E+09     9.18403E+09    -1.29301E+09     8.26389E+09    -2.19657E+09     6.76925E+09    -693.653E+06    -706.326E+06     119.948E+06    -891.901E+06
             395               1     5.27698E+09     4.54954E+09     4.54954E+09    -118.129E+06    -1.17637E+09     5.72591E+09    -1.08502E+09     5.02986E+09    -1.13470E+09     4.47008E+09    -80.3314E+06    -407.570E+06    -78.3834E+06    -487.842E+06
             396               1     6.39936E+09     5.87472E+09     5.87472E+09    -321.601E+06    -709.979E+06     6.58470E+09    -1.61438E+09     6.37276E+09    -339.057E+06     5.83333E+09    -651.128E+06     364.902E+06    -95.4628E+06     366.529E+06
             397               1     6.63152E+09     5.74117E+09     5.74117E+09    -530.556E+06    -1.19945E+09     6.94062E+09    -1.33705E+09     6.55498E+09    -1.14157E+09     5.61107E+09    -458.349E+06     588.066E+06     8.11475E+06    -704.270E+06
             398               1     6.26018E+09     5.77170E+09     5.77170E+09    -283.373E+06    -675.189E+06     6.44689E+09    -1.60438E+09     6.23250E+09    -325.960E+06     5.74178E+09    -602.683E+06     295.616E+06     122.835E+06    -321.098E+06
             399               1     8.15713E+09     6.97392E+09     6.97392E+09    -782.911E+06    -1.53185E+09     8.50577E+09    -1.55305E+09     8.07923E+09    -1.47158E+09     6.86587E+09    -735.135E+06     710.056E+06    -64.3893E+06    -605.069E+06
             400               1     6.43086E+09     5.99780E+09     5.99780E+09    -129.077E+06    -699.097E+06     6.69690E+09    -1.72321E+09     6.37365E+09    -138.185E+06     5.99779E+09    -689.983E+06     2.70223E+06     71.4746E+06    -6.02630E+06
             401               1     8.20575E+09     7.00051E+09     7.00051E+09    -919.430E+06    -1.46393E+09     8.46444E+09    -1.53905E+09     8.16496E+09    -1.37029E+09     6.90403E+09    -916.589E+06    -884.486E+06     7.20263E+06    -153.955E+06
             402               1     4.75928E+09     4.43669E+09     4.43669E+09     232.578E+06    -730.454E+06     5.16715E+09    -1.31294E+09     4.53221E+09    -704.084E+06     4.43222E+09     210.678E+06    -103.881E+06    -148.926E+06    -103.069E+06
             403               1     5.94300E+09     4.95468E+09     4.95468E+09    -449.776E+06    -1.40994E+09     6.36462E+09    -1.03166E+09     5.76461E+09    -1.36158E+09     4.83111E+09    -374.563E+06     522.979E+06    -11.3084E+06     654.971E+06
             404               1     5.72242E+09     5.36918E+09     5.36918E+09    -148.052E+06    -538.440E+06     5.90762E+09    -1.56090E+09     5.69234E+09    -313.286E+06     5.36867E+09    -372.702E+06    -26.8713E+06    -192.685E+06    -47.4005E+06
             405               1     6.55685E+09     5.17369E+09     5.17369E+09    -803.224E+06    -1.83964E+09     7.01333E+09    -843.609E+06     6.36864E+09    -1.78495E+09     5.02290E+09    -707.133E+06     612.362E+06     59.5818E+06     749.598E+06
             406               1     7.39135E+09     5.86479E+09     5.86479E+09    -779.563E+06    -2.09651E+09     7.96130E+09    -996.239E+06     7.12018E+09    -2.04094E+09     5.68124E+09    -651.589E+06     642.367E+06     133.540E+06     914.156E+06
             407               1     8.44940E+09     6.79944E+09     6.79944E+09    -796.806E+06    -2.30106E+09     9.10049E+09    -1.23386E+09     8.13992E+09    -2.24906E+09     6.65131E+09    -700.675E+06     664.368E+06    -127.268E+06    -853.740E+06
             408               1     4.91889E+09     4.48273E+09     4.48273E+09     133.610E+06    -855.593E+06     5.33832E+09    -1.25358E+09     4.68720E+09    -826.775E+06     4.45749E+09     130.032E+06     240.245E+06     120.643E+06    -255.472E+06
             409               1     4.76687E+09     4.45378E+09     4.45378E+09     260.522E+06    -730.811E+06     5.18459E+09    -1.32783E+09     4.52615E+09    -708.370E+06     4.45112E+09     240.743E+06     74.8087E+06     142.754E+06    -83.5541E+06
             410               1     6.54021E+09     5.18978E+09     5.18978E+09    -699.111E+06    -1.84919E+09     7.03897E+09    -880.492E+06     6.30666E+09    -1.79679E+09     5.00981E+09    -571.543E+06    -598.672E+06    -87.6012E+06     853.399E+06
             411               1     7.58348E+09     6.02957E+09     6.02957E+09    -826.215E+06    -2.11614E+09     8.14571E+09    -1.02907E+09     7.33054E+09    -2.06148E+09     5.83182E+09    -683.128E+06    -647.899E+06    -129.031E+06     979.041E+06
             412               1     9.18683E+09     7.51166E+09     7.51166E+09    -722.916E+06    -2.39715E+09     9.90881E+09    -1.46386E+09     8.83376E+09    -2.34920E+09     7.42534E+09    -684.546E+06    -679.606E+06     78.4907E+06    -563.428E+06
             413               1     8.91753E+09     7.67133E+09     7.67133E+09    -772.794E+06    -1.65415E+09     9.32548E+09    -1.74813E+09     8.81874E+09    -1.60084E+09     7.61768E+09    -772.450E+06    -702.974E+06     7.25396E+06    -54.3156E+06
             414               1     7.50969E+09     6.09135E+09     6.09135E+09    -650.947E+06    -2.00226E+09     8.09361E+09    -1.14605E+09     7.22853E+09    -1.94224E+09     5.86410E+09    -483.731E+06    -671.850E+06     149.859E+06    -1.04776E+09
             415               1     7.96009E+09     6.86036E+09     6.86036E+09    -736.538E+06    -1.41898E+09     8.27935E+09    -1.56828E+09     7.89388E+09    -1.35706E+09     6.75548E+09    -693.581E+06    -711.382E+06     46.0659E+06    -567.899E+06
             416               1     6.30890E+09     4.94452E+09     4.94452E+09    -644.804E+06    -1.89637E+09     6.84088E+09    -801.115E+06     6.02002E+09    -1.84622E+09     4.76549E+09    -515.927E+06    -575.372E+06     96.2808E+06    -835.163E+06
             417               1     7.10028E+09     6.06538E+09     6.06538E+09    -679.852E+06    -1.34337E+09     7.40875E+09    -1.34739E+09     7.03002E+09    -1.28519E+09     5.94025E+09    -612.898E+06    -625.558E+06     5.07503E+06    -692.492E+06
             418               1     5.30085E+09     4.88016E+09     4.88016E+09    -73.9172E+06    -710.045E+06     5.59021E+09    -1.36540E+09     5.21394E+09    -642.549E+06     4.84198E+09    -103.231E+06    -283.002E+06    -158.218E+06    -351.475E+06
             419               1     5.06539E+09     4.79680E+09     4.79680E+09     65.7540E+06    -547.169E+06     5.34396E+09    -1.43846E+09     4.98094E+09    -488.290E+06     4.79674E+09     6.93210E+06     7.96515E+06    -180.577E+06     15.0810E+06
             420               1     4.89012E+09     4.46388E+09     4.46388E+09     135.233E+06    -840.575E+06     5.30445E+09    -1.25285E+09     4.66346E+09    -809.171E+06     4.43925E+09     128.455E+06     236.926E+06    -129.686E+06     251.919E+06
             421               1     6.00901E+09     5.32475E+09     5.32475E+09    -375.479E+06    -951.547E+06     6.27629E+09    -1.33257E+09     5.94640E+09    -890.667E+06     5.22994E+09    -341.549E+06     462.966E+06    -76.2420E+06     590.287E+06
             422               1     8.76043E+09     7.54137E+09     7.54137E+09    -779.594E+06    -1.60070E+09     9.14208E+09    -1.72036E+09     8.67322E+09    -1.53841E+09     7.47518E+09    -775.695E+06     744.231E+06     48.9054E+06     203.730E+06
             423               1     8.70828E+09     7.43565E+09     7.43565E+09    -849.365E+06    -1.64173E+09     9.07739E+09    -1.64819E+09     8.62662E+09    -1.58395E+09     7.36018E+09    -831.671E+06     721.151E+06    -33.2015E+06    -381.131E+06
             424               1     8.07541E+09     6.92126E+09     6.92126E+09    -984.611E+06    -1.31364E+09     8.23489E+09    -1.54100E+09     8.06031E+09    -1.21747E+09     6.83123E+09    -990.751E+06     849.579E+06     38.1014E+06    -106.968E+06
             425               1     4.96297E+09     4.68619E+09     4.68619E+09     139.025E+06    -607.911E+06     5.29410E+09    -1.40577E+09     4.83408E+09    -567.522E+06     4.68542E+09     99.4068E+06     40.1459E+06     167.974E+06    -47.4164E+06
             426               1     4.92550E+09     4.49971E+09     4.49971E+09     170.980E+06    -859.506E+06     5.35922E+09    -1.27040E+09     4.67364E+09    -829.873E+06     4.47075E+09     170.309E+06    -254.300E+06     120.169E+06     275.565E+06
             427               1     5.54922E+09     5.03821E+09     5.03821E+09    -164.510E+06    -802.397E+06     5.84060E+09    -1.35710E+09     5.46583E+09    -742.521E+06     4.97356E+09    -159.738E+06    -356.017E+06     121.737E+06     478.618E+06
             428               1     7.44513E+09     6.50964E+09     6.50964E+09    -771.465E+06    -1.08933E+09     7.59897E+09    -1.54962E+09     7.42984E+09    -947.250E+06     6.41675E+09    -820.655E+06    -718.804E+06     93.1677E+06     424.851E+06
             429               1     5.57185E+09     5.18127E+09     5.18127E+09    -163.918E+06    -592.481E+06     5.77375E+09    -1.47496E+09     5.53458E+09    -452.040E+06     5.15700E+09    -280.081E+06    -200.390E+06    -187.663E+06    -312.528E+06
             430               1     5.68617E+09     5.19470E+09     5.19470E+09    -224.109E+06    -725.605E+06     5.92031E+09    -1.41500E+09     5.63609E+09    -649.999E+06     5.14418E+09    -249.194E+06     328.434E+06    -135.892E+06     425.320E+06
             431               1     9.28891E+09     7.70913E+09     7.70913E+09    -605.326E+06    -2.31633E+09     10.0255E+09    -1.59583E+09     8.92398E+09    -2.27141E+09     7.62775E+09    -568.854E+06     664.808E+06     65.1869E+06     549.863E+06
             432               1     6.42701E+09     5.73729E+09     5.73729E+09    -507.747E+06    -857.417E+06     6.59470E+09    -1.45737E+09     6.40555E+09    -734.316E+06     5.65829E+09    -551.855E+06     508.959E+06     109.737E+06    -503.595E+06
             433               1     5.09577E+09     4.80304E+09     4.80304E+09     82.2572E+06    -599.162E+06     5.40220E+09    -1.42871E+09     4.99173E+09    -543.151E+06     4.79787E+09     31.4122E+06    -88.6589E+06    -182.741E+06    -135.724E+06
             434               1     5.52588E+09     5.06604E+09     5.06604E+09    -146.842E+06    -727.065E+06     5.79310E+09    -1.39738E+09     5.45672E+09    -660.386E+06     5.02029E+09    -167.773E+06     315.817E+06     140.481E+06    -392.685E+06
             435               1     8.75448E+09     7.56561E+09     7.56561E+09    -763.045E+06    -1.56017E+09     9.12578E+09    -1.74747E+09     8.67227E+09    -1.49724E+09     7.49734E+09    -757.706E+06    -749.114E+06    -46.5682E+06     226.047E+06
             436               1     6.30185E+09     5.39126E+09     5.39126E+09    -470.630E+06    -1.27358E+09     6.66485E+09    -1.21568E+09     6.18520E+09    -1.22700E+09     5.23954E+09    -365.485E+06    -534.501E+06     17.7600E+06    -789.103E+06
             437               1     6.49952E+09     5.77074E+09     5.77074E+09    -500.188E+06    -935.493E+06     6.70623E+09    -1.44502E+09     6.46660E+09    -782.456E+06     5.68363E+09    -566.120E+06    -520.928E+06    -147.188E+06    -549.670E+06
             438               1     6.66039E+09     5.90134E+09     5.90134E+09    -582.742E+06    -922.370E+06     6.82371E+09    -1.46541E+09     6.64086E+09    -778.658E+06     5.81862E+09    -643.738E+06     535.779E+06    -114.096E+06     519.100E+06
             439               1     7.54106E+09     5.97909E+09     5.97909E+09    -863.407E+06    -2.10615E+09     8.08524E+09    -1.00318E+09     7.30534E+09    -2.04927E+09     5.79071E+09    -731.900E+06     657.586E+06    -129.914E+06    -939.350E+06
             440               1     7.18658E+09     6.21149E+09     6.21149E+09    -793.164E+06    -1.14415E+09     7.35564E+09    -1.42472E+09     7.16725E+09    -1.06700E+09     6.10753E+09    -766.354E+06    -674.644E+06     19.5061E+06     539.439E+06
             441               1     6.12605E+09     5.37856E+09     5.37856E+09    -405.594E+06    -1.04001E+09     6.41857E+09    -1.31098E+09     6.05148E+09    -979.038E+06     5.27380E+09    -361.808E+06    -497.412E+06     67.1265E+06     619.995E+06
             442               1     7.59162E+09     6.48644E+09     6.48644E+09    -690.509E+06    -1.46109E+09     7.94752E+09    -1.44495E+09     7.50288E+09    -1.40367E+09     6.34736E+09    -608.854E+06    -669.471E+06    -60.9952E+06     758.820E+06
             443               1     7.25676E+09     6.38026E+09     6.38026E+09    -820.882E+06    -930.853E+06     7.31112E+09    -1.54284E+09     7.25488E+09    -780.022E+06     6.29735E+09    -888.805E+06    -702.693E+06    -16.8460E+06    -320.061E+06
             444               1     5.30104E+09     4.96475E+09     4.96475E+09    -46.2618E+06    -585.150E+06     5.54990E+09    -1.44444E+09     5.23888E+09    -513.853E+06     4.94986E+09    -102.668E+06     169.194E+06    -169.972E+06     226.452E+06
             445               1     8.89316E+09     7.67491E+09     7.67491E+09    -740.595E+06    -1.62919E+09     9.30410E+09    -1.76838E+09     8.79245E+09    -1.56702E+09     7.61287E+09    -740.721E+06     755.983E+06    -20.2741E+06    -39.4143E+06
             446               1     6.61281E+09     6.13701E+09     6.13701E+09    -153.922E+06    -756.428E+06     6.89344E+09    -1.74222E+09     6.55063E+09    -150.155E+06     6.13129E+09    -754.475E+06    -177.568E+06    -25.4203E+06    -70.4322E+06
             447               1     4.96364E+09     4.69977E+09     4.69977E+09     163.845E+06    -602.447E+06     5.30222E+09    -1.42039E+09     4.82786E+09    -561.298E+06     4.69673E+09     125.740E+06    -78.2100E+06     169.051E+06     95.2454E+06
             448               1     5.47421E+09     5.12625E+09     5.12625E+09    -122.842E+06    -548.248E+06     5.67450E+09    -1.48505E+09     5.43683E+09    -425.336E+06     5.11534E+09    -234.838E+06    -156.922E+06     185.458E+06     191.519E+06
             449               1     5.44634E+09     5.12150E+09     5.12150E+09    -102.222E+06    -523.037E+06     5.64454E+09    -1.49875E+09     5.40958E+09    -396.108E+06     5.11930E+09    -226.949E+06     80.8903E+06     191.539E+06    -76.4682E+06
             450               1     6.52678E+09     6.00787E+09     6.00787E+09    -274.931E+06    -738.197E+06     6.74607E+09    -1.66491E+09     6.48963E+09    -278.372E+06     5.98994E+09    -716.824E+06    -219.542E+06    -61.7451E+06    -264.873E+06
             451               1     7.60353E+09     6.52178E+09     6.52178E+09    -759.602E+06    -1.36741E+09     7.88919E+09    -1.46492E+09     7.54858E+09    -1.30506E+09     6.38227E+09    -682.440E+06     687.116E+06     37.1247E+06     752.044E+06
             452               1     6.77966E+09     5.82254E+09     5.82254E+09    -560.211E+06    -1.29428E+09     7.11682E+09    -1.32268E+09     6.68937E+09    -1.23461E+09     5.67872E+09    -476.058E+06    -594.615E+06     15.4421E+06     769.613E+06
             453               1     6.09685E+09     5.70549E+09     5.70549E+09    -194.070E+06    -571.155E+06     6.27664E+09    -1.64675E+09     6.07053E+09    -211.274E+06     5.70244E+09    -550.901E+06    -97.5904E+06    -80.5342E+06    -96.2350E+06
             454               1     5.15372E+09     4.77953E+09     4.77953E+09     14.4165E+06    -690.277E+06     5.46981E+09    -1.36789E+09     5.04362E+09    -636.872E+06     4.76074E+09    -20.1980E+06    -197.579E+06     165.855E+06      241.71E+06
             455               1     5.99885E+09     5.51195E+09     5.51195E+09    -302.406E+06    -655.776E+06     6.16773E+09    -1.51792E+09     5.97537E+09    -460.935E+06     5.47829E+09    -463.589E+06    -270.971E+06     160.494E+06     364.457E+06
             456               1     8.31178E+09     7.06744E+09     7.06744E+09    -890.028E+06    -1.55831E+09     8.62574E+09    -1.53970E+09     8.25101E+09    -1.49792E+09     6.97369E+09    -856.663E+06     717.761E+06     44.0113E+06     512.306E+06
             457               1     7.10673E+09     6.37838E+09     6.37838E+09    -509.797E+06    -928.394E+06     7.30678E+09    -1.64673E+09     7.07892E+09    -448.992E+06     6.31318E+09    -924.001E+06     653.431E+06    -13.7170E+06     140.706E+06
             458               1     7.05239E+09     6.18063E+09     6.18063E+09    -737.980E+06    -998.347E+06     7.17897E+09    -1.48143E+09     7.04157E+09    -896.313E+06     6.09212E+09    -751.504E+06     651.287E+06     54.6465E+06    -450.063E+06
             459               1     6.34332E+09     5.91288E+09     5.91288E+09    -187.952E+06    -647.883E+06     6.56076E+09    -1.69235E+09     6.30564E+09    -193.742E+06     5.90941E+09    -638.618E+06     85.5105E+06     54.5572E+06    -122.893E+06
             460               1     6.92317E+09     6.32356E+09     6.32356E+09    -349.465E+06    -825.229E+06     7.14879E+09    -1.71629E+09     6.88625E+09    -317.294E+06     6.29037E+09    -824.217E+06    -469.015E+06     19.7964E+06     21.7787E+06
             461               1     6.46164E+09     5.81896E+09     5.81896E+09    -499.895E+06    -776.587E+06     6.59555E+09    -1.51416E+09     6.44829E+09    -601.362E+06     5.74390E+09    -600.057E+06    -493.286E+06     100.814E+06     496.100E+06
             462               1     6.18252E+09     5.78579E+09     5.78579E+09    -148.618E+06    -618.087E+06     6.40387E+09    -1.67303E+09     6.14223E+09    -161.964E+06     5.78171E+09    -600.665E+06     69.2518E+06    -78.6089E+06     145.394E+06
             463               1     5.75048E+09     5.38199E+09     5.38199E+09    -192.139E+06    -529.959E+06     5.91194E+09    -1.55330E+09     5.72809E+09    -324.099E+06     5.37618E+09    -392.198E+06     115.990E+06    -162.481E+06     144.252E+06
             464               1     5.81602E+09     5.40498E+09     5.40498E+09    -233.878E+06    -573.330E+06     5.97831E+09    -1.53259E+09     5.79366E+09    -390.627E+06     5.38687E+09    -398.474E+06     185.850E+06     161.152E+06    -270.571E+06
             465               1     5.19727E+09     4.89173E+09     4.89173E+09     36.8509E+06    -590.914E+06     5.48264E+09    -1.44589E+09     5.11093E+09    -495.913E+06     4.89158E+09    -57.9985E+06    -17.0657E+06     224.852E+06     22.6667E+06
             466               1     6.77896E+09     6.15831E+09     6.15831E+09    -366.837E+06    -848.736E+06     7.00705E+09    -1.64758E+09     6.74026E+09    -353.341E+06     6.11788E+09    -821.803E+06    -434.911E+06     66.4069E+06     286.270E+06
             467               1     7.12510E+09     6.26661E+09     6.26661E+09    -747.802E+06    -964.251E+06     7.23086E+09    -1.51819E+09     7.11770E+09    -822.903E+06     6.17869E+09    -801.230E+06     661.083E+06    -64.0935E+06     436.901E+06
             468               1     7.65006E+09     6.58235E+09     6.58235E+09    -875.687E+06    -1.24626E+09     7.82862E+09    -1.48680E+09     7.62983E+09    -1.14836E+09     6.47674E+09    -867.974E+06     789.944E+06     33.3965E+06    -434.082E+06
             469               1     7.68992E+09     6.68171E+09     6.68171E+09    -858.840E+06    -1.14936E+09     7.83107E+09    -1.55784E+09     7.67756E+09    -1.05635E+09     6.58286E+09    -853.008E+06     795.309E+06    -18.8532E+06     360.918E+06
             470               1     6.12166E+09     5.64490E+09     5.64490E+09    -286.270E+06    -650.944E+06     6.29585E+09    -1.56923E+09     6.09715E+09    -351.024E+06     5.61594E+09    -557.223E+06    -285.610E+06    -135.127E+06    -315.020E+06
             471               1     5.77549E+09     5.11868E+09     5.11868E+09    -320.145E+06    -942.992E+06     6.06167E+09    -1.28518E+09     5.69920E+09    -897.073E+06     5.04107E+09    -288.451E+06    -419.636E+06    -64.1437E+06    -515.699E+06
             472               1     6.54024E+09     6.06028E+09     6.06028E+09    -211.370E+06    -718.979E+06     6.77925E+09    -1.70998E+09     6.49570E+09    -215.603E+06     6.05312E+09    -707.590E+06    -145.032E+06     57.8887E+06     161.770E+06
             473               1     6.82705E+09     6.24183E+09     6.24183E+09    -300.258E+06    -838.334E+06     7.08017E+09    -1.70108E+09     6.77910E+09    -279.829E+06     6.20841E+09    -825.346E+06    -421.497E+06    -46.7145E+06    -211.933E+06
             474               1     6.02285E+09     5.56048E+09     5.56048E+09    -254.215E+06    -650.904E+06     6.21139E+09    -1.55179E+09     5.99335E+09    -387.791E+06     5.53375E+09    -490.590E+06     245.496E+06    -177.691E+06     324.184E+06
             475               1     6.84134E+09     6.27554E+09     6.27554E+09    -296.537E+06    -806.534E+06     7.08207E+09    -1.72416E+09     6.79838E+09    -293.214E+06     6.27184E+09    -806.163E+06    -155.567E+06    -13.3834E+06    -8.47965E+06
             476               1     6.10969E+09     5.73121E+09     5.73121E+09    -147.869E+06    -585.556E+06     6.31677E+09    -1.66593E+09     6.07427E+09    -181.757E+06     5.73003E+09    -550.490E+06     68.4901E+06     117.650E+06    -50.4890E+06
             477               1     6.86390E+09     6.23664E+09     6.23664E+09    -373.132E+06    -855.906E+06     7.09255E+09    -1.66920E+09     6.82555E+09    -374.240E+06     6.20191E+09    -820.073E+06     400.971E+06    -91.4024E+06     276.490E+06
             478               1     7.12461E+09     6.36998E+09     6.36998E+09    -573.167E+06    -923.189E+06     7.29317E+09    -1.62454E+09     7.10523E+09    -494.667E+06     6.28812E+09    -919.822E+06     734.344E+06    -22.1371E+06    -152.978E+06
             479               1     6.61541E+09     6.12800E+09     6.12800E+09    -144.721E+06    -783.726E+06     6.91173E+09    -1.73319E+09     6.54544E+09    -142.242E+06     6.12507E+09    -783.276E+06     133.970E+06    -16.1046E+06    -21.1051E+06
             480               1     6.62960E+09     6.13719E+09     6.13719E+09    -175.492E+06    -769.370E+06     6.90656E+09    -1.73078E+09     6.56936E+09    -171.622E+06     6.13319E+09    -769.236E+06    -156.450E+06     1.63901E+06     29.4247E+06
             481               1     6.31909E+09     5.90036E+09     5.90036E+09    -169.300E+06    -641.651E+06     6.54201E+09    -1.69647E+09     6.27919E+09    -177.526E+06     5.89906E+09    -632.118E+06    -74.5407E+06     64.4457E+06     51.3923E+06
             482               1     6.48140E+09     6.01238E+09     6.01238E+09    -202.139E+06    -706.455E+06     6.71883E+09    -1.70126E+09     6.43704E+09    -203.662E+06     6.00792E+09    -700.474E+06     132.160E+06    -44.3056E+06     106.148E+06
             483               1     6.75171E+09     6.17387E+09     6.17387E+09    -333.086E+06    -798.512E+06     6.97238E+09    -1.68076E+09     6.71547E+09    -326.956E+06     6.15423E+09    -785.004E+06     282.786E+06     43.4572E+06    -227.834E+06
             484               1     6.78716E+09     6.24113E+09     6.24113E+09    -255.837E+06    -803.076E+06     7.04421E+09    -1.72741E+09     6.73725E+09    -247.515E+06     6.23226E+09    -802.521E+06     232.489E+06     4.38017E+06     61.9278E+06
             485               1     6.32522E+09     5.90327E+09     5.90327E+09    -152.532E+06    -660.700E+06     6.56397E+09    -1.69668E+09     6.27905E+09    -164.943E+06     5.90291E+09    -647.920E+06    -5.10749E+06    -78.4152E+06    -48.9039E+06
             486               1     6.59468E+09     6.12788E+09     6.12788E+09    -122.571E+06    -764.124E+06     6.89201E+09    -1.74706E+09     6.52391E+09    -121.947E+06     6.12714E+09    -764.011E+06    -63.1286E+06     3.17992E+06    -26.2580E+06
             487               1     6.55059E+09     6.08388E+09     6.08388E+09    -176.838E+06    -722.460E+06     6.80634E+09    -1.72819E+09     6.49917E+09    -173.471E+06     6.07782E+09    -719.766E+06     179.491E+06     28.8624E+06    -79.6101E+06
             488               1     6.61058E+09     6.15510E+09     6.15510E+09    -130.360E+06    -738.558E+06     6.89366E+09    -1.76206E+09     6.54719E+09    -131.641E+06     6.15427E+09    -736.442E+06     56.8603E+06    -32.5764E+06     47.2553E+06
             489               1     6.95946E+09     6.34511E+09     6.34511E+09    -379.200E+06    -827.790E+06     7.17290E+09    -1.71271E+09     6.92682E+09    -360.305E+06     6.32609E+09    -827.667E+06     356.047E+06     772.439E+03    -28.2648E+06
             490               1     6.60124E+09     6.16233E+09     6.16233E+09    -119.524E+06    -717.610E+06     6.87994E+09    -1.77506E+09     6.53987E+09    -119.571E+06     6.16197E+09    -717.208E+06    -39.3094E+06     13.0724E+06     27.4383E+06
             491               1     6.67855E+09     5.80502E+09     5.80502E+09    -523.809E+06    -1.17548E+09     6.98050E+09    -1.36858E+09     6.60645E+09    -1.11731E+09     5.65657E+09    -433.524E+06     587.722E+06    -2.96452E+06     784.371E+06
             492               1     7.29870E+09     6.24004E+09     6.24004E+09    -660.018E+06    -1.40081E+09     7.64085E+09    -1.39307E+09     7.21340E+09    -1.33945E+09     6.10829E+09    -589.630E+06     657.515E+06    -9.42465E+06    -713.486E+06
             493               1     6.01219E+09     5.34446E+09     5.34446E+09    -346.556E+06    -944.251E+06     6.28871E+09    -1.35122E+09     5.94480E+09    -877.846E+06     5.25828E+09    -326.781E+06     447.326E+06     98.6914E+06    -560.525E+06
             494               1     8.26771E+09     7.05176E+09     7.05176E+09    -860.455E+06    -1.53065E+09     8.58241E+09    -1.55355E+09     8.20627E+09    -1.46956E+09     6.95154E+09    -821.323E+06    -719.201E+06    -38.4851E+06     554.547E+06
             495               1     8.66847E+09     7.45263E+09     7.45263E+09    -754.315E+06    -1.61340E+09     9.06603E+09    -1.69497E+09     8.57191E+09    -1.55796E+09     7.38347E+09    -740.603E+06    -705.828E+06     34.0488E+06    -334.403E+06
             496               1     7.97808E+09     6.87097E+09     6.87097E+09    -981.856E+06    -1.22672E+09     8.09769E+09    -1.55413E+09     7.96961E+09    -1.12837E+09     6.78026E+09    -989.489E+06     837.785E+06    -33.6700E+06     156.369E+06
             497               1     8.00452E+09     6.86495E+09     6.86495E+09    -912.777E+06    -1.34857E+09     8.21352E+09    -1.53453E+09     7.97777E+09    -1.25892E+09     6.76465E+09    -902.135E+06     848.513E+06    -11.4307E+06    -299.884E+06
             498               1     6.91540E+09     6.22090E+09     6.22090E+09    -447.586E+06    -917.440E+06     7.13834E+09    -1.61863E+09     6.87935E+09    -476.045E+06     6.15014E+09    -818.219E+06     576.884E+06     141.706E+06    -397.217E+06
             499               1     5.75832E+09     5.41995E+09     5.41995E+09    -149.131E+06    -510.570E+06     5.93052E+09    -1.58675E+09     5.73271E+09    -241.730E+06     5.41898E+09    -416.997E+06    -49.7133E+06     157.532E+06     57.3729E+06
             500               1     6.19283E+09     5.76387E+09     5.76387E+09    -220.885E+06    -617.938E+06     6.38181E+09    -1.64168E+09     6.16410E+09    -249.543E+06     5.75058E+09    -575.992E+06    -176.208E+06     104.221E+06     229.986E+06
             501               1     4.80927E+09     4.48038E+09     4.48038E+09     286.997E+06    -769.206E+06     5.24958E+09    -1.33272E+09     4.53717E+09    -761.538E+06     4.47843E+09     281.280E+06     54.7696E+06    -85.4942E+06     76.9789E+06
             502               1     5.01155E+09     4.52526E+09     4.52526E+09     156.028E+06    -945.380E+06     5.47064E+09    -1.24530E+09     4.72759E+09    -932.277E+06     4.49668E+09     171.506E+06    -206.459E+06    -64.6376E+06    -303.132E+06
             503               1     5.31345E+09     4.64790E+09     4.64790E+09    -37.6467E+06    -1.12518E+09     5.77308E+09    -1.16169E+09     5.05386E+09    -1.10826E+09     4.57928E+09     14.0538E+06     284.916E+06    -29.0842E+06     504.052E+06
             504               1     5.72662E+09     4.70474E+09     4.70474E+09    -338.270E+06    -1.52084E+09     6.22558E+09    -948.543E+06     5.44163E+09    -1.50243E+09     4.63409E+09    -286.038E+06    -336.649E+06     29.1843E+06    -509.736E+06
             505               1     8.71412E+09     7.52408E+09     7.52408E+09    -410.843E+06    -1.80189E+09     9.32597E+09    -1.77045E+09     8.45890E+09    -1.78351E+09     7.40650E+09    -311.648E+06     385.299E+06     93.4796E+06     888.433E+06
             506               1     9.74706E+09     8.54119E+09     8.54119E+09    -472.701E+06    -1.80250E+09     10.3437E+09    -2.08866E+09     9.53977E+09    -1.79078E+09     8.52948E+09    -472.710E+06     347.661E+06    -4.99341E+06    -8.47762E+06
             507               1     9.46622E+09     8.26716E+09     8.26716E+09    -451.445E+06    -1.80168E+09     10.0688E+09    -2.00468E+09     9.24584E+09    -1.78866E+09     8.22487E+09    -422.172E+06     350.742E+06    -49.6380E+06    -509.310E+06
             508               1     6.73180E+09     5.55017E+09     5.55017E+09    -561.125E+06    -1.66555E+09     7.21572E+09    -1.10783E+09     6.52329E+09    -1.64270E+09     5.41028E+09    -444.094E+06     399.547E+06    -65.3088E+06    -836.249E+06
             509               1     5.85696E+09     4.92747E+09     4.92747E+09    -281.466E+06    -1.41253E+09     6.34000E+09    -1.07782E+09     5.60328E+09    -1.39210E+09     4.82056E+09    -194.995E+06     353.886E+06    -18.1014E+06    -666.891E+06
             510               1     5.29266E+09     4.63201E+09     4.63201E+09    -2.23588E+06    -1.13550E+09     5.76751E+09    -1.16476E+09     5.00865E+09    -1.11866E+09     4.57400E+09     38.9289E+06     284.471E+06     32.6566E+06    -450.819E+06
             511               1     4.79173E+09     4.44911E+09     4.44911E+09     309.073E+06    -799.867E+06     5.24898E+09    -1.31944E+09     4.48919E+09    -793.497E+06     4.44685E+09     304.964E+06    -69.9247E+06     76.4711E+06     75.2231E+06
             512               1     5.33934E+09     4.61387E+09     4.61387E+09    -85.9400E+06    -1.19181E+09     5.80568E+09    -1.11204E+09     5.07198E+09    -1.17399E+09     4.55947E+09    -49.3543E+06    -291.144E+06     36.5123E+06     432.373E+06
             513               1     5.83767E+09     4.86659E+09     4.86659E+09    -305.849E+06    -1.46300E+09     6.32959E+09    -1.03258E+09     5.57081E+09    -1.44223E+09     4.76624E+09    -226.274E+06    -356.006E+06    -14.1018E+06     638.538E+06
             514               1     5.19401E+09     4.75413E+09     4.75413E+09    -3.52431E+06    -787.182E+06     5.54131E+09    -1.32114E+09     5.05844E+09    -760.568E+06     4.73988E+09    -15.8837E+06     141.494E+06     126.506E+06    -228.292E+06
             515               1     8.78957E+09     7.56562E+09     7.56562E+09    -478.475E+06    -1.81608E+09     9.38170E+09    -1.75702E+09     8.55608E+09    -1.79837E+09     7.46244E+09    -393.002E+06    -378.514E+06    -89.2839E+06     832.667E+06
             516               1     9.51684E+09     8.30304E+09     8.30304E+09    -470.385E+06    -1.81434E+09     10.1174E+09    -2.00610E+09     9.29975E+09    -1.80176E+09     8.26579E+09    -445.718E+06    -340.899E+06    -53.6150E+06     472.793E+06
             517               1     9.81083E+09     8.61806E+09     8.61806E+09    -450.042E+06    -1.79642E+09     10.4145E+09    -2.12387E+09     9.59968E+09    -1.78706E+09     8.60866E+09    -449.998E+06    -311.543E+06     5.81693E+06     26.3945E+06
             518               1     7.97815E+09     6.94245E+09     6.94245E+09    -949.664E+06    -1.11904E+09     8.06149E+09    -1.62458E+09     7.97410E+09    -1.08862E+09     6.91404E+09    -951.668E+06    -466.508E+06     17.5214E+06     102.858E+06
             519               1     8.71776E+09     7.43802E+09     7.43802E+09    -598.159E+06    -1.83024E+09     9.26825E+09    -1.66987E+09     8.51857E+09    -1.81230E+09     7.33746E+09    -515.543E+06    -372.956E+06     91.9862E+06    -820.965E+06
             520               1     5.36510E+09     4.60161E+09     4.60161E+09    -143.037E+06    -1.22043E+09     5.82204E+09    -1.07938E+09     5.11314E+09    -1.20270E+09     4.53497E+09    -94.1142E+06    -301.717E+06    -19.7687E+06    -490.212E+06
             521               1     6.57073E+09     5.88211E+09     5.88211E+09    -594.797E+06    -778.579E+06     6.66069E+09    -1.50291E+09     6.56494E+09    -696.822E+06     5.85327E+09    -647.709E+06     274.273E+06    -75.2879E+06     340.302E+06
             522               1     6.75597E+09     5.72962E+09     5.72962E+09    -658.229E+06    -1.34242E+09     7.07203E+09    -1.24299E+09     6.67736E+09    -1.30428E+09     5.60138E+09    -568.128E+06     451.267E+06     26.1218E+06    -792.418E+06
             523               1     6.40995E+09     5.76758E+09     5.76758E+09    -550.970E+06    -730.018E+06     6.49760E+09    -1.49553E+09     6.40432E+09    -655.372E+06     5.74451E+09    -602.551E+06     251.303E+06     74.6986E+06    -293.234E+06
             524               1     8.13848E+09     6.84981E+09     6.84981E+09    -905.092E+06    -1.62448E+09     8.47429E+09    -1.44008E+09     8.06648E+09    -1.58513E+09     6.74875E+09    -843.388E+06     556.470E+06    -5.38876E+06    -703.203E+06
             525               1     6.39519E+09     5.83738E+09     5.83738E+09    -352.134E+06    -745.337E+06     6.58272E+09    -1.57997E+09     6.36791E+09    -354.171E+06     5.83724E+09    -743.155E+06     28.0527E+06     29.1384E+06     10.7429E+06
             526               1     8.02506E+09     7.08147E+09     7.08147E+09    -817.409E+06    -1.06408E+09     8.14555E+09    -1.73333E+09     8.01652E+09    -1.03608E+09     7.05065E+09    -814.589E+06    -468.031E+06    -5.64567E+06    -174.274E+06
             527               1     4.81195E+09     4.46892E+09     4.46892E+09     304.196E+06    -798.741E+06     5.26766E+09    -1.32479E+09     4.51422E+09    -790.639E+06     4.46569E+09     299.326E+06    -77.9667E+06    -85.8781E+06    -94.2979E+06
             528               1     6.02709E+09     5.07437E+09     5.07437E+09    -369.155E+06    -1.40263E+09     6.47700E+09    -1.10086E+09     5.82271E+09    -1.38154E+09     4.97416E+09    -290.032E+06     362.478E+06     14.7968E+06     653.667E+06
             529               1     5.68873E+09     5.24628E+09     5.24628E+09    -300.394E+06    -574.583E+06     5.82087E+09    -1.45710E+09     5.67384E+09    -515.541E+06     5.24572E+09    -358.874E+06    -41.7438E+06    -112.220E+06    -39.0052E+06
             530               1     6.67800E+09     5.42029E+09     5.42029E+09    -690.557E+06    -1.70808E+09     7.12837E+09    -1.00722E+09     6.50016E+09    -1.68556E+09     5.31023E+09    -603.019E+06     394.173E+06     60.5850E+06     725.452E+06
             531               1     7.45253E+09     6.13081E+09     6.13081E+09    -640.599E+06    -1.85395E+09     7.98475E+09    -1.21209E+09     7.22528E+09    -1.83144E+09     5.99256E+09    -524.853E+06     399.878E+06     96.0605E+06     881.931E+06
             532               1     8.60463E+09     7.30135E+09     7.30135E+09    -600.926E+06    -1.86564E+09     9.16699E+09    -1.61160E+09     8.39169E+09    -1.84690E+09     7.20412E+09    -522.434E+06     379.094E+06    -93.8867E+06    -794.673E+06
             533               1     4.96959E+09     4.52835E+09     4.52835E+09     205.655E+06    -901.418E+06     5.42977E+09    -1.27753E+09     4.67993E+09    -890.685E+06     4.50939E+09     213.878E+06     178.796E+06     65.0910E+06    -239.472E+06
             534               1     4.80268E+09     4.48294E+09     4.48294E+09     331.537E+06    -777.122E+06     5.26006E+09    -1.34579E+09     4.50106E+09    -770.870E+06     4.48071E+09     327.519E+06     57.9410E+06     77.7912E+06    -82.2612E+06
             535               1     6.61037E+09     5.41728E+09     5.41728E+09    -518.167E+06    -1.70675E+09     7.12403E+09    -1.06412E+09     6.36326E+09    -1.68433E+09     5.27999E+09    -403.294E+06    -392.492E+06    -66.9958E+06     816.532E+06
             536               1     7.67770E+09     6.34558E+09     6.34558E+09    -674.036E+06    -1.85366E+09     8.19924E+09    -1.27263E+09     7.46973E+09    -1.83143E+09     6.19570E+09    -546.387E+06    -398.746E+06    -101.189E+06     943.118E+06
             537               1     9.45393E+09     8.21395E+09     8.21395E+09    -501.218E+06    -1.83671E+09     10.0507E+09    -1.95868E+09     9.23813E+09    -1.82515E+09     8.17296E+09    -471.785E+06    -326.816E+06     51.2188E+06    -511.789E+06
             538               1     8.78287E+09     7.41689E+09     7.41689E+09    -922.782E+06    -1.75056E+09     9.16745E+09    -1.58119E+09     8.69446E+09    -1.70734E+09     7.37355E+09    -922.650E+06    -625.977E+06    -10.8141E+06    -58.3316E+06
             539               1     7.65402E+09     6.40190E+09     6.40190E+09    -567.462E+06    -1.78970E+09     8.19159E+09    -1.34825E+09     7.42970E+09    -1.76830E+09     6.21404E+09    -401.002E+06    -397.410E+06     98.5192E+06    -1.06586E+09
             540               1     7.93134E+09     6.74117E+09     6.74117E+09    -818.025E+06    -1.51617E+09     8.25734E+09    -1.46899E+09     7.86177E+09    -1.47632E+09     6.63931E+09    -756.030E+06    -557.794E+06     12.7240E+06    -691.767E+06
             541               1     6.37792E+09     5.17424E+09     5.17424E+09    -465.061E+06    -1.74742E+09     6.92167E+09    -987.254E+06     6.07763E+09    -1.72413E+09     5.03669E+09    -350.803E+06    -383.499E+06     90.8450E+06    -796.221E+06
             542               1     7.15319E+09     6.04859E+09     6.04859E+09    -768.638E+06    -1.39885E+09     7.44745E+09    -1.29370E+09     7.09033E+09    -1.36367E+09     5.93152E+09    -686.746E+06    -490.054E+06     11.2224E+06    -754.464E+06
             543               1     5.42674E+09     4.88699E+09     4.88699E+09    -126.392E+06    -875.311E+06     5.76230E+09    -1.29510E+09     5.30861E+09    -845.198E+06     4.85297E+09    -122.489E+06    -213.269E+06    -113.568E+06    -365.605E+06
             544               1     5.14136E+09     4.75441E+09     4.75441E+09     15.6807E+06    -712.031E+06     5.46644E+09    -1.35269E+09     5.02353E+09    -683.347E+06     4.75421E+09    -12.7948E+06     29.1919E+06    -141.144E+06     16.4398E+06
             545               1     4.94770E+09     4.50286E+09     4.50286E+09     191.587E+06    -899.231E+06     5.40209E+09    -1.26507E+09     4.66551E+09    -887.589E+06     4.48296E+09     199.842E+06     178.222E+06    -70.8137E+06     247.798E+06
             546               1     6.12679E+09     5.31593E+09     5.31593E+09    -451.377E+06    -1.11614E+09     6.43207E+09    -1.24947E+09     6.04486E+09    -1.07652E+09     5.22414E+09    -399.202E+06     370.759E+06    -70.9089E+06     637.884E+06
             547               1     8.63074E+09     7.34219E+09     7.34219E+09    -894.040E+06    -1.63524E+09     8.97743E+09    -1.60430E+09     8.55869E+09    -1.59609E+09     7.29469E+09    -885.692E+06     589.058E+06     2.84091E+06     267.024E+06
             548               1     8.57961E+09     7.23487E+09     7.23487E+09    -947.695E+06    -1.69314E+09     8.92801E+09    -1.53135E+09     8.50629E+09    -1.65368E+09     7.17533E+09    -927.608E+06     591.296E+06    -22.3806E+06    -404.620E+06
             549               1     8.06638E+09     7.03671E+09     7.03671E+09    -919.753E+06    -1.13527E+09     8.17198E+09    -1.66056E+09     8.05990E+09    -1.10407E+09     7.00620E+09    -920.457E+06     486.553E+06    -27.5931E+06    -104.830E+06
             550               1     5.00999E+09     4.63172E+09     4.63172E+09     101.719E+06    -749.247E+06     5.38097E+09    -1.32806E+09     4.84337E+09    -724.230E+06     4.63104E+09     77.3805E+06     38.0632E+06     142.687E+06    -44.1223E+06
             551               1     4.98424E+09     4.53440E+09     4.53440E+09     228.932E+06    -925.877E+06     5.46027E+09    -1.27915E+09     4.66878E+09    -914.295E+06     4.51109E+09     240.656E+06    -192.966E+06     64.3680E+06     268.202E+06
             552               1     5.65436E+09     5.02605E+09     5.02605E+09    -230.035E+06    -956.391E+06     5.98244E+09    -1.27987E+09     5.54794E+09    -924.392E+06     4.96275E+09    -198.734E+06    -281.469E+06     90.6877E+06     515.268E+06
             553               1     7.58567E+09     6.66117E+09     6.66117E+09    -818.914E+06    -1.02584E+09     7.68701E+09    -1.60547E+09     7.57931E+09    -998.392E+06     6.61209E+09    -797.273E+06    -457.849E+06    -23.5765E+06     401.070E+06
             554               1     5.65312E+09     5.16754E+09     5.16754E+09    -243.202E+06    -700.223E+06     5.86776E+09    -1.40804E+09     5.61133E+09    -664.213E+06     5.14616E+09    -257.835E+06    -163.056E+06    -107.328E+06    -305.009E+06
             555               1     5.80578E+09     5.19090E+09     5.19090E+09    -301.998E+06    -883.933E+06     6.07483E+09    -1.33499E+09     5.73962E+09    -843.701E+06     5.14471E+09    -296.039E+06     269.202E+06    -105.709E+06     437.718E+06
             556               1     9.50669E+09     8.33558E+09     8.33558E+09    -409.598E+06    -1.78319E+09     10.1188E+09    -2.04759E+09     9.27949E+09    -1.76932E+09     8.29521E+09    -383.102E+06     361.409E+06     52.9250E+06     487.246E+06
             557               1     6.54996E+09     5.79872E+09     5.79872E+09    -578.247E+06    -911.519E+06     6.71024E+09    -1.43632E+09     6.53085E+09    -878.248E+06     5.73738E+09    -550.183E+06     350.956E+06     41.0416E+06    -523.969E+06
             558               1     5.11288E+09     4.71299E+09     4.71299E+09     12.1644E+06    -730.677E+06     5.44366E+09    -1.33149E+09     4.98930E+09    -700.880E+06     4.70763E+09    -12.2769E+06    -99.4934E+06    -139.047E+06    -131.611E+06
             559               1     5.61334E+09     5.03071E+09     5.03071E+09    -226.475E+06    -881.333E+06     5.91205E+09    -1.30763E+09     5.52642E+09    -849.098E+06     4.98712E+09    -215.120E+06     238.720E+06     102.304E+06    -425.773E+06
             560               1     8.60150E+09     7.34330E+09     7.34330E+09    -871.852E+06    -1.59844E+09     8.94174E+09    -1.62434E+09     8.53204E+09    -1.55834E+09     7.29217E+09    -860.815E+06    -594.850E+06    -5.74512E+06     305.208E+06
             561               1     6.41236E+09     5.39275E+09     5.39275E+09    -527.920E+06    -1.41825E+09     6.81100E+09    -1.14886E+09     6.27103E+09    -1.38529E+09     5.23872E+09    -406.857E+06    -417.650E+06    -23.7492E+06    -864.028E+06
             562               1     6.59643E+09     5.84005E+09     5.84005E+09    -598.999E+06    -903.229E+06     6.74328E+09    -1.44594E+09     6.58062E+09    -876.946E+06     5.77895E+09    -564.182E+06    -353.356E+06    -19.9460E+06    -522.826E+06
             563               1     6.78600E+09     6.00087E+09     6.00087E+09    -668.063E+06    -896.436E+06     6.89730E+09    -1.47879E+09     6.77735E+09    -862.549E+06     5.93706E+09    -638.138E+06     365.696E+06    -26.3753E+06     543.882E+06
             564               1     7.66615E+09     6.33809E+09     6.33809E+09    -682.940E+06    -1.84133E+09     8.17942E+09    -1.27127E+09     7.46543E+09    -1.81961E+09     6.20348E+09    -570.060E+06     400.034E+06    -90.4635E+06    -886.763E+06
             565               1     7.21857E+09     6.27855E+09     6.27855E+09    -750.457E+06    -1.11572E+09     7.39427E+09    -1.47079E+09     7.19774E+09    -1.07543E+09     6.19933E+09    -711.521E+06    -427.399E+06     37.2546E+06     618.697E+06
             566               1     6.25723E+09     5.39198E+09     5.39198E+09    -517.873E+06    -1.16270E+09     6.55468E+09    -1.23713E+09     6.18182E+09    -1.12956E+09     5.29107E+09    -450.109E+06    -378.791E+06     43.6123E+06     681.473E+06
             567               1     7.63762E+09     6.45475E+09     6.45475E+09    -783.349E+06    -1.52785E+09     7.98261E+09    -1.38118E+09     7.55533E+09    -1.49100E+09     6.32117E+09    -686.620E+06    -514.014E+06    -6.44636E+06     846.061E+06
             568               1     7.53904E+09     6.56153E+09     6.56153E+09    -873.700E+06    -1.07719E+09     7.63873E+09    -1.53688E+09     7.53286E+09    -1.04287E+09     6.52057E+09    -867.058E+06    -430.589E+06    -23.8770E+06    -352.323E+06
             569               1     5.35624E+09     4.89511E+09     4.89511E+09    -110.666E+06    -753.563E+06     5.64868E+09    -1.34363E+09     5.26839E+09    -719.040E+06     4.88080E+09    -130.880E+06     135.643E+06    -132.631E+06     238.612E+06
             570               1     8.73394E+09     7.44244E+09     7.44244E+09    -861.426E+06    -1.66592E+09     9.10836E+09    -1.63836E+09     8.64999E+09    -1.62698E+09     7.40351E+09    -861.443E+06     592.719E+06     10.1790E+06    -40.0990E+06
             571               1     6.66060E+09     6.03815E+09     6.03815E+09    -419.199E+06    -808.609E+06     6.84676E+09    -1.60345E+09     6.63492E+09    -423.067E+06     6.03523E+09    -801.817E+06    -108.406E+06    -45.2539E+06    -87.7102E+06
             572               1     5.03017E+09     4.65156E+09     4.65156E+09     118.303E+06    -759.878E+06     5.41144E+09    -1.33666E+09     4.85319E+09    -736.327E+06     4.64873E+09      97.579E+06    -66.8295E+06     138.252E+06     97.0837E+06
             573               1     5.54323E+09     5.09269E+09     5.09269E+09    -182.503E+06    -684.434E+06     5.77712E+09    -1.40858E+09     5.49175E+09    -649.543E+06     5.08351E+09    -208.209E+06    -98.0713E+06     121.424E+06     201.541E+06
             574               1     5.47677E+09     5.06262E+09     5.06262E+09    -167.338E+06    -631.432E+06     5.69405E+09    -1.42128E+09     5.43227E+09    -596.055E+06     5.06095E+09    -201.042E+06     48.1610E+06     121.811E+06    -82.5269E+06
             575               1     6.57405E+09     5.92649E+09     5.92649E+09    -490.432E+06    -794.159E+06     6.72065E+09    -1.54730E+09     6.55824E+09    -494.152E+06     5.90685E+09    -770.793E+06    -261.656E+06    -54.5428E+06    -247.487E+06
             576               1     7.66708E+09     6.50067E+09     6.50067E+09    -856.012E+06    -1.44305E+09     7.94372E+09    -1.40054E+09     7.61627E+09    -1.40626E+09     6.36661E+09    -758.740E+06     505.922E+06     6.97083E+06     858.741E+06
             577               1     6.90074E+09     5.81783E+09     5.81783E+09    -706.705E+06    -1.40588E+09     7.22372E+09    -1.23508E+09     6.82037E+09    -1.37295E+09     5.67731E+09    -599.111E+06    -454.662E+06    -2.91675E+06     846.743E+06
             578               1     6.08711E+09     5.56955E+09     5.56955E+09    -389.277E+06    -638.214E+06     6.20776E+09    -1.51402E+09     6.07564E+09    -463.436E+06     5.56625E+09    -560.758E+06    -92.6208E+06    -112.825E+06    -108.910E+06
             579               1     5.21728E+09     4.74560E+09     4.74560E+09    -38.7204E+06    -817.159E+06     5.56276E+09    -1.29657E+09     5.08416E+09    -789.478E+06     4.72686E+09    -47.6657E+06    -170.807E+06     122.375E+06     257.752E+06
             580               1     6.04530E+09     5.46740E+09     5.46740E+09    -435.646E+06    -710.763E+06     6.17816E+09    -1.44033E+09     6.03119E+09    -663.872E+06     5.43905E+09    -454.185E+06    -243.351E+06     80.9255E+06     335.885E+06
             581               1     8.24548E+09     6.96232E+09     6.96232E+09    -970.931E+06    -1.56344E+09     8.52575E+09    -1.47598E+09     8.19738E+09    -1.52523E+09     6.88289E+09    -929.710E+06     562.592E+06     17.4045E+06     575.531E+06
             582               1     7.63571E+09     6.63226E+09     6.63226E+09    -953.652E+06    -1.05230E+09     7.68456E+09    -1.54210E+09     7.63428E+09    -1.02021E+09     6.60526E+09    -958.747E+06     440.693E+06    -18.4309E+06     111.976E+06
             583               1     7.15256E+09     6.25029E+09     6.25029E+09    -723.625E+06    -1.06843E+09     7.31873E+09    -1.48608E+09     7.13382E+09    -1.02552E+09     6.19110E+09    -707.350E+06     413.844E+06     50.8770E+06    -500.936E+06
             584               1     6.29048E+09     5.74425E+09     5.74425E+09    -378.919E+06    -701.158E+06     6.44541E+09    -1.55472E+09     6.27187E+09    -403.147E+06     5.73900E+09    -671.681E+06     134.126E+06     86.8508E+06    -123.931E+06
             585               1     7.30659E+09     6.44218E+09     6.44218E+09    -807.294E+06    -920.214E+06     7.36240E+09    -1.57156E+09     7.30463E+09    -784.363E+06     6.41790E+09    -918.857E+06    -418.806E+06     11.5847E+06     11.5265E+06
             586               1     6.67641E+09     5.91185E+09     5.91185E+09    -602.278E+06    -915.798E+06     6.82765E+09    -1.46459E+09     6.65982E+09    -875.961E+06     5.85652E+09    -586.778E+06    -343.843E+06     55.5224E+06     499.201E+06
             587               1     6.22305E+09     5.67971E+09     5.67971E+09    -412.379E+06    -666.515E+06     6.34623E+09    -1.53361E+09     6.21136E+09    -476.145E+06     5.67536E+09    -598.395E+06     117.025E+06    -109.229E+06     117.669E+06
             588               1     5.79716E+09     5.33375E+09     5.33375E+09    -318.970E+06    -597.794E+06     5.93154E+09    -1.47233E+09     5.78204E+09    -534.715E+06     5.32920E+09    -377.500E+06     82.4833E+06    -113.956E+06     140.713E+06
             589               1     5.85241E+09     5.35709E+09     5.35709E+09    -339.200E+06    -639.853E+06     5.99694E+09    -1.45934E+09     5.83500E+09    -588.036E+06     5.34243E+09    -376.363E+06     169.534E+06     102.437E+06    -240.157E+06
             590               1     5.18422E+09     4.82288E+09     4.82288E+09    -36.3228E+06    -634.467E+06     5.45735E+09    -1.38403E+09     5.10572E+09    -612.296E+06     4.82270E+09    -58.3081E+06    -28.0122E+06     112.576E+06     14.8423E+06
             591               1     7.03251E+09     6.21194E+09     6.21194E+09    -750.340E+06    -888.754E+06     7.10069E+09    -1.52428E+09     7.02944E+09    -760.883E+06     6.18454E+09    -850.812E+06    -360.779E+06     43.6251E+06     250.582E+06
             592               1     7.30911E+09     6.39186E+09     6.39186E+09    -786.749E+06    -1.04110E+09     7.43296E+09    -1.52134E+09     7.29914E+09    -1.00917E+09     6.34041E+09    -767.222E+06     432.783E+06    -14.9236E+06     433.509E+06
             593               1     7.68742E+09     6.71304E+09     6.71304E+09    -854.313E+06    -1.08908E+09     7.80211E+09    -1.58988E+09     7.67935E+09    -1.05862E+09     6.65844E+09    -830.180E+06     471.216E+06    -6.41750E+06    -442.652E+06
             594               1     7.80368E+09     6.83062E+09     6.83062E+09    -865.655E+06    -1.07622E+09     7.90683E+09    -1.62958E+09     7.79729E+09    -1.04740E+09     6.78272E+09    -846.580E+06     456.515E+06     1.65830E+06     405.590E+06
             595               1     6.26905E+09     5.62785E+09     5.62785E+09    -522.444E+06    -753.570E+06     6.38142E+09    -1.45061E+09     6.25946E+09    -686.662E+06     5.60403E+09    -565.530E+06    -251.738E+06    -87.9117E+06    -295.690E+06
             596               1     5.85687E+09     5.12423E+09     5.12423E+09    -319.264E+06    -1.07304E+09     6.19727E+09    -1.24397E+09     5.74622E+09    -1.03701E+09     5.04683E+09    -277.891E+06    -319.532E+06    -89.5229E+06    -577.812E+06
             597               1     6.53197E+09     5.93237E+09     5.93237E+09    -438.888E+06    -749.246E+06     6.68162E+09    -1.58141E+09     6.51535E+09    -441.513E+06     5.92079E+09    -735.040E+06    -223.050E+06     50.3765E+06     160.417E+06
             598               1     7.14447E+09     6.31871E+09     6.31871E+09    -769.195E+06    -881.016E+06     7.19973E+09    -1.55617E+09     7.14251E+09    -773.368E+06     6.29268E+09    -850.812E+06    -395.438E+06    -37.9267E+06    -171.088E+06
             599               1     6.01469E+09     5.46965E+09     5.46965E+09    -447.539E+06    -638.009E+06     6.10766E+09    -1.46137E+09     6.00790E+09    -587.192E+06     5.44759E+09    -476.300E+06     205.171E+06    -70.0714E+06     302.067E+06
             600               1     6.69577E+09     6.05500E+09     6.05500E+09    -378.873E+06    -875.066E+06     6.93007E+09    -1.60035E+09     6.65422E+09    -366.714E+06     6.04235E+09    -874.577E+06    -284.110E+06    -13.2375E+06    -23.8410E+06
             601               1     6.09482E+09     5.58176E+09     5.58176E+09    -380.080E+06    -637.854E+06     6.21961E+09    -1.52127E+09     6.08253E+09    -439.686E+06     5.58133E+09    -577.815E+06     28.0004E+06     108.566E+06    -43.7575E+06
             602               1     7.06469E+09     6.27293E+09     6.27293E+09    -721.511E+06    -859.965E+06     7.13290E+09    -1.56382E+09     7.06163E+09    -710.471E+06     6.24267E+09    -840.746E+06     403.913E+06    -26.6286E+06     223.042E+06
             603               1     7.77905E+09     6.71344E+09     6.71344E+09    -969.086E+06    -1.15867E+09     7.87212E+09    -1.52856E+09     7.77385E+09    -1.12656E+09     6.68520E+09    -972.956E+06     443.030E+06     27.0206E+06    -158.594E+06
             604               1     6.67790E+09     6.05541E+09     6.05541E+09    -404.684E+06    -820.831E+06     6.87624E+09    -1.60997E+09     6.64863E+09    -403.124E+06     6.05349E+09    -820.474E+06     109.449E+06     10.7158E+06    -20.9015E+06
             605               1     6.68270E+09     6.05919E+09     6.05919E+09    -401.005E+06    -825.743E+06     6.88494E+09    -1.61082E+09     6.65223E+09    -400.894E+06     6.05589E+09    -822.552E+06    -138.481E+06     33.6883E+06     48.6272E+06
             606               1     6.33993E+09     5.79282E+09     5.79282E+09    -363.206E+06    -716.259E+06     6.50908E+09    -1.57112E+09     6.31776E+09    -389.146E+06     5.79228E+09    -689.778E+06    -41.7513E+06     92.2969E+06     41.6292E+06
             607               1     6.50363E+09     5.90056E+09     5.90056E+09    -402.643E+06    -786.502E+06     6.68706E+09    -1.57047E+09     6.47807E+09    -408.826E+06     5.89414E+09    -773.900E+06     176.405E+06    -61.5663E+06     101.355E+06
             608               1     6.80261E+09     6.09335E+09     6.09335E+09    -563.598E+06    -846.103E+06     6.93946E+09    -1.56122E+09     6.78939E+09    -564.494E+06     6.07017E+09    -822.019E+06     329.293E+06     56.7141E+06    -221.254E+06
             609               1     6.79922E+09     6.12530E+09     6.12530E+09    -474.588E+06    -857.103E+06     6.98240E+09    -1.59787E+09     6.77495E+09    -468.647E+06     6.11483E+09    -852.573E+06     249.217E+06    -33.0582E+06     86.9233E+06
             610               1     6.29228E+09     5.75007E+09     5.75007E+09    -364.385E+06    -706.111E+06     6.45618E+09    -1.55986E+09     6.27135E+09    -372.151E+06     5.74976E+09    -698.032E+06    -38.5311E+06    -51.5603E+06    -21.7443E+06
             611               1     6.59793E+09     6.00160E+09     6.00160E+09    -348.002E+06    -819.373E+06     6.82098E+09    -1.61141E+09     6.55989E+09    -348.386E+06     6.00114E+09    -818.521E+06    -52.7746E+06    -19.5516E+06    -14.4841E+06
             612               1     6.59673E+09     5.98926E+09     5.98926E+09    -410.387E+06    -788.297E+06     6.77756E+09    -1.59686E+09     6.57231E+09    -411.853E+06     5.98594E+09    -783.511E+06     122.137E+06     36.1258E+06    -82.4984E+06
             613               1     6.53410E+09     5.96120E+09     5.96120E+09    -316.990E+06    -801.806E+06     6.76300E+09    -1.61413E+09     6.49345E+09    -318.569E+06     5.96093E+09    -799.958E+06     32.6902E+06    -28.9367E+06     25.8701E+06
             614               1     7.13231E+09     6.34383E+09     6.34383E+09    -662.498E+06    -908.108E+06     7.25194E+09    -1.59108E+09     7.12278E+09    -637.240E+06     6.31804E+09    -907.577E+06     422.380E+06     6.06191E+06    -41.4489E+06
             615               1     6.45956E+09     5.90673E+09     5.90673E+09    -284.101E+06    -791.607E+06     6.69834E+09    -1.61034E+09     6.41447E+09    -284.163E+06     5.90670E+09    -791.516E+06    -8.68721E+06     6.12126E+06     10.6207E+06
             616               1     6.78022E+09     5.77132E+09     5.77132E+09    -625.630E+06    -1.33621E+09     7.10753E+09    -1.26983E+09     6.69568E+09    -1.29716E+09     5.62289E+09    -516.262E+06     462.544E+06    -19.5994E+06     863.199E+06
             617               1     7.35133E+09     6.20017E+09     6.20017E+09    -770.429E+06    -1.48038E+09     7.68055E+09    -1.31646E+09     7.27361E+09    -1.44483E+09     6.07060E+09    -676.406E+06     507.440E+06    -22.2659E+06    -810.547E+06
             618               1     6.13646E+09     5.34826E+09     5.34826E+09    -438.973E+06    -1.08613E+09     6.43439E+09    -1.27439E+09     6.05897E+09    -1.04824E+09     5.26796E+09    -396.562E+06     358.689E+06     72.3641E+06    -592.023E+06
             619               1     8.19468E+09     6.91945E+09     6.91945E+09    -942.894E+06    -1.57139E+09     8.49083E+09    -1.46839E+09     8.14020E+09    -1.53326E+09     6.83445E+09    -896.026E+06    -563.173E+06    -24.8887E+06     607.453E+06
             620               1     8.55685E+09     7.22238E+09     7.22238E+09    -920.535E+06    -1.69566E+09     8.91804E+09    -1.53540E+09     8.47733E+09    -1.65394E+09     7.16280E+09    -902.669E+06    -607.195E+06     17.4122E+06    -381.747E+06
             621               1     8.03764E+09     7.01357E+09     7.01357E+09    -915.982E+06    -1.12796E+09     8.14153E+09    -1.65654E+09     8.03135E+09    -1.09929E+09     6.98190E+09    -912.986E+06     478.704E+06     19.0455E+06     163.593E+06
             622               1     7.99253E+09     7.00256E+09     7.00256E+09    -852.216E+06    -1.12095E+09     8.12351E+09    -1.67646E+09     7.98236E+09    -1.08973E+09     6.95484E+09    -835.720E+06     481.564E+06     2.80752E+06    -386.728E+06
             623               1     7.29404E+09     6.39830E+09     6.39830E+09    -818.479E+06    -970.620E+06     7.36892E+09    -1.53640E+09     7.29047E+09    -945.014E+06     6.36287E+09    -808.655E+06     426.749E+06    -5.26795E+06    -276.484E+06
             624               1     5.80876E+09     5.33584E+09     5.33584E+09    -323.752E+06    -611.410E+06     5.94725E+09    -1.46689E+09     5.79270E+09    -542.649E+06     5.33501E+09    -391.686E+06    -37.4051E+06     122.173E+06     58.8484E+06
             625               1     6.20273E+09     5.64395E+09     5.64395E+09    -430.565E+06    -679.503E+06     6.32345E+09    -1.51129E+09     6.19147E+09    -489.467E+06     5.63316E+09    -609.812E+06    -157.545E+06     102.953E+06     207.952E+06
             626               1     4.89844E+09     4.51997E+09     4.51997E+09     264.971E+06    -834.915E+06     5.35488E+09    -1.31667E+09     4.60816E+09    -833.253E+06     4.51818E+09     265.099E+06     29.6420E+06    -40.1020E+06     83.3915E+06
             627               1     5.07874E+09     4.57389E+09     4.57389E+09     156.723E+06    -975.375E+06     5.54926E+09    -1.25174E+09     4.78233E+09    -972.359E+06     4.54945E+09     178.147E+06    -108.708E+06    -25.3825E+06    -313.645E+06
             628               1     5.38989E+09     4.69257E+09     4.69257E+09    -75.0790E+06    -1.15579E+09     5.84836E+09    -1.15390E+09     5.13757E+09    -1.15129E+09     4.62819E+09    -15.1928E+06     149.126E+06    -12.8572E+06     534.345E+06
             629               1     5.69207E+09     4.65767E+09     4.65767E+09    -406.511E+06    -1.50281E+09     6.16048E+09    -916.115E+06     5.44689E+09    -1.49751E+09     4.57797E+09    -332.112E+06    -179.430E+06     17.3364E+06    -609.045E+06
             630               1     8.40753E+09     7.34138E+09     7.34138E+09    -473.242E+06    -1.55445E+09     8.89583E+09    -1.77123E+09     8.24894E+09    -1.55007E+09     7.21474E+09    -350.998E+06     182.431E+06     45.7077E+06     971.320E+06
             631               1     9.24697E+09     8.14837E+09     8.14837E+09    -552.408E+06    -1.56195E+09     9.71032E+09    -2.01134E+09     9.12175E+09    -1.55939E+09     8.14581E+09    -552.400E+06     157.403E+06     729.835E+03    -8.84711E+06
             632               1     9.01517E+09     7.92514E+09     7.92514E+09    -518.056E+06    -1.56976E+09     9.49489E+09    -1.94577E+09     8.87558E+09    -1.56651E+09     7.88570E+09    -481.872E+06     168.689E+06    -25.7917E+06    -553.001E+06
             633               1     6.70637E+09     5.52338E+09     5.52338E+09    -678.445E+06    -1.59356E+09     7.11694E+09    -1.08379E+09     6.56370E+09    -1.58783E+09     5.37104E+09    -531.836E+06     198.095E+06    -36.0595E+06    -941.856E+06
             634               1     5.89866E+09     4.95184E+09     4.95184E+09    -366.005E+06    -1.39281E+09     6.34465E+09    -1.06434E+09     5.69236E+09    -1.38752E+09     4.84327E+09    -262.720E+06     180.249E+06    -12.2981E+06    -734.106E+06
             635               1     5.34874E+09     4.65162E+09     4.65162E+09    -72.2965E+06    -1.15599E+09     5.80760E+09    -1.14111E+09     5.09288E+09    -1.15171E+09     4.59454E+09    -19.4949E+06     146.095E+06     12.0788E+06    -499.725E+06
             636               1     4.86293E+09     4.48077E+09     4.48077E+09     264.085E+06    -838.932E+06     5.31970E+09    -1.30197E+09     4.56858E+09    -837.408E+06     4.47898E+09     264.347E+06    -38.0310E+06     36.5628E+06     80.1354E+06
             637               1     5.38128E+09     4.64751E+09     4.64751E+09    -112.191E+06    -1.19170E+09     5.83920E+09    -1.11454E+09     5.12911E+09    -1.18750E+09     4.59641E+09    -65.2848E+06    -149.205E+06     7.24533E+06     472.242E+06
             638               1     5.87259E+09     4.88266E+09     4.88266E+09    -403.629E+06    -1.43862E+09     6.32128E+09    -1.01347E+09     5.66192E+09    -1.43338E+09     4.77909E+09    -305.289E+06    -180.254E+06    -17.6230E+06     714.092E+06
             639               1     5.25171E+09     4.78962E+09     4.78962E+09     33.6394E+06    -846.585E+06     5.63620E+09    -1.32556E+09     5.08176E+09    -842.277E+06     4.77895E+09     40.0048E+06     66.4284E+06     53.0623E+06    -217.349E+06
             640               1     8.44143E+09     7.33276E+09     7.33276E+09    -544.143E+06    -1.57797E+09     8.91073E+09    -1.73688E+09     8.29721E+09    -1.57343E+09     7.22225E+09    -438.172E+06    -182.903E+06    -46.6520E+06     909.832E+06
             641               1     9.02418E+09     7.91482E+09     7.91482E+09    -573.305E+06    -1.56371E+09     9.47852E+09    -1.92593E+09     8.90067E+09    -1.56019E+09     7.87466E+09    -536.666E+06    -177.813E+06    -23.3434E+06     557.382E+06
             642               1     9.22929E+09     8.14721E+09     8.14721E+09    -532.739E+06    -1.54754E+09     9.69475E+09    -2.02231E+09     9.10250E+09    -1.54443E+09     8.14398E+09    -532.618E+06    -173.438E+06     425.795E+03     32.5501E+06
             643               1     7.93770E+09     6.83916E+09     6.83916E+09    -998.634E+06    -1.19481E+09     8.03396E+09    -1.54857E+09     7.93224E+09    -1.18446E+09     6.82762E+09    -997.445E+06    -287.232E+06    -7.05579E+06     98.8557E+06
             644               1     8.40829E+09     7.19635E+09     7.19635E+09    -719.989E+06    -1.62989E+09     8.82624E+09    -1.61549E+09     8.29645E+09    -1.62520E+09     7.07695E+09    -605.271E+06    -193.290E+06     40.0527E+06    -946.997E+06
             645               1     5.39725E+09     4.66370E+09     4.66370E+09    -65.6737E+06    -1.21596E+09     5.87966E+09    -1.12736E+09     5.11042E+09    -1.21170E+09     4.60151E+09    -7.73973E+06    -150.642E+06    -6.93337E+06    -522.191E+06
             646               1     6.61024E+09     5.89348E+09     5.89348E+09    -662.416E+06    -769.802E+06     6.66328E+09    -1.48709E+09     6.60828E+09    -749.263E+06     5.87105E+09    -660.526E+06     166.183E+06    -29.9655E+06     346.799E+06
             647               1     6.84220E+09     5.88110E+09     5.88110E+09    -551.865E+06    -1.30758E+09     7.18868E+09    -1.34055E+09     6.74734E+09    -1.30105E+09     5.78200E+09    -459.293E+06     211.548E+06    -9.97220E+06    -767.065E+06
             648               1     6.45214E+09     5.76432E+09     5.76432E+09    -606.396E+06    -766.268E+06     6.53059E+09    -1.46389E+09     6.44768E+09    -747.052E+06     5.74736E+09    -608.653E+06     136.337E+06     42.2015E+06    -300.687E+06
             649               1     8.28843E+09     7.16365E+09     7.16365E+09    -778.985E+06    -1.43194E+09     8.59560E+09    -1.65091E+09     8.23027E+09    -1.42579E+09     7.10273E+09    -724.210E+06     226.935E+06    -26.2888E+06    -657.552E+06
             650               1     6.45692E+09     5.81405E+09     5.81405E+09    -513.888E+06    -764.548E+06     6.57860E+09    -1.51187E+09     6.44596E+09    -520.373E+06     5.81404E+09    -758.050E+06     7.24460E+06     39.8086E+06    -5.89328E+06
             651               1     8.27097E+09     7.05425E+09     7.05425E+09    -951.189E+06    -1.45887E+09     8.51311E+09    -1.54806E+09     8.23580E+09    -1.44722E+09     7.03896E+09    -947.548E+06    -313.233E+06    -765.465E+03    -173.188E+06
             652               1     4.87712E+09     4.49541E+09     4.49541E+09     251.701E+06    -832.620E+06     5.32803E+09    -1.30483E+09     4.59403E+09    -830.870E+06     4.49269E+09     252.670E+06    -41.1991E+06    -38.5957E+06    -101.203E+06
             653               1     6.06192E+09     5.10719E+09     5.10719E+09    -424.237E+06    -1.37328E+09     6.48047E+09    -1.10322E+09     5.89130E+09    -1.36784E+09     5.00832E+09    -330.814E+06     184.473E+06     10.4474E+06     713.169E+06
             654               1     5.82220E+09     5.27168E+09     5.27168E+09    -352.534E+06    -730.119E+06     6.00180E+09    -1.39634E+09     5.79456E+09    -715.818E+06     5.27138E+09    -366.528E+06    -18.7894E+06    -71.8198E+06    -37.6112E+06
             655               1     6.61647E+09     5.36744E+09     5.36744E+09    -767.892E+06    -1.64306E+09     7.01050E+09    -985.496E+06     6.48433E+09    -1.63719E+09     5.25019E+09    -656.510E+06     199.350E+06     33.0738E+06     818.873E+06
             656               1     7.34847E+09     6.07526E+09     6.07526E+09    -732.730E+06    -1.71490E+09     7.79016E+09    -1.20921E+09     7.19858E+09    -1.70958E+09     5.92466E+09    -587.438E+06     189.579E+06     49.1943E+06     985.035E+06
             657               1     8.32030E+09     7.07778E+09     7.07778E+09    -716.922E+06    -1.68367E+09     8.76145E+09    -1.55906E+09     8.19252E+09    -1.67935E+09     6.96634E+09    -609.795E+06     179.321E+06    -42.9734E+06    -909.309E+06
             658               1     5.04504E+09     4.55654E+09     4.55654E+09     157.401E+06    -950.309E+06     5.50685E+09    -1.25454E+09     4.75975E+09    -947.596E+06     4.53860E+09     172.632E+06     96.8471E+06     28.6710E+06    -267.326E+06
             659               1     4.88091E+09     4.51485E+09     4.51485E+09     291.240E+06    -828.701E+06     5.34355E+09    -1.32579E+09     4.57824E+09    -827.206E+06     4.51302E+09     291.573E+06     32.1432E+06     37.6612E+06    -83.3259E+06
             660               1     6.59103E+09     5.38469E+09     5.38469E+09    -671.504E+06    -1.63509E+09     7.01979E+09    -1.02603E+09     6.42970E+09    -1.62950E+09     5.23102E+09    -523.428E+06    -192.833E+06    -39.6444E+06     935.163E+06
             661               1     7.54593E+09     6.26808E+09     6.26808E+09    -771.879E+06    -1.69827E+09     7.96635E+09    -1.26598E+09     7.41637E+09    -1.69322E+09     6.10237E+09    -611.219E+06    -187.704E+06    -47.8330E+06     1.05220E+09
             662               1     8.93623E+09     7.79688E+09     7.79688E+09    -610.774E+06    -1.58766E+09     9.38454E+09    -1.86615E+09     8.81490E+09    -1.58403E+09     7.75097E+09    -568.495E+06    -178.409E+06     26.0975E+06    -595.864E+06
             663               1     9.02671E+09     7.90037E+09     7.90037E+09    -774.153E+06    -1.44149E+09     9.34186E+09    -1.89491E+09     8.97096E+09    -1.43697E+09     7.89531E+09    -773.616E+06    -205.352E+06     3.47253E+06    -68.5450E+06
             664               1     7.48628E+09     6.32304E+09     6.32304E+09    -611.045E+06    -1.61427E+09     7.93731E+09    -1.36591E+09     7.33276E+09    -1.60866E+09     6.12349E+09    -417.103E+06    -197.543E+06     53.2838E+06    -1.14399E+09
             665               1     8.11049E+09     7.02605E+09     7.02605E+09    -729.307E+06    -1.39815E+09     8.42420E+09    -1.63287E+09     8.04809E+09    -1.39188E+09     6.96757E+09    -677.092E+06    -228.071E+06     23.3594E+06    -634.136E+06
             666               1     6.34466E+09     5.13666E+09     5.13666E+09    -600.701E+06    -1.67749E+09     6.81415E+09    -952.822E+06     6.13401E+09    -1.67201E+09     4.98179E+09    -451.320E+06    -185.387E+06     44.2391E+06    -913.741E+06
             667               1     7.31647E+09     6.23712E+09     6.23712E+09    -710.102E+06    -1.39976E+09     7.63688E+09    -1.37575E+09     7.24280E+09    -1.39335E+09     6.14383E+09    -623.230E+06    -216.381E+06     10.1061E+06    -772.945E+06
             668               1     5.47588E+09     4.90439E+09     4.90439E+09    -113.005E+06    -936.670E+06     5.84106E+09    -1.28490E+09     5.33384E+09    -930.852E+06     4.87520E+09    -89.6392E+06    -115.548E+06    -46.5546E+06    -367.406E+06
             669               1     5.17286E+09     4.75292E+09     4.75292E+09     31.6251E+06    -776.404E+06     5.52932E+09    -1.33605E+09     5.02793E+09    -772.240E+06     4.75284E+09     27.5431E+06     5.27632E+06    -57.7990E+06     19.0486E+06
             670               1     5.01581E+09     4.53137E+09     4.53137E+09     161.824E+06    -945.621E+06     5.47699E+09    -1.24919E+09     4.72886E+09    -942.723E+06     4.51414E+09     176.157E+06     95.6079E+06    -32.2672E+06     260.881E+06
             671               1     6.21316E+09     5.39554E+09     5.39554E+09    -407.794E+06    -1.15911E+09     6.55465E+09    -1.27621E+09     6.10971E+09    -1.15246E+09     5.32252E+09    -341.425E+06     183.969E+06    -15.1757E+06     624.330E+06
             672               1     8.85142E+09     7.72726E+09     7.72726E+09    -781.376E+06    -1.43114E+09     9.15840E+09    -1.83825E+09     8.79752E+09    -1.42514E+09     7.71510E+09    -775.224E+06     229.842E+06     18.0001E+06     232.522E+06
             673               1     8.80660E+09     7.63616E+09     7.63616E+09    -846.804E+06    -1.46184E+09     9.09800E+09    -1.77584E+09     8.75809E+09    -1.45643E+09     7.61070E+09    -826.760E+06     221.241E+06    -13.1739E+06    -411.823E+06
             674               1     8.20265E+09     7.01036E+09     7.01036E+09    -1.00173E+09    -1.37041E+09     8.38077E+09    -1.54607E+09     8.18397E+09    -1.35900E+09     6.99815E+09    -1.00093E+09     298.686E+06     12.5355E+06    -111.960E+06
             675               1     5.07259E+09     4.66415E+09     4.66415E+09     131.054E+06    -814.787E+06     5.47893E+09    -1.32680E+09     4.86822E+09    -812.197E+06     4.66346E+09     129.146E+06     17.6477E+06     48.7184E+06    -53.4191E+06
             676               1     5.04965E+09     4.57819E+09     4.57819E+09     200.657E+06    -946.271E+06     5.52446E+09    -1.27753E+09     4.74313E+09    -943.624E+06     4.55742E+09     218.788E+06    -101.560E+06     24.5052E+06     287.566E+06
             677               1     5.74809E+09     5.08801E+09     5.08801E+09    -202.007E+06    -1.02866E+09     6.11666E+09    -1.28578E+09     5.61202E+09    -1.02261E+09     5.03508E+09    -155.124E+06    -145.883E+06     33.6283E+06     509.957E+06
             678               1     7.65505E+09     6.61744E+09     6.61744E+09    -841.932E+06    -1.21932E+09     7.83676E+09    -1.51873E+09     7.63407E+09    -1.20699E+09     6.58138E+09    -818.198E+06    -265.620E+06     19.8242E+06     449.128E+06
             679               1     5.71426E+09     5.15301E+09     5.15301E+09    -288.388E+06    -799.736E+06     5.95275E+09    -1.35496E+09     5.66244E+09    -789.183E+06     5.13307E+09    -278.997E+06    -88.9372E+06    -63.3598E+06    -318.901E+06
             680               1     5.85685E+09     5.21291E+09     5.21291E+09    -277.266E+06    -952.156E+06     6.16506E+09    -1.32783E+09     5.76840E+09    -945.453E+06     5.17352E+09    -244.580E+06     136.457E+06    -39.7899E+06     446.365E+06
             681               1     9.08823E+09     8.02674E+09     8.02674E+09    -490.204E+06    -1.54136E+09     9.56810E+09    -1.99839E+09     8.94994E+09    -1.53823E+09     7.98580E+09    -452.400E+06     168.477E+06     22.8202E+06     567.012E+06
             682               1     6.66378E+09     5.80872E+09     5.80872E+09    -614.646E+06    -1.07192E+09     6.88065E+09    -1.37405E+09     6.62835E+09    -1.06025E+09     5.75603E+09    -573.630E+06     203.140E+06     34.3132E+06    -546.845E+06
             683               1     5.22437E+09     4.77066E+09     4.77066E+09     55.7617E+06    -845.826E+06     5.61649E+09    -1.32687E+09     5.04487E+09    -841.817E+06     4.76628E+09     56.1398E+06    -44.4607E+06    -56.2209E+06    -138.349E+06
             684               1     5.69828E+09     5.08522E+09     5.08522E+09    -185.936E+06    -960.869E+06     6.04609E+09    -1.31280E+09     5.57788E+09    -954.780E+06     5.05004E+09    -156.850E+06     132.535E+06     40.4781E+06    -412.152E+06
             685               1     8.85758E+09     7.74972E+09     7.74972E+09    -757.800E+06    -1.42067E+09     9.17039E+09    -1.85708E+09     8.80152E+09    -1.41471E+09     7.73625E+09    -750.290E+06    -230.198E+06    -17.1914E+06     255.233E+06
             686               1     6.47053E+09     5.52489E+09     5.52489E+09    -461.661E+06    -1.33990E+09     6.86480E+09    -1.24111E+09     6.33436E+09    -1.33447E+09     5.39851E+09    -340.712E+06    -191.170E+06     20.2813E+06    -842.097E+06
             687               1     6.71823E+09     5.83442E+09     5.83442E+09    -625.280E+06    -1.11550E+09     6.94991E+09    -1.36455E+09     6.67781E+09    -1.10292E+09     5.77586E+09    -579.300E+06    -209.485E+06    -37.3699E+06    -579.892E+06
             688               1     6.89418E+09     5.98102E+09     5.98102E+09    -711.914E+06    -1.09817E+09     7.07919E+09    -1.39031E+09     6.86977E+09    -1.08495E+09     5.92642E+09    -670.528E+06     214.197E+06    -33.2311E+06     566.656E+06
             689               1     7.51192E+09     6.21585E+09     6.21585E+09    -816.790E+06    -1.69767E+09     7.91353E+09    -1.23380E+09     7.39438E+09    -1.69217E+09     6.06056E+09    -667.000E+06     193.655E+06    -49.8774E+06    -1.01670E+09
             690               1     7.36257E+09     6.30163E+09     6.30163E+09    -846.425E+06    -1.25817E+09     7.55980E+09    -1.39901E+09     7.33660E+09    -1.24859E+09     6.24263E+09    -797.012E+06    -250.435E+06     2.46973E+06     599.955E+06
             691               1     6.33164E+09     5.47053E+09     5.47053E+09    -434.515E+06    -1.21530E+09     6.68583E+09    -1.27357E+09     6.22195E+09    -1.20847E+09     5.38761E+09    -358.422E+06    -188.721E+06     14.3556E+06     672.892E+06
             692               1     7.74537E+09     6.66008E+09     6.66008E+09    -695.034E+06    -1.42401E+09     8.08409E+09    -1.51368E+09     7.66762E+09    -1.41775E+09     6.56097E+09    -602.192E+06    -222.915E+06    -28.2799E+06     820.826E+06
             693               1     7.51220E+09     6.50419E+09     6.50419E+09    -901.939E+06    -1.10975E+09     7.61395E+09    -1.49750E+09     7.50572E+09    -1.09915E+09     6.47756E+09    -885.908E+06    -257.388E+06    -7.29836E+06    -364.169E+06
             694               1     5.44147E+09     4.93676E+09     4.93676E+09    -96.5762E+06    -837.011E+06     5.77377E+09    -1.33439E+09     5.32636E+09    -831.747E+06     4.92458E+09    -89.6651E+06     74.0331E+06    -53.3339E+06     238.201E+06
             695               1     8.97065E+09     7.86912E+09     7.86912E+09    -728.661E+06    -1.43288E+09     9.30200E+09    -1.90253E+09     8.90814E+09    -1.42717E+09     7.86317E+09    -728.422E+06     229.383E+06    -7.33729E+06    -49.9603E+06
             696               1     6.65686E+09     5.98728E+09     5.98728E+09    -507.017E+06    -821.033E+06     6.80831E+09    -1.55308E+09     6.64016E+09    -506.771E+06     5.98507E+09    -819.067E+06    -105.522E+06    -20.4827E+06    -58.4824E+06
             697               1     5.08430E+09     4.68708E+09     4.68708E+09     159.572E+06    -813.389E+06     5.50047E+09    -1.34442E+09     4.86819E+09    -810.646E+06     4.68474E+09     159.175E+06    -34.1529E+06     48.9572E+06     98.5873E+06
             698               1     5.56942E+09     5.06544E+09     5.06544E+09    -218.009E+06    -751.560E+06     5.81700E+09    -1.36529E+09     5.51148E+09    -742.437E+06     5.05721E+09    -218.903E+06    -72.5422E+06     63.2726E+06     197.488E+06
             699               1     5.54683E+09     5.04978E+09     5.04978E+09    -206.408E+06    -747.963E+06     5.79774E+09    -1.36514E+09     5.48688E+09    -739.207E+06     5.04823E+09    -213.616E+06     37.2124E+06     66.8501E+06    -83.4156E+06
             700               1     6.72482E+09     5.95585E+09     5.95585E+09    -734.490E+06    -802.916E+06     6.75877E+09    -1.47282E+09     6.72404E+09    -762.690E+06     5.94377E+09    -762.627E+06    -127.016E+06    -29.2119E+06    -255.674E+06
             701               1     7.78183E+09     6.68929E+09     6.68929E+09    -772.705E+06    -1.37713E+09     8.06642E+09    -1.51315E+09     7.72875E+09    -1.37037E+09     6.58908E+09    -679.253E+06     231.420E+06     19.3054E+06     829.778E+06
             702               1     6.95805E+09     5.95891E+09     5.95891E+09    -557.795E+06    -1.36932E+09     7.32823E+09    -1.34393E+09     6.85036E+09    -1.36275E+09     5.84556E+09    -451.022E+06    -208.807E+06    -3.18713E+06     829.578E+06
             703               1     6.17420E+09     5.57113E+09     5.57113E+09    -542.463E+06    -661.954E+06     6.23308E+09    -1.45557E+09     6.17160E+09    -643.851E+06     5.56913E+09    -558.572E+06    -63.1645E+06    -41.2851E+06    -91.4738E+06
             704               1     5.30086E+09     4.77687E+09     4.77687E+09    -12.7166E+06    -918.537E+06     5.69540E+09    -1.28187E+09     5.12238E+09    -914.052E+06     4.76227E+09    -2.60181E+06    -87.8772E+06     49.2793E+06     252.338E+06
             705               1     6.18383E+09     5.49878E+09     5.49878E+09    -482.841E+06    -869.153E+06     6.36793E+09    -1.38226E+09     6.15659E+09    -857.256E+06     5.47370E+09    -469.665E+06    -125.519E+06     52.3715E+06     368.243E+06
             706               1     8.45174E+09     7.25532E+09     7.25532E+09    -892.809E+06    -1.47040E+09     8.72571E+09    -1.63070E+09     8.40716E+09    -1.46432E+09     7.21044E+09    -854.011E+06     228.967E+06     19.4967E+06     560.877E+06
             707               1     7.52626E+09     6.62009E+09     6.62009E+09    -868.040E+06    -943.743E+06     7.56383E+09    -1.60277E+09     7.52541E+09    -861.072E+06     6.61002E+09    -940.645E+06     236.589E+06    -1.81480E+06     139.819E+06
             708               1     7.26132E+09     6.27656E+09     6.27656E+09    -798.887E+06    -1.15736E+09     7.43392E+09    -1.44011E+09     7.24137E+09    -1.14709E+09     6.23429E+09    -766.879E+06     248.302E+06     9.79456E+06    -489.446E+06
             709               1     6.42527E+09     5.76847E+09     5.76847E+09    -611.507E+06    -701.151E+06     6.46963E+09    -1.48527E+09     6.42387E+09    -629.188E+06     5.76592E+09    -680.915E+06     65.0212E+06     35.0439E+06    -110.883E+06
             710               1     7.35305E+09     6.50376E+09     6.50376E+09    -833.200E+06    -865.266E+06     7.36903E+09    -1.60177E+09     7.35289E+09    -828.730E+06     6.49837E+09    -864.347E+06    -198.387E+06     4.95395E+06     12.5317E+06
             711               1     6.71098E+09     5.90003E+09     5.90003E+09    -650.334E+06    -960.798E+06     6.86083E+09    -1.42963E+09     6.69480E+09    -948.445E+06     5.85295E+09    -615.609E+06    -193.149E+06     31.0315E+06     521.687E+06
             712               1     6.23628E+09     5.65046E+09     5.65046E+09    -543.554E+06    -627.239E+06     6.27770E+09    -1.49322E+09     6.23502E+09    -562.507E+06     5.64750E+09    -605.326E+06     44.3768E+06    -34.3196E+06     128.828E+06
             713               1     5.82355E+09     5.27575E+09     5.27575E+09    -382.272E+06    -700.288E+06     5.97604E+09    -1.39773E+09     5.80396E+09    -685.366E+06     5.27199E+09    -393.428E+06     51.8637E+06    -65.0976E+06     137.637E+06
             714               1     5.94366E+09     5.34503E+09     5.34503E+09    -400.746E+06    -778.499E+06     6.12353E+09    -1.38859E+09     5.91656E+09    -767.176E+06     5.33101E+09    -398.056E+06     86.8488E+06     57.0982E+06    -271.707E+06
             715               1     5.31995E+09     4.84314E+09     4.84314E+09    -47.0485E+06    -821.645E+06     5.66479E+09    -1.32482E+09     5.19080E+09    -813.502E+06     4.84300E+09    -55.0482E+06    -8.09504E+06     78.9123E+06     25.5494E+06
             716               1     7.09665E+09     6.25610E+09     6.25610E+09    -815.354E+06    -865.478E+06     7.12158E+09    -1.52509E+09     7.09625E+09    -827.161E+06     6.24082E+09    -838.392E+06    -188.900E+06     16.4937E+06     269.990E+06
             717               1     7.38053E+09     6.38668E+09     6.38668E+09    -837.549E+06    -1.14082E+09     7.52750E+09    -1.46944E+09     7.36650E+09    -1.12940E+09     6.34729E+09    -809.574E+06     247.465E+06    -15.5347E+06     474.669E+06
             718               1     7.83922E+09     6.68979E+09     6.68979E+09    -918.077E+06    -1.36192E+09     8.05171E+09    -1.46993E+09     7.81087E+09    -1.35037E+09     6.64744E+09    -887.286E+06     280.030E+06     10.5642E+06    -497.294E+06
             719               1     7.87287E+09     6.77888E+09     6.77888E+09    -890.619E+06    -1.28270E+09     8.06159E+09    -1.53519E+09     7.85086E+09    -1.27153E+09     6.74725E+09    -870.163E+06     286.314E+06    -5.00696E+06     405.215E+06
             720               1     6.33217E+09     5.65685E+09     5.65685E+09    -555.940E+06    -788.303E+06     6.44515E+09    -1.43753E+09     6.32256E+09    -775.244E+06     5.63966E+09    -551.812E+06    -133.449E+06    -41.6155E+06    -300.055E+06
             721               1     5.95370E+09     5.17695E+09     5.17695E+09    -346.252E+06    -1.12968E+09     6.30663E+09    -1.23367E+09     5.83604E+09    -1.12400E+09     5.11543E+09    -290.417E+06    -167.569E+06    -15.5725E+06    -558.945E+06
             722               1     6.67963E+09     5.96327E+09     5.96327E+09    -652.634E+06    -778.309E+06     6.74158E+09    -1.51078E+09     6.67697E+09    -659.422E+06     5.95839E+09    -766.641E+06    -105.792E+06     29.1846E+06     147.000E+06
             723               1     7.20004E+09     6.38672E+09     6.38672E+09    -771.840E+06    -854.079E+06     7.24080E+09    -1.58693E+09     7.19898E+09    -770.783E+06     6.37712E+09    -845.534E+06    -182.731E+06    -12.0263E+06    -189.274E+06
             724               1     6.18337E+09     5.51680E+09     5.51680E+09    -500.353E+06    -820.362E+06     6.33716E+09    -1.39869E+09     6.16470E+09    -802.383E+06     5.49778E+09    -499.310E+06     117.423E+06    -63.4626E+06     319.459E+06
             725               1     7.03060E+09     6.17492E+09     6.17492E+09    -814.887E+06    -895.761E+06     7.07068E+09    -1.48809E+09     7.02955E+09    -812.667E+06     6.17220E+09    -895.256E+06    -137.937E+06    -6.28502E+06    -3.67236E+06
             726               1     6.19483E+09     5.60170E+09     5.60170E+09    -528.810E+06    -655.498E+06     6.25720E+09    -1.47246E+09     6.19191E+09    -624.131E+06     5.60136E+09    -559.840E+06     33.1986E+06     54.4091E+06    -31.7261E+06
             727               1     7.21268E+09     6.34673E+09     6.34673E+09    -833.533E+06    -897.950E+06     7.24468E+09    -1.53841E+09     7.21204E+09    -878.260E+06     6.33299E+09    -839.486E+06     184.288E+06    -20.7200E+06     255.354E+06
             728               1     7.51803E+09     6.61640E+09     6.61640E+09    -888.953E+06    -914.244E+06     7.53064E+09    -1.60440E+09     7.51793E+09    -880.374E+06     6.60418E+09    -910.605E+06     253.545E+06    -5.61024E+06    -165.399E+06
             729               1     6.63546E+09     5.95789E+09     5.95789E+09    -484.450E+06    -855.144E+06     6.81304E+09    -1.53943E+09     6.61210E+09    -483.515E+06     5.95677E+09    -854.958E+06     81.7954E+06    -6.50678E+06    -23.5849E+06
             730               1     6.65411E+09     5.96436E+09     5.96436E+09    -531.323E+06    -837.599E+06     6.80196E+09    -1.53181E+09     6.63822E+09    -529.770E+06     5.96266E+09    -837.453E+06    -103.001E+06     4.65294E+06     21.1620E+06
             731               1     6.31493E+09     5.70381E+09     5.70381E+09    -524.500E+06    -694.318E+06     6.39813E+09    -1.49500E+09     6.30979E+09    -536.662E+06     5.70321E+09    -681.555E+06    -41.0240E+06     43.9296E+06     46.3342E+06
             732               1     6.59139E+09     5.88555E+09     5.88555E+09    -650.816E+06    -759.515E+06     6.64507E+09    -1.49174E+09     6.58937E+09    -658.108E+06     5.88312E+09    -749.784E+06     87.5770E+06    -27.9022E+06     92.0248E+06
             733               1     7.00543E+09     6.17814E+09     6.17814E+09    -808.049E+06    -846.377E+06     7.02451E+09    -1.50790E+09     7.00519E+09    -816.253E+06     6.16869E+09    -828.725E+06     159.259E+06     13.1085E+06    -202.280E+06
             734               1     6.94942E+09     6.16468E+09     6.16468E+09    -692.994E+06    -872.983E+06     7.03766E+09    -1.53290E+09     6.94417E+09    -689.703E+06     6.16095E+09    -872.546E+06     151.886E+06    -2.54386E+06     50.5780E+06
             735               1     6.36654E+09     5.73228E+09     5.73228E+09    -555.833E+06    -709.907E+06     6.44218E+09    -1.48885E+09     6.36235E+09    -569.514E+06     5.73173E+09    -695.684E+06    -4.99532E+06    -43.7869E+06    -58.8365E+06
             736               1     6.61159E+09     5.93830E+09     5.93830E+09    -493.051E+06    -839.882E+06     6.77818E+09    -1.53512E+09     6.59108E+09    -492.802E+06     5.93790E+09    -839.727E+06    -40.2356E+06     1.15807E+06    -32.1295E+06
             737               1     6.60792E+09     5.93194E+09     5.93194E+09    -559.925E+06    -786.225E+06     6.71817E+09    -1.52860E+09     6.59920E+09    -560.378E+06     5.92912E+09    -782.947E+06     111.589E+06     21.7050E+06    -78.3813E+06
             738               1     6.64810E+09     5.97051E+09     5.97051E+09    -531.845E+06    -814.325E+06     6.78484E+09    -1.54145E+09     6.63457E+09    -533.677E+06     5.96985E+09    -811.834E+06     36.8958E+06    -23.6178E+06     55.3051E+06
             739               1     7.35324E+09     6.45048E+09     6.45048E+09    -881.264E+06    -924.058E+06     7.37454E+09    -1.54839E+09     7.35296E+09    -919.349E+06     6.44597E+09    -881.462E+06     179.908E+06     2.94810E+06    -29.5616E+06
             740               1     6.65985E+09     5.98231E+09     5.98231E+09    -548.407E+06    -799.580E+06     6.78189E+09    -1.54477E+09     6.64918E+09    -548.542E+06     5.98211E+09    -799.251E+06    -19.0218E+06     6.82807E+06     30.5933E+06
             741               1     6.89857E+09     5.94345E+09     5.94345E+09    -541.130E+06    -1.30544E+09     7.24889E+09    -1.36562E+09     6.80233E+09    -1.29895E+09     5.82564E+09    -429.818E+06     209.828E+06     8.94875E+06     843.594E+06
             742               1     7.46987E+09     6.39724E+09     6.39724E+09    -658.551E+06    -1.42728E+09     7.82451E+09    -1.43714E+09     7.38010E+09    -1.42076E+09     6.30386E+09    -571.698E+06     221.393E+06    -10.5011E+06    -778.813E+06
             743               1     6.21458E+09     5.42200E+09     5.42200E+09    -381.254E+06    -1.13512E+09     6.55712E+09    -1.30188E+09     6.11044E+09    -1.12844E+09     5.35683E+09    -322.752E+06     175.937E+06     22.0268E+06    -589.879E+06
             744               1     8.42141E+09     7.24577E+09     7.24577E+09    -863.654E+06    -1.45631E+09     8.70208E+09    -1.64194E+09     8.37430E+09    -1.45022E+09     7.19316E+09    -817.142E+06    -229.580E+06    -15.4737E+06     612.200E+06
             745               1     8.78965E+09     7.66743E+09     7.66743E+09    -743.599E+06    -1.45733E+09     9.12475E+09    -1.82217E+09     8.72410E+09    -1.45241E+09     7.64859E+09    -729.674E+06    -211.052E+06     12.2167E+06    -342.074E+06
             746               1     8.13102E+09     6.97222E+09     6.97222E+09    -996.063E+06    -1.31231E+09     8.28453E+09    -1.55462E+09     8.11717E+09    -1.30087E+09     6.95762E+09    -992.892E+06     294.617E+06    -10.7451E+06     181.400E+06
             747               1     8.10720E+09     6.93589E+09     6.93589E+09    -926.455E+06    -1.39576E+09     8.33166E+09    -1.53789E+09     8.07655E+09    -1.38489E+09     6.91053E+09    -911.964E+06     298.792E+06    -4.63182E+06    -338.686E+06
             748               1     7.27610E+09     6.40166E+09     6.40166E+09    -809.355E+06    -937.825E+06     7.33949E+09    -1.55149E+09     7.27355E+09    -915.522E+06     6.37402E+09    -804.023E+06     221.826E+06     30.1648E+06    -389.081E+06
             749               1     5.85504E+09     5.32722E+09     5.32722E+09    -384.904E+06    -660.974E+06     5.98819E+09    -1.42711E+09     5.84037E+09    -647.843E+06     5.32654E+09    -397.359E+06    -23.6734E+06     58.3329E+06     57.9904E+06
             750               1     6.31692E+09     5.67258E+09     5.67258E+09    -571.326E+06    -714.916E+06     6.38749E+09    -1.46211E+09     6.31325E+09    -695.505E+06     5.66464E+09    -582.799E+06    -92.6161E+06     44.6806E+06     203.684E+06
             751               1     4.91586E+09     4.53608E+09     4.53608E+09     278.759E+06    -844.059E+06     5.38013E+09    -1.32359E+09     4.61392E+09    -844.059E+06     4.53448E+09     280.351E+06    -4.62547E-06    -9.25093E-06     82.3099E+06
             752               1     5.11081E+09     4.58670E+09     4.58670E+09     143.937E+06    -998.726E+06     5.58543E+09    -1.24397E+09     4.81065E+09    -998.726E+06     4.56332E+09     167.311E+06    -5.78183E-06     11.1011E-06    -321.404E+06
             753               1     5.40153E+09     4.71225E+09     4.71225E+09    -45.2524E+06    -1.15951E+09     5.87177E+09    -1.16916E+09     5.13331E+09    -1.15951E+09     4.65088E+09     16.1215E+06    -11.4480E-06    -2.77528E-06     536.861E+06
             754               1     5.76377E+09     4.76735E+09     4.76735E+09    -354.921E+06    -1.47383E+09     6.24118E+09    -979.535E+06     5.51141E+09    -1.47383E+09     4.70551E+09    -293.078E+06     3.70037E-06     925.093E-09    -559.420E+06
             755               1     8.57303E+09     7.57094E+09     7.57094E+09    -403.342E+06    -1.49606E+09     9.06700E+09    -1.89052E+09     8.41422E+09    -1.49606E+09     7.45954E+09    -291.933E+06    -7.86329E-06    -4.62547E-06     935.947E+06
             756               1     9.52522E+09     8.55973E+09     8.55973E+09    -447.307E+06    -1.41049E+09     9.97022E+09    -2.23398E+09     9.41473E+09    -1.41049E+09     8.55972E+09    -447.292E+06    -5.08801E-06    -23.1273E-06    -11.7592E+06
             757               1     9.26234E+09     8.29022E+09     8.29022E+09    -432.701E+06    -1.43072E+09     9.72093E+09    -2.14227E+09     9.14020E+09    -1.43072E+09     8.25712E+09    -399.606E+06    -23.1273E-06     14.8015E-06    -536.278E+06
             758               1     6.73958E+09     5.62357E+09     5.62357E+09    -570.182E+06    -1.55375E+09     7.17731E+09    -1.16654E+09     6.57520E+09    -1.55375E+09     5.49077E+09    -437.387E+06     231.273E-09    -12.0262E-06    -897.144E+06
             759               1     5.91360E+09     4.99766E+09     4.99766E+09    -290.744E+06    -1.38757E+09     6.38523E+09    -1.10645E+09     5.67795E+09    -1.38757E+09     4.89897E+09    -192.052E+06    -7.40075E-06     33.3034E-06    -715.669E+06
             760               1     5.37897E+09     4.69708E+09     4.69708E+09    -6.67295E+06    -1.16754E+09     5.86462E+09    -1.17429E+09     5.08554E+09    -1.16754E+09     4.64720E+09     43.2118E+06     30.9906E-06     12.9513E-06    -481.827E+06
             761               1     4.89685E+09     4.50543E+09     4.50543E+09     299.368E+06    -870.351E+06     5.37579E+09    -1.31148E+09     4.56637E+09    -870.351E+06     4.50388E+09     300.923E+06    -25.1817E-06     30.5281E-06      80.857E+06
             762               1     5.41942E+09     4.67974E+09     4.67974E+09    -95.1326E+06    -1.21064E+09     5.89037E+09    -1.12465E+09     5.15153E+09    -1.21064E+09     4.63389E+09    -49.2877E+06    -34.8066E-06    -462.547E-09     465.620E+06
             763               1     5.88749E+09     4.93805E+09     4.93805E+09    -311.170E+06    -1.42780E+09     6.36585E+09    -1.06636E+09     5.64183E+09    -1.42780E+09     4.84623E+09    -219.354E+06    -6.93820E-06     10.1760E-06     688.136E+06
             764               1     5.29711E+09     4.78989E+09     4.78989E+09    -9.90256E+06    -893.433E+06     5.68332E+09    -1.29552E+09     5.12739E+09    -893.433E+06     4.77820E+09     1.79185E+06    -20.6990E-06     14.8015E-06    -236.631E+06
             765               1     8.65031E+09     7.61319E+09     7.61319E+09    -469.276E+06    -1.51068E+09     9.12387E+09    -1.87775E+09     8.50756E+09    -1.51068E+09     7.51665E+09    -372.732E+06    -1.38764E-06     3.23783E-06     878.062E+06
             766               1     9.32879E+09     8.33442E+09     8.33442E+09    -451.889E+06    -1.45566E+09     9.79009E+09    -2.14229E+09     9.20612E+09    -1.45566E+09     8.30574E+09    -423.204E+06    -2.31273E-06    -6.47565E-06     501.213E+06
             767               1     9.60206E+09     8.64435E+09     8.64435E+09    -426.726E+06    -1.41261E+09     10.0570E+09    -2.26834E+09     9.48719E+09    -1.41261E+09     8.64429E+09    -426.661E+06    -6.93820E-06    -7.86329E-06     24.3175E+06
             768               1     8.13131E+09     7.04451E+09     7.04451E+09    -952.043E+06    -1.21518E+09     8.25968E+09    -1.62576E+09     8.12172E+09    -1.21518E+09     7.04332E+09    -950.855E+06    -24.9775E-06     4.62547E-06     97.4713E+06
             769               1     8.59804E+09     7.49081E+09     7.49081E+09    -591.787E+06    -1.54349E+09     9.03430E+09    -1.78518E+09     8.47833E+09    -1.54349E+09     7.39561E+09    -496.588E+06     29.1404E-06    -10.1760E-06    -872.003E+06
             770               1     5.43692E+09     4.66392E+09     4.66392E+09    -162.247E+06    -1.22641E+09     5.89033E+09    -1.09175E+09     5.19480E+09    -1.22641E+09     4.60584E+09    -104.173E+06    -5.31929E-06     925.093E-09    -526.216E+06
             771               1     6.70454E+09     5.90806E+09     5.90806E+09    -671.636E+06    -914.711E+06     6.82277E+09    -1.44057E+09     6.69461E+09    -914.711E+06     5.88895E+09    -652.529E+06    -9.71348E-06    -6.47565E-06     354.050E+06
             772               1     6.84280E+09     5.81812E+09     5.81812E+09    -656.319E+06    -1.34149E+09     7.15961E+09    -1.27343E+09     6.76498E+09    -1.34149E+09     5.71037E+09    -548.575E+06    -13.4139E-06     18.0393E-06    -828.234E+06
             773               1     6.53646E+09     5.78769E+09     5.78769E+09    -621.192E+06    -869.275E+06     6.65697E+09    -1.43241E+09     6.52585E+09    -869.275E+06     5.77340E+09    -606.893E+06     25.9026E-06    -19.4270E-06    -302.379E+06
             774               1     8.15812E+09     6.95125E+09     6.95125E+09    -886.958E+06    -1.49298E+09     8.44423E+09    -1.52377E+09     8.10724E+09    -1.49298E+09     6.88177E+09    -817.483E+06    -55.0431E-06     42.0917E-06    -734.663E+06
             775               1     6.47095E+09     5.79554E+09     5.79554E+09    -592.643E+06    -755.113E+06     6.55066E+09    -1.48260E+09     6.46636E+09    -592.643E+06     5.79551E+09    -755.079E+06    -9.85803E-06     15.7266E-06     14.7947E+06
             776               1     8.21185E+09     7.24118E+09     7.24118E+09    -801.409E+06    -1.13008E+09     8.37126E+09    -1.76990E+09     8.19704E+09    -1.13008E+09     7.23736E+09    -797.594E+06    -27.7528E-06    -23.1273E-06    -175.115E+06
             777               1     4.91775E+09     4.52380E+09     4.52380E+09     297.715E+06    -873.957E+06     5.39776E+09    -1.31585E+09     4.58766E+09    -873.957E+06     4.52147E+09     300.053E+06     2.89092E-06    -925.093E-09    -99.3661E+06
             778               1     6.08472E+09     5.14296E+09     5.14296E+09    -380.070E+06    -1.37967E+09     6.52263E+09    -1.12774E+09     5.89574E+09    -1.37967E+09     5.05185E+09    -288.962E+06    -6.01311E-06    -4.62547E-06     703.487E+06
             779               1     5.79236E+09     5.25072E+09     5.25072E+09    -348.194E+06    -717.416E+06     5.96814E+09    -1.39504E+09     5.76579E+09    -717.416E+06     5.25042E+09    -347.895E+06    -5.69330E-06     5.55056E-06    -40.9326E+06
             780               1     6.68658E+09     5.48885E+09     5.48885E+09    -700.377E+06    -1.60332E+09     7.09217E+09    -1.06172E+09     6.54731E+09    -1.60332E+09     5.38858E+09    -600.102E+06    -18.0393E-06     6.47565E-06     781.389E+06
             781               1     7.39043E+09     6.19352E+09     6.19352E+09    -647.369E+06    -1.64509E+09     7.83860E+09    -1.30035E+09     7.23658E+09    -1.64509E+09     6.06166E+09    -515.509E+06     13.8764E-06    -9.25093E-06     940.561E+06
             782               1     8.46208E+09     7.34153E+09     7.34153E+09    -597.979E+06    -1.56077E+09     8.90229E+09    -1.72759E+09     8.33752E+09    -1.56077E+09     7.25090E+09    -507.358E+06     8.78839E-06    -26.3652E-06    -843.373E+06
             783               1     5.06662E+09     4.58611E+09     4.58611E+09     201.825E+06    -960.747E+06     5.54686E+09    -1.27573E+09     4.75241E+09    -960.747E+06     4.57112E+09     216.821E+06    -25.6713E-06     13.8764E-06    -255.978E+06
             784               1     4.90544E+09     4.53829E+09     4.53829E+09     322.236E+06    -845.714E+06     5.38400E+09    -1.33827E+09     4.57665E+09    -845.714E+06     4.53644E+09     324.083E+06     7.92111E-06    -23.5899E-06    -88.2163E+06
             785               1     6.60834E+09     5.48630E+09     5.48630E+09    -522.323E+06    -1.59141E+09     7.07771E+09    -1.12419E+09     6.40944E+09    -1.59141E+09     5.35571E+09    -391.733E+06    -9.25093E-06    -14.3389E-06     876.137E+06
             786               1     7.60327E+09     6.40176E+09     6.40176E+09    -682.458E+06    -1.63147E+09     8.03322E+09    -1.36261E+09     7.46828E+09    -1.63147E+09     6.25696E+09    -537.667E+06     231.273E-09     8.32584E-06     1.00238E+09
             787               1     9.26609E+09     8.24259E+09     8.24259E+09    -485.322E+06    -1.48122E+09     9.72381E+09    -2.09202E+09     9.14452E+09    -1.48122E+09     8.20945E+09    -452.182E+06    -26.8277E-06     18.0393E-06    -536.792E+06
             788               1     8.71669E+09     7.49756E+09     7.49756E+09    -884.413E+06    -1.51915E+09     9.01671E+09    -1.69800E+09     8.66447E+09    -1.51915E+09     7.49721E+09    -884.059E+06    -12.9513E-06     13.8764E-06    -54.4496E+06
             789               1     7.60000E+09     6.47138E+09     6.47138E+09    -569.740E+06    -1.58535E+09     8.05673E+09    -1.43877E+09     7.44503E+09    -1.58535E+09     6.28652E+09    -384.871E+06              0.    -8.32584E-06    -1.12584E+09
             790               1     7.97534E+09     6.84488E+09     6.84488E+09    -804.377E+06    -1.42078E+09     8.26565E+09    -1.53991E+09     7.92148E+09    -1.42078E+09     6.77669E+09    -736.192E+06    -18.0393E-06    -10.1760E-06    -718.969E+06
             791               1     6.36556E+09     5.23749E+09     5.23749E+09    -481.246E+06    -1.62093E+09     6.85842E+09    -1.04510E+09     6.12968E+09    -1.62093E+09     5.10482E+09    -348.574E+06     4.62547E-06     2.77528E-06    -860.878E+06
             792               1     7.21893E+09     6.13650E+09     6.13650E+09    -751.186E+06    -1.37339E+09     7.50989E+09    -1.33731E+09     7.15823E+09    -1.37339E+09     6.04440E+09    -659.087E+06    -12.7200E-06    -9.25093E-06    -791.120E+06
             793               1     5.52660E+09     4.92692E+09     4.92692E+09    -132.327E+06    -971.131E+06     5.89805E+09    -1.27449E+09     5.38059E+09    -971.131E+06     4.89840E+09    -103.804E+06    -1.38764E-06    -8.32584E-06    -378.797E+06
             794               1     5.24898E+09     4.78051E+09     4.78051E+09     8.20535E+06    -841.488E+06     5.62199E+09    -1.31574E+09     5.09080E+09    -841.488E+06     4.78044E+09     8.26929E+06    -5.86856E-06    -19.4270E-06     17.4681E+06
             795               1     5.04700E+09     4.55751E+09     4.55751E+09     186.462E+06    -966.070E+06     5.52358E+09    -1.25930E+09     4.73714E+09    -966.070E+06     4.54145E+09     202.518E+06    -3.81601E-06              0.     264.431E+06
             796               1     6.23154E+09     5.38627E+09     5.38627E+09    -456.239E+06    -1.17242E+09     6.55869E+09    -1.25254E+09     6.13793E+09    -1.17242E+09     5.31044E+09    -380.415E+06    -21.9710E-06    -29.6030E-06     661.250E+06
             797               1     8.63205E+09     7.45133E+09     7.45133E+09    -865.373E+06    -1.46483E+09     8.91616E+09    -1.70704E+09     8.58503E+09    -1.46483E+09     7.44208E+09    -856.124E+06    -13.8764E-06    -11.1011E-06     277.194E+06
             798               1     8.56480E+09     7.33403E+09     7.33403E+09    -918.961E+06    -1.51178E+09     8.84580E+09    -1.63443E+09     8.51845E+09    -1.51178E+09     7.31203E+09    -896.964E+06     2.77528E-06    -4.16292E-06    -425.512E+06
             799               1     8.23446E+09     7.17360E+09     7.17360E+09    -915.840E+06    -1.19860E+09     8.37220E+09    -1.68638E+09     8.22353E+09    -1.19860E+09     7.17214E+09    -914.386E+06     16.4204E-06     11.1011E-06    -108.428E+06
             800               1     5.11247E+09     4.67020E+09     4.67020E+09     92.7443E+06    -846.918E+06     5.51712E+09    -1.30534E+09     4.91251E+09    -846.918E+06     4.66973E+09     93.2120E+06     10.8003E-06     3.23783E-06    -46.2677E+06
             801               1     5.08208E+09     4.59477E+09     4.59477E+09     219.607E+06    -979.702E+06     5.57447E+09    -1.27822E+09     4.74777E+09    -979.702E+06     4.57594E+09     238.431E+06     42.0917E-06    -26.3652E-06     286.366E+06
             802               1     5.76460E+09     5.08113E+09     5.08113E+09    -231.555E+06    -1.04827E+09     6.12940E+09    -1.26710E+09     5.63223E+09    -1.04827E+09     5.02658E+09    -177.011E+06     31.5688E-06    -20.3521E-06     535.541E+06
             803               1     7.74125E+09     6.76590E+09     6.76590E+09    -815.914E+06    -1.12548E+09     7.89139E+09    -1.60817E+09     7.72730E+09    -1.12548E+09     6.74252E+09    -792.533E+06    -1.15637E-06     1.85019E-06     420.387E+06
             804               1     5.76995E+09     5.18512E+09     5.18512E+09    -256.255E+06    -865.115E+06     6.05024E+09    -1.35458E+09     5.69700E+09    -865.115E+06     5.16734E+09    -238.477E+06    -5.83965E-06    -28.6779E-06    -310.511E+06
             805               1     5.91713E+09     5.23575E+09     5.23575E+09    -316.022E+06    -989.153E+06     6.22491E+09    -1.31019E+09     5.83005E+09    -989.153E+06     5.19849E+09    -278.761E+06    -5.89747E-06    -7.40075E-06     453.294E+06
             806               1     9.30472E+09     8.36432E+09     8.36432E+09    -387.929E+06    -1.40869E+09     9.77301E+09    -2.18923E+09     9.17749E+09    -1.40869E+09     8.33381E+09    -357.421E+06     6.47565E-06     5.55056E-06     515.834E+06
             807               1     6.67791E+09     5.85809E+09     5.85809E+09    -574.583E+06    -1.04064E+09     6.89873E+09    -1.41429E+09     6.64117E+09    -1.04064E+09     5.81298E+09    -529.470E+06    -12.2575E-06     17.1142E-06    -536.809E+06
             808               1     5.21465E+09     4.74945E+09     4.74945E+09     1.51983E+06    -831.614E+06     5.58106E+09    -1.30645E+09     5.06166E+09    -831.614E+06     4.74550E+09     5.46359E+06    -10.2917E-06     2.77528E-06    -136.781E+06
             809               1     5.72287E+09     5.07629E+09     5.07629E+09    -234.947E+06    -984.374E+06     6.06067E+09    -1.28566E+09     5.61088E+09    -984.374E+06     5.03913E+09    -197.786E+06     2.89092E-06    -13.8764E-06    -442.705E+06
             810               1     8.60302E+09     7.45245E+09     7.45245E+09    -845.869E+06    -1.42590E+09     8.87835E+09    -1.72690E+09     8.55886E+09    -1.42590E+09     7.44030E+09    -833.712E+06     12.0262E-06    -10.6386E-06     317.392E+06
             811               1     6.47988E+09     5.47629E+09     5.47629E+09    -531.637E+06    -1.38998E+09     6.86627E+09    -1.18489E+09     6.35009E+09    -1.38998E+09     5.33267E+09    -388.018E+06    -1.15637E-06     9.25093E-06    -917.730E+06
             812               1     6.74171E+09     5.91206E+09     5.91206E+09    -592.705E+06    -1.04393E+09     6.95599E+09    -1.42514E+09     6.70761E+09    -1.04393E+09     5.86584E+09    -546.481E+06    -7.86329E-06    -29.6030E-06    -546.385E+06
             813               1     6.92904E+09     6.07198E+09     6.07198E+09    -664.138E+06    -1.03509E+09     7.10707E+09    -1.45758E+09     6.90665E+09    -1.03509E+09     6.02529E+09    -617.450E+06     4.62547E-06              0.     558.850E+06
             814               1     7.60529E+09     6.40230E+09     6.40230E+09    -686.363E+06    -1.63130E+09     8.03361E+09    -1.36155E+09     7.47151E+09    -1.63130E+09     6.27402E+09    -558.085E+06    -38.8539E-06     16.1891E-06    -944.914E+06
             815               1     7.36371E+09     6.37980E+09     6.37980E+09    -747.757E+06    -1.19928E+09     7.57908E+09    -1.47759E+09     7.33247E+09    -1.19928E+09     6.32324E+09    -691.192E+06    -1.61891E-06     462.547E-09     632.432E+06
             816               1     6.35999E+09     5.46584E+09     5.46584E+09    -515.214E+06    -1.21518E+09     6.68102E+09    -1.24515E+09     6.27246E+09    -1.21518E+09     5.37994E+09    -429.311E+06    -9.25093E-06    -3.23783E-06     711.625E+06
             817               1     7.67871E+09     6.55453E+09     6.55453E+09    -767.990E+06    -1.43663E+09     7.99117E+09    -1.44997E+09     7.61280E+09    -1.43663E+09     6.44504E+09    -658.492E+06     13.4139E-06     26.8277E-06     888.712E+06
             818               1     7.68218E+09     6.64528E+09     6.64528E+09    -885.774E+06    -1.17959E+09     7.82487E+09    -1.52664E+09     7.66952E+09    -1.17959E+09     6.62832E+09    -868.813E+06     925.093E-09     7.40075E-06    -357.000E+06
             819               1     5.45830E+09     4.92485E+09     4.92485E+09    -123.450E+06    -867.180E+06     5.79203E+09    -1.31141E+09     5.34252E+09    -867.180E+06     4.91271E+09    -111.307E+06    -462.547E-09    -1.85019E-06     247.294E+06
             820               1     8.71466E+09     7.54967E+09     7.54967E+09    -828.006E+06    -1.46681E+09     9.01648E+09    -1.75162E+09     8.66175E+09    -1.46681E+09     7.54949E+09    -827.821E+06    -4.16292E-06     8.32584E-06    -39.4023E+06
             821               1     6.79538E+09     6.03509E+09     6.03509E+09    -699.761E+06    -819.231E+06     6.85432E+09    -1.50537E+09     6.79301E+09    -699.761E+06     6.03405E+09    -818.191E+06    -8.90402E-06     925.093E-09    -84.4230E+06
             822               1     5.12882E+09     4.68909E+09     4.68909E+09     109.896E+06    -852.896E+06     5.54199E+09    -1.31536E+09     4.91930E+09    -852.896E+06     4.68687E+09     112.113E+06    -9.94475E-06    -41.1667E-06     100.728E+06
             823               1     5.66558E+09     5.11000E+09     5.11000E+09    -201.258E+06    -853.464E+06     5.96346E+09    -1.35176E+09     5.58019E+09    -853.464E+06     5.10205E+09    -193.306E+06    -16.8540E-06     2.31273E-06     205.357E+06
             824               1     5.58584E+09     5.07266E+09     5.07266E+09    -186.235E+06    -790.925E+06     5.86359E+09    -1.36517E+09     5.51149E+09    -790.925E+06     5.07136E+09    -184.935E+06     19.4848E-06    -32.8408E-06    -82.6700E+06
             825               1     6.70346E+09     5.95406E+09     5.95406E+09    -719.614E+06    -778.800E+06     6.73286E+09    -1.48521E+09     6.70287E+09    -719.614E+06     5.94419E+09    -768.929E+06     1.38764E-06    -1.38764E-06    -257.605E+06
             826               1     7.73450E+09     6.60162E+09     6.60162E+09    -842.088E+06    -1.39411E+09     7.99572E+09    -1.45514E+09     7.69000E+09    -1.39411E+09     6.49271E+09    -733.177E+06    -15.0328E-06    -8.32584E-06     893.778E+06
             827               1     6.96839E+09     5.90283E+09     5.90283E+09    -706.314E+06    -1.37640E+09     7.27923E+09    -1.27337E+09     6.89535E+09    -1.37640E+09     5.78115E+09    -584.636E+06    -4.85674E-06    -12.9513E-06     888.470E+06
             828               1     6.20075E+09     5.57024E+09     5.57024E+09    -564.488E+06    -694.486E+06     6.26473E+09    -1.43709E+09     6.19768E+09    -694.486E+06     5.56833E+09    -562.581E+06    -751.638E-09    -37.0037E-06    -108.154E+06
             829               1     5.32423E+09     4.79047E+09     4.79047E+09    -43.3682E+06    -916.266E+06     5.70674E+09    -1.27695E+09     5.15955E+09    -916.266E+06     4.77563E+09    -28.5281E+06    -13.2982E-06     8.32584E-06     267.422E+06
             830               1     6.17129E+09     5.50051E+09     5.50051E+09    -463.255E+06    -859.222E+06     6.35973E+09    -1.39268E+09     6.14261E+09    -859.222E+06     5.48018E+09    -442.925E+06    -45.3296E-06    -12.4888E-06     347.612E+06
             831               1     8.27587E+09     7.06725E+09     7.06725E+09    -952.810E+06    -1.44267E+09     8.50992E+09    -1.55726E+09     8.24316E+09    -1.44267E+09     7.02136E+09    -906.920E+06    -3.70037E-06     3.70037E-06     604.927E+06
             832               1     7.74000E+09     6.65522E+09     6.65522E+09    -971.106E+06    -1.19364E+09     7.84886E+09    -1.49683E+09     7.73279E+09    -1.19364E+09     6.65327E+09    -969.146E+06     3.23783E-06    -7.40075E-06     122.218E+06
             833               1     7.30677E+09     6.34291E+09     6.34291E+09    -734.722E+06    -1.17324E+09     7.51615E+09    -1.47832E+09     7.27707E+09    -1.17324E+09     6.30592E+09    -697.729E+06     11.3324E-06    -32.8408E-06    -510.344E+06
             834               1     6.39635E+09     5.74106E+09     5.74106E+09    -639.761E+06    -670.724E+06     6.41178E+09    -1.47686E+09     6.39619E+09    -639.761E+06     5.73880E+09    -668.466E+06    -26.1339E-06    -33.7659E-06    -120.295E+06
             835               1     7.40603E+09     6.46023E+09     6.46023E+09    -922.329E+06    -969.061E+06     7.42929E+09    -1.52295E+09     7.40570E+09    -969.061E+06     6.46020E+09    -922.306E+06     4.85674E-06    -23.1273E-06     12.9069E+06
             836               1     6.80098E+09     5.95642E+09     5.95642E+09    -618.337E+06    -1.05020E+09     7.00662E+09    -1.42930E+09     6.77003E+09    -1.05020E+09     5.91635E+09    -578.263E+06     26.3652E-06    -23.1273E-06     511.734E+06
             837               1     6.33254E+09     5.66951E+09     5.66951E+09    -608.688E+06    -715.996E+06     6.38551E+09    -1.44828E+09     6.33049E+09    -715.996E+06     5.66730E+09    -606.478E+06    -15.7844E-06    -22.6648E-06     117.765E+06
             838               1     5.91042E+09     5.33706E+09     5.33706E+09    -369.430E+06    -758.089E+06     6.09515E+09    -1.40318E+09     5.88156E+09    -758.089E+06     5.33332E+09    -365.691E+06    -24.1681E-06    -27.7528E-06     146.035E+06
             839               1     5.97226E+09     5.37518E+09     5.37518E+09    -373.946E+06    -797.651E+06     6.17283E+09    -1.40119E+09     5.93830E+09    -797.651E+06     5.36471E+09    -363.481E+06    -5.43492E-06     18.0393E-06    -245.065E+06
             840               1     5.28431E+09     4.83941E+09     4.83941E+09    -32.0306E+06    -778.409E+06     5.61782E+09    -1.34299E+09     5.16372E+09    -778.409E+06     4.83937E+09    -31.9872E+06    -34.1562E-06     71.2322E-06     14.5555E+06
             841               1     7.15132E+09     6.23962E+09     6.23962E+09    -869.651E+06    -953.014E+06     7.19264E+09    -1.47232E+09     7.15023E+09    -953.014E+06     6.22973E+09    -859.758E+06    -8.78839E-06     31.9157E-06     265.030E+06
             842               1     7.45155E+09     6.47605E+09     6.47605E+09    -792.015E+06    -1.14635E+09     7.62239E+09    -1.51256E+09     7.43256E+09    -1.14635E+09     6.44854E+09    -764.508E+06    -1.38764E-06    -20.3521E-06     446.284E+06
             843               1     7.83757E+09     6.83265E+09     6.83265E+09    -841.062E+06    -1.15910E+09     7.99175E+09    -1.61083E+09     7.82303E+09    -1.15910E+09     6.80619E+09    -814.599E+06    -24.5150E-06     24.0524E-06    -449.854E+06
             844               1     7.96283E+09     6.95170E+09     6.95170E+09    -855.178E+06    -1.15842E+09     8.11012E+09    -1.64603E+09     7.94982E+09    -1.15842E+09     6.92977E+09    -833.246E+06    -5.78183E-06    -11.5637E-06     413.203E+06
             845               1     6.39536E+09     5.65090E+09     5.65090E+09    -581.680E+06    -895.678E+06     6.54658E+09    -1.39118E+09     6.37799E+09    -895.678E+06     5.63538E+09    -566.163E+06     693.820E-09    -6.47565E-06    -310.594E+06
             846               1     5.96950E+09     5.19359E+09     5.19359E+09    -320.771E+06    -1.14532E+09     6.33891E+09    -1.24250E+09     5.83932E+09    -1.14532E+09     5.12762E+09    -254.802E+06     4.85674E-06    -4.62547E-06    -599.519E+06
             847               1     6.66599E+09     5.95141E+09     5.95141E+09    -683.594E+06    -745.130E+06     6.69654E+09    -1.50756E+09     6.66535E+09    -683.594E+06     5.94751E+09    -741.222E+06    -6.24438E-06    -20.3521E-06     161.725E+06
             848               1     7.25507E+09     6.33504E+09     6.33504E+09    -866.648E+06    -972.269E+06     7.30730E+09    -1.49871E+09     7.25334E+09    -972.269E+06     6.33045E+09    -862.060E+06     2.08146E-06    -14.8015E-06    -181.711E+06
             849               1     6.12359E+09     5.48464E+09     5.48464E+09    -483.402E+06    -783.449E+06     6.26809E+09    -1.40593E+09     6.10701E+09    -783.449E+06     5.46874E+09    -467.502E+06    -5.66620E-06    -13.8764E-06     307.635E+06
             850               1     6.85130E+09     6.10773E+09     6.10773E+09    -606.182E+06    -873.158E+06     6.98089E+09    -1.54280E+09     6.83958E+09    -606.182E+06     6.10764E+09    -873.072E+06     7.40075E-06     3.70037E-06    -24.4869E+06
             851               1     6.19146E+09     5.57263E+09     5.57263E+09    -579.786E+06    -657.165E+06     6.22979E+09    -1.44522E+09     6.19038E+09    -657.165E+06     5.57225E+09    -579.413E+06    -38.8539E-06    -8.78839E-06    -47.9162E+06
             852               1     7.19231E+09     6.31454E+09     6.31454E+09    -856.956E+06    -898.405E+06     7.21295E+09    -1.51973E+09     7.19204E+09    -898.405E+06     6.30658E+09    -848.997E+06    -3.00655E-06    -35.1535E-06     238.779E+06
             853               1     7.87820E+09     6.73804E+09     6.73804E+09    -986.013E+06    -1.28575E+09     8.02379E+09    -1.48876E+09     7.86536E+09    -1.28575E+09     6.73460E+09    -982.572E+06     16.8830E-06     2.77528E-06    -162.985E+06
             854               1     6.80063E+09     6.04112E+09     6.04112E+09    -675.776E+06    -840.262E+06     6.88138E+09    -1.50836E+09     6.79615E+09    -675.776E+06     6.04104E+09    -840.184E+06              0.    -37.0037E-06    -23.1255E+06
             855               1     6.82379E+09     6.06340E+09     6.06340E+09    -678.608E+06    -839.332E+06     6.90273E+09    -1.51515E+09     6.81953E+09    -678.608E+06     6.06309E+09    -839.027E+06    -8.03675E-06     24.5150E-06     45.9194E+06
             856               1     6.45283E+09     5.77933E+09     5.77933E+09    -654.433E+06    -692.403E+06     6.47173E+09    -1.47750E+09     6.45258E+09    -654.433E+06     5.77910E+09    -692.180E+06    -6.59129E-06     5.55056E-06     38.0449E+06
             857               1     6.61297E+09     5.90058E+09     5.90058E+09    -642.852E+06    -779.805E+06     6.68039E+09    -1.49264E+09     6.60978E+09    -642.852E+06     5.89919E+09    -778.417E+06     13.5295E-06    -8.32584E-06     96.2943E+06
             858               1     6.94463E+09     6.13417E+09     6.13417E+09    -787.014E+06    -833.680E+06     6.96785E+09    -1.50449E+09     6.94428E+09    -787.014E+06     6.12637E+09    -825.881E+06    -22.7804E-06     3.23783E-06    -232.984E+06
             859               1     6.95928E+09     6.16529E+09     6.16529E+09    -729.697E+06    -856.548E+06     7.02184E+09    -1.52635E+09     6.95668E+09    -729.697E+06     6.16415E+09    -855.408E+06    -13.4139E-06     3.70037E-06     89.4570E+06
             860               1     6.38539E+09     5.72917E+09     5.72917E+09    -611.464E+06    -700.051E+06     6.42922E+09    -1.47255E+09     6.38401E+09    -611.464E+06     5.72909E+09    -699.972E+06    -19.6004E-06              0.    -22.4689E+06
             861               1     6.68476E+09     5.96729E+09     5.96729E+09    -594.225E+06    -834.237E+06     6.80153E+09    -1.51294E+09     6.67505E+09    -594.225E+06     5.96727E+09    -834.213E+06     23.4742E-06     28.6779E-06    -12.8208E+06
             862               1     6.73371E+09     5.99754E+09     5.99754E+09    -674.547E+06    -796.138E+06     6.79368E+09    -1.50895E+09     6.73124E+09    -674.547E+06     5.99672E+09    -795.312E+06     1.73455E-06     9.71348E-06    -74.8885E+06
             863               1     6.62203E+09     5.93483E+09     5.93483E+09    -555.157E+06    -811.776E+06     6.74661E+09    -1.52263E+09     6.61083E+09    -555.157E+06     5.93476E+09    -811.706E+06    -173.455E-09     48.1049E-06     21.7679E+06
             864               1     7.24931E+09     6.38594E+09     6.38594E+09    -820.742E+06    -905.257E+06     7.29120E+09    -1.55332E+09     7.24820E+09    -820.742E+06     6.38569E+09    -905.007E+06    -18.2706E-06    -10.1760E-06    -42.7391E+06
             865               1     6.52020E+09     5.86476E+09     5.86476E+09    -491.038E+06    -808.278E+06     6.67303E+09    -1.52181E+09     6.50281E+09    -491.038E+06     5.86474E+09    -808.266E+06    -22.8961E-06    -7.86329E-06     8.63429E+06
             866               1     6.85992E+09     5.85642E+09     5.85642E+09    -624.093E+06    -1.32855E+09     7.18497E+09    -1.30126E+09     6.77783E+09    -1.32855E+09     5.72867E+09    -496.345E+06    -11.7949E-06    -4.62547E-06     900.864E+06
             867               1     7.40687E+09     6.29737E+09     6.29737E+09    -758.329E+06    -1.41671E+09     7.71408E+09    -1.37411E+09     7.34061E+09    -1.41671E+09     6.19340E+09    -654.354E+06     12.9513E-06    -13.8764E-06    -850.177E+06
             868               1     6.24203E+09     5.41617E+09     5.41617E+09    -445.970E+06    -1.14663E+09     6.56280E+09    -1.27452E+09     6.15262E+09    -1.14663E+09     5.35015E+09    -379.955E+06     6.01311E-06    -36.5412E-06    -618.574E+06
             869               1     8.21495E+09     7.01955E+09     7.01955E+09    -923.191E+06    -1.44291E+09     8.46247E+09    -1.55115E+09     8.17783E+09    -1.44291E+09     6.96862E+09    -872.260E+06    -24.0524E-06     3.23783E-06     633.984E+06
             870               1     8.51431E+09     7.30862E+09     7.30862E+09    -889.107E+06    -1.49040E+09     8.79901E+09    -1.64304E+09     8.46634E+09    -1.49040E+09     7.28818E+09    -868.668E+06     9.25093E-06    -17.1142E-06    -408.825E+06
             871               1     8.20109E+09     7.14159E+09     7.14159E+09    -911.137E+06    -1.20022E+09     8.34181E+09    -1.67675E+09     8.18962E+09    -1.20022E+09     7.13820E+09    -907.744E+06     15.7266E-06    -8.32584E-06     165.263E+06
             872               1     8.16383E+09     7.14783E+09     7.14783E+09    -840.057E+06    -1.18124E+09     8.32907E+09    -1.70885E+09     8.14776E+09    -1.18124E+09     7.12823E+09    -820.451E+06    -6.93820E-06     16.1891E-06    -395.256E+06
             873               1     7.40799E+09     6.43528E+09     6.43528E+09    -828.001E+06    -1.10940E+09     7.54468E+09    -1.49929E+09     7.39595E+09    -1.10940E+09     6.42291E+09    -815.631E+06     17.8080E-06     20.3521E-06    -299.485E+06
             874               1     5.91253E+09     5.33177E+09     5.33177E+09    -394.566E+06    -750.842E+06     6.08261E+09    -1.39545E+09     5.88830E+09    -750.842E+06     5.33112E+09    -393.921E+06    -4.56765E-06    -52.7303E-06     60.7347E+06
             875               1     6.32137E+09     5.65615E+09     5.65615E+09    -618.575E+06    -710.864E+06     6.36701E+09    -1.44224E+09     6.31986E+09    -710.864E+06     5.64860E+09    -611.029E+06     3.26674E-06     8.78839E-06     217.471E+06
             876               1     4.89844E+09     4.51997E+09     4.51997E+09     264.971E+06    -834.915E+06     5.35488E+09    -1.31667E+09     4.60816E+09    -833.253E+06     4.51818E+09     265.099E+06    -29.6420E+06     40.1020E+06     83.3915E+06
             877               1     5.07874E+09     4.57389E+09     4.57389E+09     156.723E+06    -975.375E+06     5.54926E+09    -1.25174E+09     4.78233E+09    -972.359E+06     4.54945E+09     178.147E+06     108.708E+06     25.3825E+06    -313.645E+06
             878               1     5.38989E+09     4.69257E+09     4.69257E+09    -75.0790E+06    -1.15579E+09     5.84836E+09    -1.15390E+09     5.13757E+09    -1.15129E+09     4.62819E+09    -15.1928E+06    -149.126E+06     12.8572E+06     534.345E+06
             879               1     5.69207E+09     4.65767E+09     4.65767E+09    -406.511E+06    -1.50281E+09     6.16048E+09    -916.115E+06     5.44689E+09    -1.49751E+09     4.57797E+09    -332.112E+06     179.430E+06    -17.3364E+06    -609.045E+06
             880               1     8.40753E+09     7.34138E+09     7.34138E+09    -473.242E+06    -1.55445E+09     8.89583E+09    -1.77123E+09     8.24894E+09    -1.55007E+09     7.21474E+09    -350.998E+06    -182.431E+06    -45.7077E+06     971.320E+06
             881               1     9.24697E+09     8.14837E+09     8.14837E+09    -552.408E+06    -1.56195E+09     9.71032E+09    -2.01134E+09     9.12175E+09    -1.55939E+09     8.14581E+09    -552.400E+06    -157.403E+06    -729.835E+03    -8.84711E+06
             882               1     9.01517E+09     7.92514E+09     7.92514E+09    -518.056E+06    -1.56976E+09     9.49489E+09    -1.94577E+09     8.87558E+09    -1.56651E+09     7.88570E+09    -481.872E+06    -168.689E+06     25.7917E+06    -553.001E+06
             883               1     6.70637E+09     5.52338E+09     5.52338E+09    -678.445E+06    -1.59356E+09     7.11694E+09    -1.08379E+09     6.56370E+09    -1.58783E+09     5.37104E+09    -531.836E+06    -198.095E+06     36.0595E+06    -941.856E+06
             884               1     5.89866E+09     4.95184E+09     4.95184E+09    -366.005E+06    -1.39281E+09     6.34465E+09    -1.06434E+09     5.69236E+09    -1.38752E+09     4.84327E+09    -262.720E+06    -180.249E+06     12.2981E+06    -734.106E+06
             885               1     5.34874E+09     4.65162E+09     4.65162E+09    -72.2965E+06    -1.15599E+09     5.80760E+09    -1.14111E+09     5.09288E+09    -1.15171E+09     4.59454E+09    -19.4949E+06    -146.095E+06    -12.0788E+06    -499.725E+06
             886               1     4.86293E+09     4.48077E+09     4.48077E+09     264.085E+06    -838.932E+06     5.31970E+09    -1.30197E+09     4.56858E+09    -837.408E+06     4.47898E+09     264.347E+06     38.0310E+06    -36.5628E+06     80.1354E+06
             887               1     5.38128E+09     4.64751E+09     4.64751E+09    -112.191E+06    -1.19170E+09     5.83920E+09    -1.11454E+09     5.12911E+09    -1.18750E+09     4.59641E+09    -65.2848E+06     149.205E+06    -7.24533E+06     472.242E+06
             888               1     5.87259E+09     4.88266E+09     4.88266E+09    -403.629E+06    -1.43862E+09     6.32128E+09    -1.01347E+09     5.66192E+09    -1.43338E+09     4.77909E+09    -305.289E+06     180.254E+06     17.6230E+06     714.092E+06
             889               1     5.25171E+09     4.78962E+09     4.78962E+09     33.6394E+06    -846.585E+06     5.63620E+09    -1.32556E+09     5.08176E+09    -842.277E+06     4.77895E+09     40.0048E+06    -66.4284E+06    -53.0623E+06    -217.349E+06
             890               1     8.44143E+09     7.33276E+09     7.33276E+09    -544.143E+06    -1.57797E+09     8.91073E+09    -1.73688E+09     8.29721E+09    -1.57343E+09     7.22225E+09    -438.172E+06     182.903E+06     46.6520E+06     909.832E+06
             891               1     9.02418E+09     7.91482E+09     7.91482E+09    -573.305E+06    -1.56371E+09     9.47852E+09    -1.92593E+09     8.90067E+09    -1.56019E+09     7.87466E+09    -536.666E+06     177.813E+06     23.3434E+06     557.382E+06
             892               1     9.22929E+09     8.14721E+09     8.14721E+09    -532.739E+06    -1.54754E+09     9.69475E+09    -2.02231E+09     9.10250E+09    -1.54443E+09     8.14398E+09    -532.618E+06     173.438E+06    -425.795E+03     32.5501E+06
             893               1     7.93770E+09     6.83916E+09     6.83916E+09    -998.634E+06    -1.19481E+09     8.03396E+09    -1.54857E+09     7.93224E+09    -1.18446E+09     6.82762E+09    -997.445E+06     287.232E+06     7.05579E+06     98.8557E+06
             894               1     8.40829E+09     7.19635E+09     7.19635E+09    -719.989E+06    -1.62989E+09     8.82624E+09    -1.61549E+09     8.29645E+09    -1.62520E+09     7.07695E+09    -605.271E+06     193.290E+06    -40.0527E+06    -946.997E+06
             895               1     5.39725E+09     4.66370E+09     4.66370E+09    -65.6737E+06    -1.21596E+09     5.87966E+09    -1.12736E+09     5.11042E+09    -1.21170E+09     4.60151E+09    -7.73973E+06     150.642E+06     6.93337E+06    -522.191E+06
             896               1     6.61024E+09     5.89348E+09     5.89348E+09    -662.416E+06    -769.802E+06     6.66328E+09    -1.48709E+09     6.60828E+09    -749.263E+06     5.87105E+09    -660.526E+06    -166.183E+06     29.9655E+06     346.799E+06
             897               1     6.84220E+09     5.88110E+09     5.88110E+09    -551.865E+06    -1.30758E+09     7.18868E+09    -1.34055E+09     6.74734E+09    -1.30105E+09     5.78200E+09    -459.293E+06    -211.548E+06     9.97220E+06    -767.065E+06
             898               1     6.45214E+09     5.76432E+09     5.76432E+09    -606.396E+06    -766.268E+06     6.53059E+09    -1.46389E+09     6.44768E+09    -747.052E+06     5.74736E+09    -608.653E+06    -136.337E+06    -42.2015E+06    -300.687E+06
             899               1     8.28843E+09     7.16365E+09     7.16365E+09    -778.985E+06    -1.43194E+09     8.59560E+09    -1.65091E+09     8.23027E+09    -1.42579E+09     7.10273E+09    -724.210E+06    -226.935E+06     26.2888E+06    -657.552E+06
             900               1     6.45692E+09     5.81405E+09     5.81405E+09    -513.888E+06    -764.548E+06     6.57860E+09    -1.51187E+09     6.44596E+09    -520.373E+06     5.81404E+09    -758.050E+06    -7.24460E+06    -39.8086E+06    -5.89328E+06
             901               1     8.27097E+09     7.05425E+09     7.05425E+09    -951.189E+06    -1.45887E+09     8.51311E+09    -1.54806E+09     8.23580E+09    -1.44722E+09     7.03896E+09    -947.548E+06     313.233E+06     765.465E+03    -173.188E+06
             902               1     4.87712E+09     4.49541E+09     4.49541E+09     251.701E+06    -832.620E+06     5.32803E+09    -1.30483E+09     4.59403E+09    -830.870E+06     4.49269E+09     252.670E+06     41.1991E+06     38.5957E+06    -101.203E+06
             903               1     6.06192E+09     5.10719E+09     5.10719E+09    -424.237E+06    -1.37328E+09     6.48047E+09    -1.10322E+09     5.89130E+09    -1.36784E+09     5.00832E+09    -330.814E+06    -184.473E+06    -10.4474E+06     713.169E+06
             904               1     5.82220E+09     5.27168E+09     5.27168E+09    -352.534E+06    -730.119E+06     6.00180E+09    -1.39634E+09     5.79456E+09    -715.818E+06     5.27138E+09    -366.528E+06     18.7894E+06     71.8198E+06    -37.6112E+06
             905               1     6.61647E+09     5.36744E+09     5.36744E+09    -767.892E+06    -1.64306E+09     7.01050E+09    -985.496E+06     6.48433E+09    -1.63719E+09     5.25019E+09    -656.510E+06    -199.350E+06    -33.0738E+06     818.873E+06
             906               1     7.34847E+09     6.07526E+09     6.07526E+09    -732.730E+06    -1.71490E+09     7.79016E+09    -1.20921E+09     7.19858E+09    -1.70958E+09     5.92466E+09    -587.438E+06    -189.579E+06    -49.1943E+06     985.035E+06
             907               1     8.32030E+09     7.07778E+09     7.07778E+09    -716.922E+06    -1.68367E+09     8.76145E+09    -1.55906E+09     8.19252E+09    -1.67935E+09     6.96634E+09    -609.795E+06    -179.321E+06     42.9734E+06    -909.309E+06
             908               1     5.04504E+09     4.55654E+09     4.55654E+09     157.401E+06    -950.309E+06     5.50685E+09    -1.25454E+09     4.75975E+09    -947.596E+06     4.53860E+09     172.632E+06    -96.8471E+06    -28.6710E+06    -267.326E+06
             909               1     4.88091E+09     4.51485E+09     4.51485E+09     291.240E+06    -828.701E+06     5.34355E+09    -1.32579E+09     4.57824E+09    -827.206E+06     4.51302E+09     291.573E+06    -32.1432E+06    -37.6612E+06    -83.3259E+06
             910               1     6.59103E+09     5.38469E+09     5.38469E+09    -671.504E+06    -1.63509E+09     7.01979E+09    -1.02603E+09     6.42970E+09    -1.62950E+09     5.23102E+09    -523.428E+06     192.833E+06     39.6444E+06     935.163E+06
             911               1     7.54593E+09     6.26808E+09     6.26808E+09    -771.879E+06    -1.69827E+09     7.96635E+09    -1.26598E+09     7.41637E+09    -1.69322E+09     6.10237E+09    -611.219E+06     187.704E+06     47.8330E+06     1.05220E+09
             912               1     8.93623E+09     7.79688E+09     7.79688E+09    -610.774E+06    -1.58766E+09     9.38454E+09    -1.86615E+09     8.81490E+09    -1.58403E+09     7.75097E+09    -568.495E+06     178.409E+06    -26.0975E+06    -595.864E+06
             913               1     9.02671E+09     7.90037E+09     7.90037E+09    -774.153E+06    -1.44149E+09     9.34186E+09    -1.89491E+09     8.97096E+09    -1.43697E+09     7.89531E+09    -773.616E+06     205.352E+06    -3.47253E+06    -68.5450E+06
             914               1     7.48628E+09     6.32304E+09     6.32304E+09    -611.045E+06    -1.61427E+09     7.93731E+09    -1.36591E+09     7.33276E+09    -1.60866E+09     6.12349E+09    -417.103E+06     197.543E+06    -53.2838E+06    -1.14399E+09
             915               1     8.11049E+09     7.02605E+09     7.02605E+09    -729.307E+06    -1.39815E+09     8.42420E+09    -1.63287E+09     8.04809E+09    -1.39188E+09     6.96757E+09    -677.092E+06     228.071E+06    -23.3594E+06    -634.136E+06
             916               1     6.34466E+09     5.13666E+09     5.13666E+09    -600.701E+06    -1.67749E+09     6.81415E+09    -952.822E+06     6.13401E+09    -1.67201E+09     4.98179E+09    -451.320E+06     185.387E+06    -44.2391E+06    -913.741E+06
             917               1     7.31647E+09     6.23712E+09     6.23712E+09    -710.102E+06    -1.39976E+09     7.63688E+09    -1.37575E+09     7.24280E+09    -1.39335E+09     6.14383E+09    -623.230E+06     216.381E+06    -10.1061E+06    -772.945E+06
             918               1     5.47588E+09     4.90439E+09     4.90439E+09    -113.005E+06    -936.670E+06     5.84106E+09    -1.28490E+09     5.33384E+09    -930.852E+06     4.87520E+09    -89.6392E+06     115.548E+06     46.5546E+06    -367.406E+06
             919               1     5.17286E+09     4.75292E+09     4.75292E+09     31.6251E+06    -776.404E+06     5.52932E+09    -1.33605E+09     5.02793E+09    -772.240E+06     4.75284E+09     27.5431E+06    -5.27632E+06     57.7990E+06     19.0486E+06
             920               1     5.01581E+09     4.53137E+09     4.53137E+09     161.824E+06    -945.621E+06     5.47699E+09    -1.24919E+09     4.72886E+09    -942.723E+06     4.51414E+09     176.157E+06    -95.6079E+06     32.2672E+06     260.881E+06
             921               1     6.21316E+09     5.39554E+09     5.39554E+09    -407.794E+06    -1.15911E+09     6.55465E+09    -1.27621E+09     6.10971E+09    -1.15246E+09     5.32252E+09    -341.425E+06    -183.969E+06     15.1757E+06     624.330E+06
             922               1     8.85142E+09     7.72726E+09     7.72726E+09    -781.376E+06    -1.43114E+09     9.15840E+09    -1.83825E+09     8.79752E+09    -1.42514E+09     7.71510E+09    -775.224E+06    -229.842E+06    -18.0001E+06     232.522E+06
             923               1     8.80660E+09     7.63616E+09     7.63616E+09    -846.804E+06    -1.46184E+09     9.09800E+09    -1.77584E+09     8.75809E+09    -1.45643E+09     7.61070E+09    -826.760E+06    -221.241E+06     13.1739E+06    -411.823E+06
             924               1     8.20265E+09     7.01036E+09     7.01036E+09    -1.00173E+09    -1.37041E+09     8.38077E+09    -1.54607E+09     8.18397E+09    -1.35900E+09     6.99815E+09    -1.00093E+09    -298.686E+06    -12.5355E+06    -111.960E+06
             925               1     5.07259E+09     4.66415E+09     4.66415E+09     131.054E+06    -814.787E+06     5.47893E+09    -1.32680E+09     4.86822E+09    -812.197E+06     4.66346E+09     129.146E+06    -17.6477E+06    -48.7184E+06    -53.4191E+06
             926               1     5.04965E+09     4.57819E+09     4.57819E+09     200.657E+06    -946.271E+06     5.52446E+09    -1.27753E+09     4.74313E+09    -943.624E+06     4.55742E+09     218.788E+06     101.560E+06    -24.5052E+06     287.566E+06
             927               1     5.74809E+09     5.08801E+09     5.08801E+09    -202.007E+06    -1.02866E+09     6.11666E+09    -1.28578E+09     5.61202E+09    -1.02261E+09     5.03508E+09    -155.124E+06     145.883E+06    -33.6283E+06     509.957E+06
             928               1     7.65505E+09     6.61744E+09     6.61744E+09    -841.932E+06    -1.21932E+09     7.83676E+09    -1.51873E+09     7.63407E+09    -1.20699E+09     6.58138E+09    -818.198E+06     265.620E+06    -19.8242E+06     449.128E+06
             929               1     5.71426E+09     5.15301E+09     5.15301E+09    -288.388E+06    -799.736E+06     5.95275E+09    -1.35496E+09     5.66244E+09    -789.183E+06     5.13307E+09    -278.997E+06     88.9372E+06     63.3598E+06    -318.901E+06
             930               1     5.85685E+09     5.21291E+09     5.21291E+09    -277.266E+06    -952.156E+06     6.16506E+09    -1.32783E+09     5.76840E+09    -945.453E+06     5.17352E+09    -244.580E+06    -136.457E+06     39.7899E+06     446.365E+06
             931               1     9.08823E+09     8.02674E+09     8.02674E+09    -490.204E+06    -1.54136E+09     9.56810E+09    -1.99839E+09     8.94994E+09    -1.53823E+09     7.98580E+09    -452.400E+06    -168.477E+06    -22.8202E+06     567.012E+06
             932               1     6.66378E+09     5.80872E+09     5.80872E+09    -614.646E+06    -1.07192E+09     6.88065E+09    -1.37405E+09     6.62835E+09    -1.06025E+09     5.75603E+09    -573.630E+06    -203.140E+06    -34.3132E+06    -546.845E+06
             933               1     5.22437E+09     4.77066E+09     4.77066E+09     55.7617E+06    -845.826E+06     5.61649E+09    -1.32687E+09     5.04487E+09    -841.817E+06     4.76628E+09     56.1398E+06     44.4607E+06     56.2209E+06    -138.349E+06
             934               1     5.69828E+09     5.08522E+09     5.08522E+09    -185.936E+06    -960.869E+06     6.04609E+09    -1.31280E+09     5.57788E+09    -954.780E+06     5.05004E+09    -156.850E+06    -132.535E+06    -40.4781E+06    -412.152E+06
             935               1     8.85758E+09     7.74972E+09     7.74972E+09    -757.800E+06    -1.42067E+09     9.17039E+09    -1.85708E+09     8.80152E+09    -1.41471E+09     7.73625E+09    -750.290E+06     230.198E+06     17.1914E+06     255.233E+06
             936               1     6.47053E+09     5.52489E+09     5.52489E+09    -461.661E+06    -1.33990E+09     6.86480E+09    -1.24111E+09     6.33436E+09    -1.33447E+09     5.39851E+09    -340.712E+06     191.170E+06    -20.2813E+06    -842.097E+06
             937               1     6.71823E+09     5.83442E+09     5.83442E+09    -625.280E+06    -1.11550E+09     6.94991E+09    -1.36455E+09     6.67781E+09    -1.10292E+09     5.77586E+09    -579.300E+06     209.485E+06     37.3699E+06    -579.892E+06
             938               1     6.89418E+09     5.98102E+09     5.98102E+09    -711.914E+06    -1.09817E+09     7.07919E+09    -1.39031E+09     6.86977E+09    -1.08495E+09     5.92642E+09    -670.528E+06    -214.197E+06     33.2311E+06     566.656E+06
             939               1     7.51192E+09     6.21585E+09     6.21585E+09    -816.790E+06    -1.69767E+09     7.91353E+09    -1.23380E+09     7.39438E+09    -1.69217E+09     6.06056E+09    -667.000E+06    -193.655E+06     49.8774E+06    -1.01670E+09
             940               1     7.36257E+09     6.30163E+09     6.30163E+09    -846.425E+06    -1.25817E+09     7.55980E+09    -1.39901E+09     7.33660E+09    -1.24859E+09     6.24263E+09    -797.012E+06     250.435E+06    -2.46973E+06     599.955E+06
             941               1     6.33164E+09     5.47053E+09     5.47053E+09    -434.515E+06    -1.21530E+09     6.68583E+09    -1.27357E+09     6.22195E+09    -1.20847E+09     5.38761E+09    -358.422E+06     188.721E+06    -14.3556E+06     672.892E+06
             942               1     7.74537E+09     6.66008E+09     6.66008E+09    -695.034E+06    -1.42401E+09     8.08409E+09    -1.51368E+09     7.66762E+09    -1.41775E+09     6.56097E+09    -602.192E+06     222.915E+06     28.2799E+06     820.826E+06
             943               1     7.51220E+09     6.50419E+09     6.50419E+09    -901.939E+06    -1.10975E+09     7.61395E+09    -1.49750E+09     7.50572E+09    -1.09915E+09     6.47756E+09    -885.908E+06     257.388E+06     7.29836E+06    -364.169E+06
             944               1     5.44147E+09     4.93676E+09     4.93676E+09    -96.5762E+06    -837.011E+06     5.77377E+09    -1.33439E+09     5.32636E+09    -831.747E+06     4.92458E+09    -89.6651E+06    -74.0331E+06     53.3339E+06     238.201E+06
             945               1     8.97065E+09     7.86912E+09     7.86912E+09    -728.661E+06    -1.43288E+09     9.30200E+09    -1.90253E+09     8.90814E+09    -1.42717E+09     7.86317E+09    -728.422E+06    -229.383E+06     7.33729E+06    -49.9603E+06
             946               1     6.65686E+09     5.98728E+09     5.98728E+09    -507.017E+06    -821.033E+06     6.80831E+09    -1.55308E+09     6.64016E+09    -506.771E+06     5.98507E+09    -819.067E+06     105.522E+06     20.4827E+06    -58.4824E+06
             947               1     5.08430E+09     4.68708E+09     4.68708E+09     159.572E+06    -813.389E+06     5.50047E+09    -1.34442E+09     4.86819E+09    -810.646E+06     4.68474E+09     159.175E+06     34.1529E+06    -48.9572E+06     98.5873E+06
             948               1     5.56942E+09     5.06544E+09     5.06544E+09    -218.009E+06    -751.560E+06     5.81700E+09    -1.36529E+09     5.51148E+09    -742.437E+06     5.05721E+09    -218.903E+06     72.5422E+06    -63.2726E+06     197.488E+06
             949               1     5.54683E+09     5.04978E+09     5.04978E+09    -206.408E+06    -747.963E+06     5.79774E+09    -1.36514E+09     5.48688E+09    -739.207E+06     5.04823E+09    -213.616E+06    -37.2124E+06    -66.8501E+06    -83.4156E+06
             950               1     6.72482E+09     5.95585E+09     5.95585E+09    -734.490E+06    -802.916E+06     6.75877E+09    -1.47282E+09     6.72404E+09    -762.690E+06     5.94377E+09    -762.627E+06     127.016E+06     29.2119E+06    -255.674E+06
             951               1     7.78183E+09     6.68929E+09     6.68929E+09    -772.705E+06    -1.37713E+09     8.06642E+09    -1.51315E+09     7.72875E+09    -1.37037E+09     6.58908E+09    -679.253E+06    -231.420E+06    -19.3054E+06     829.778E+06
             952               1     6.95805E+09     5.95891E+09     5.95891E+09    -557.795E+06    -1.36932E+09     7.32823E+09    -1.34393E+09     6.85036E+09    -1.36275E+09     5.84556E+09    -451.022E+06     208.807E+06     3.18713E+06     829.578E+06
             953               1     6.17420E+09     5.57113E+09     5.57113E+09    -542.463E+06    -661.954E+06     6.23308E+09    -1.45557E+09     6.17160E+09    -643.851E+06     5.56913E+09    -558.572E+06     63.1645E+06     41.2851E+06    -91.4738E+06
             954               1     5.30086E+09     4.77687E+09     4.77687E+09    -12.7166E+06    -918.537E+06     5.69540E+09    -1.28187E+09     5.12238E+09    -914.052E+06     4.76227E+09    -2.60181E+06     87.8772E+06    -49.2793E+06     252.338E+06
             955               1     6.18383E+09     5.49878E+09     5.49878E+09    -482.841E+06    -869.153E+06     6.36793E+09    -1.38226E+09     6.15659E+09    -857.256E+06     5.47370E+09    -469.665E+06     125.519E+06    -52.3715E+06     368.243E+06
             956               1     8.45174E+09     7.25532E+09     7.25532E+09    -892.809E+06    -1.47040E+09     8.72571E+09    -1.63070E+09     8.40716E+09    -1.46432E+09     7.21044E+09    -854.011E+06    -228.967E+06    -19.4967E+06     560.877E+06
             957               1     7.52626E+09     6.62009E+09     6.62009E+09    -868.040E+06    -943.743E+06     7.56383E+09    -1.60277E+09     7.52541E+09    -861.072E+06     6.61002E+09    -940.645E+06    -236.589E+06     1.81480E+06     139.819E+06
             958               1     7.26132E+09     6.27656E+09     6.27656E+09    -798.887E+06    -1.15736E+09     7.43392E+09    -1.44011E+09     7.24137E+09    -1.14709E+09     6.23429E+09    -766.879E+06    -248.302E+06    -9.79456E+06    -489.446E+06
             959               1     6.42527E+09     5.76847E+09     5.76847E+09    -611.507E+06    -701.151E+06     6.46963E+09    -1.48527E+09     6.42387E+09    -629.188E+06     5.76592E+09    -680.915E+06    -65.0212E+06    -35.0439E+06    -110.883E+06
             960               1     7.35305E+09     6.50376E+09     6.50376E+09    -833.200E+06    -865.266E+06     7.36903E+09    -1.60177E+09     7.35289E+09    -828.730E+06     6.49837E+09    -864.347E+06     198.387E+06    -4.95395E+06     12.5317E+06
             961               1     6.71098E+09     5.90003E+09     5.90003E+09    -650.334E+06    -960.798E+06     6.86083E+09    -1.42963E+09     6.69480E+09    -948.445E+06     5.85295E+09    -615.609E+06     193.149E+06    -31.0315E+06     521.687E+06
             962               1     6.23628E+09     5.65046E+09     5.65046E+09    -543.554E+06    -627.239E+06     6.27770E+09    -1.49322E+09     6.23502E+09    -562.507E+06     5.64750E+09    -605.326E+06    -44.3768E+06     34.3196E+06     128.828E+06
             963               1     5.82355E+09     5.27575E+09     5.27575E+09    -382.272E+06    -700.288E+06     5.97604E+09    -1.39773E+09     5.80396E+09    -685.366E+06     5.27199E+09    -393.428E+06    -51.8637E+06     65.0976E+06     137.637E+06
             964               1     5.94366E+09     5.34503E+09     5.34503E+09    -400.746E+06    -778.499E+06     6.12353E+09    -1.38859E+09     5.91656E+09    -767.176E+06     5.33101E+09    -398.056E+06    -86.8488E+06    -57.0982E+06    -271.707E+06
             965               1     5.31995E+09     4.84314E+09     4.84314E+09    -47.0485E+06    -821.645E+06     5.66479E+09    -1.32482E+09     5.19080E+09    -813.502E+06     4.84300E+09    -55.0482E+06     8.09504E+06    -78.9123E+06     25.5494E+06
             966               1     7.09665E+09     6.25610E+09     6.25610E+09    -815.354E+06    -865.478E+06     7.12158E+09    -1.52509E+09     7.09625E+09    -827.161E+06     6.24082E+09    -838.392E+06     188.900E+06    -16.4937E+06     269.990E+06
             967               1     7.38053E+09     6.38668E+09     6.38668E+09    -837.549E+06    -1.14082E+09     7.52750E+09    -1.46944E+09     7.36650E+09    -1.12940E+09     6.34729E+09    -809.574E+06    -247.465E+06     15.5347E+06     474.669E+06
             968               1     7.83922E+09     6.68979E+09     6.68979E+09    -918.077E+06    -1.36192E+09     8.05171E+09    -1.46993E+09     7.81087E+09    -1.35037E+09     6.64744E+09    -887.286E+06    -280.030E+06    -10.5642E+06    -497.294E+06
             969               1     7.87287E+09     6.77888E+09     6.77888E+09    -890.619E+06    -1.28270E+09     8.06159E+09    -1.53519E+09     7.85086E+09    -1.27153E+09     6.74725E+09    -870.163E+06    -286.314E+06     5.00696E+06     405.215E+06
             970               1     6.33217E+09     5.65685E+09     5.65685E+09    -555.940E+06    -788.303E+06     6.44515E+09    -1.43753E+09     6.32256E+09    -775.244E+06     5.63966E+09    -551.812E+06     133.449E+06     41.6155E+06    -300.055E+06
             971               1     5.95370E+09     5.17695E+09     5.17695E+09    -346.252E+06    -1.12968E+09     6.30663E+09    -1.23367E+09     5.83604E+09    -1.12400E+09     5.11543E+09    -290.417E+06     167.569E+06     15.5725E+06    -558.945E+06
             972               1     6.67963E+09     5.96327E+09     5.96327E+09    -652.634E+06    -778.309E+06     6.74158E+09    -1.51078E+09     6.67697E+09    -659.422E+06     5.95839E+09    -766.641E+06     105.792E+06    -29.1846E+06     147.000E+06
             973               1     7.20004E+09     6.38672E+09     6.38672E+09    -771.840E+06    -854.079E+06     7.24080E+09    -1.58693E+09     7.19898E+09    -770.783E+06     6.37712E+09    -845.534E+06     182.731E+06     12.0263E+06    -189.274E+06
             974               1     6.18337E+09     5.51680E+09     5.51680E+09    -500.353E+06    -820.362E+06     6.33716E+09    -1.39869E+09     6.16470E+09    -802.383E+06     5.49778E+09    -499.310E+06    -117.423E+06     63.4626E+06     319.459E+06
             975               1     7.03060E+09     6.17492E+09     6.17492E+09    -814.887E+06    -895.761E+06     7.07068E+09    -1.48809E+09     7.02955E+09    -812.667E+06     6.17220E+09    -895.256E+06     137.937E+06     6.28502E+06    -3.67236E+06
             976               1     6.19483E+09     5.60170E+09     5.60170E+09    -528.810E+06    -655.498E+06     6.25720E+09    -1.47246E+09     6.19191E+09    -624.131E+06     5.60136E+09    -559.840E+06    -33.1986E+06    -54.4091E+06    -31.7261E+06
             977               1     7.21268E+09     6.34673E+09     6.34673E+09    -833.533E+06    -897.950E+06     7.24468E+09    -1.53841E+09     7.21204E+09    -878.260E+06     6.33299E+09    -839.486E+06    -184.288E+06     20.7200E+06     255.354E+06
             978               1     7.51803E+09     6.61640E+09     6.61640E+09    -888.953E+06    -914.244E+06     7.53064E+09    -1.60440E+09     7.51793E+09    -880.374E+06     6.60418E+09    -910.605E+06    -253.545E+06     5.61024E+06    -165.399E+06
             979               1     6.63546E+09     5.95789E+09     5.95789E+09    -484.450E+06    -855.144E+06     6.81304E+09    -1.53943E+09     6.61210E+09    -483.515E+06     5.95677E+09    -854.958E+06    -81.7954E+06     6.50678E+06    -23.5849E+06
             980               1     6.65411E+09     5.96436E+09     5.96436E+09    -531.323E+06    -837.599E+06     6.80196E+09    -1.53181E+09     6.63822E+09    -529.770E+06     5.96266E+09    -837.453E+06     103.001E+06    -4.65294E+06     21.1620E+06
             981               1     6.31493E+09     5.70381E+09     5.70381E+09    -524.500E+06    -694.318E+06     6.39813E+09    -1.49500E+09     6.30979E+09    -536.662E+06     5.70321E+09    -681.555E+06     41.0240E+06    -43.9296E+06     46.3342E+06
             982               1     6.59139E+09     5.88555E+09     5.88555E+09    -650.816E+06    -759.515E+06     6.64507E+09    -1.49174E+09     6.58937E+09    -658.108E+06     5.88312E+09    -749.784E+06    -87.5770E+06     27.9022E+06     92.0248E+06
             983               1     7.00543E+09     6.17814E+09     6.17814E+09    -808.049E+06    -846.377E+06     7.02451E+09    -1.50790E+09     7.00519E+09    -816.253E+06     6.16869E+09    -828.725E+06    -159.259E+06    -13.1085E+06    -202.280E+06
             984               1     6.94942E+09     6.16468E+09     6.16468E+09    -692.994E+06    -872.983E+06     7.03766E+09    -1.53290E+09     6.94417E+09    -689.703E+06     6.16095E+09    -872.546E+06    -151.886E+06     2.54386E+06     50.5780E+06
             985               1     6.36654E+09     5.73228E+09     5.73228E+09    -555.833E+06    -709.907E+06     6.44218E+09    -1.48885E+09     6.36235E+09    -569.514E+06     5.73173E+09    -695.684E+06     4.99532E+06     43.7869E+06    -58.8365E+06
             986               1     6.61159E+09     5.93830E+09     5.93830E+09    -493.051E+06    -839.882E+06     6.77818E+09    -1.53512E+09     6.59108E+09    -492.802E+06     5.93790E+09    -839.727E+06     40.2356E+06    -1.15807E+06    -32.1295E+06
             987               1     6.60792E+09     5.93194E+09     5.93194E+09    -559.925E+06    -786.225E+06     6.71817E+09    -1.52860E+09     6.59920E+09    -560.378E+06     5.92912E+09    -782.947E+06    -111.589E+06    -21.7050E+06    -78.3813E+06
             988               1     6.64810E+09     5.97051E+09     5.97051E+09    -531.845E+06    -814.325E+06     6.78484E+09    -1.54145E+09     6.63457E+09    -533.677E+06     5.96985E+09    -811.834E+06    -36.8958E+06     23.6178E+06     55.3051E+06
             989               1     7.35324E+09     6.45048E+09     6.45048E+09    -881.264E+06    -924.058E+06     7.37454E+09    -1.54839E+09     7.35296E+09    -919.349E+06     6.44597E+09    -881.462E+06    -179.908E+06    -2.94810E+06    -29.5616E+06
             990               1     6.65985E+09     5.98231E+09     5.98231E+09    -548.407E+06    -799.580E+06     6.78189E+09    -1.54477E+09     6.64918E+09    -548.542E+06     5.98211E+09    -799.251E+06     19.0218E+06    -6.82807E+06     30.5933E+06
             991               1     6.89857E+09     5.94345E+09     5.94345E+09    -541.130E+06    -1.30544E+09     7.24889E+09    -1.36562E+09     6.80233E+09    -1.29895E+09     5.82564E+09    -429.818E+06    -209.828E+06    -8.94875E+06     843.594E+06
             992               1     7.46987E+09     6.39724E+09     6.39724E+09    -658.551E+06    -1.42728E+09     7.82451E+09    -1.43714E+09     7.38010E+09    -1.42076E+09     6.30386E+09    -571.698E+06    -221.393E+06     10.5011E+06    -778.813E+06
             993               1     6.21458E+09     5.42200E+09     5.42200E+09    -381.254E+06    -1.13512E+09     6.55712E+09    -1.30188E+09     6.11044E+09    -1.12844E+09     5.35683E+09    -322.752E+06    -175.937E+06    -22.0268E+06    -589.879E+06
             994               1     8.42141E+09     7.24577E+09     7.24577E+09    -863.654E+06    -1.45631E+09     8.70208E+09    -1.64194E+09     8.37430E+09    -1.45022E+09     7.19316E+09    -817.142E+06     229.580E+06     15.4737E+06     612.200E+06
             995               1     8.78965E+09     7.66743E+09     7.66743E+09    -743.599E+06    -1.45733E+09     9.12475E+09    -1.82217E+09     8.72410E+09    -1.45241E+09     7.64859E+09    -729.674E+06     211.052E+06    -12.2167E+06    -342.074E+06
             996               1     8.13102E+09     6.97222E+09     6.97222E+09    -996.063E+06    -1.31231E+09     8.28453E+09    -1.55462E+09     8.11717E+09    -1.30087E+09     6.95762E+09    -992.892E+06    -294.617E+06     10.7451E+06     181.400E+06
             997               1     8.10720E+09     6.93589E+09     6.93589E+09    -926.455E+06    -1.39576E+09     8.33166E+09    -1.53789E+09     8.07655E+09    -1.38489E+09     6.91053E+09    -911.964E+06    -298.792E+06     4.63182E+06    -338.686E+06
             998               1     7.27610E+09     6.40166E+09     6.40166E+09    -809.355E+06    -937.825E+06     7.33949E+09    -1.55149E+09     7.27355E+09    -915.522E+06     6.37402E+09    -804.023E+06    -221.826E+06    -30.1648E+06    -389.081E+06
             999               1     5.85504E+09     5.32722E+09     5.32722E+09    -384.904E+06    -660.974E+06     5.98819E+09    -1.42711E+09     5.84037E+09    -647.843E+06     5.32654E+09    -397.359E+06     23.6734E+06    -58.3329E+06     57.9904E+06
            1000               1     6.31692E+09     5.67258E+09     5.67258E+09    -571.326E+06    -714.916E+06     6.38749E+09    -1.46211E+09     6.31325E+09    -695.505E+06     5.66464E+09    -582.799E+06     92.6161E+06    -44.6806E+06     203.684E+06
            1001               1     4.80927E+09     4.48038E+09     4.48038E+09     286.997E+06    -769.206E+06     5.24958E+09    -1.33272E+09     4.53717E+09    -761.538E+06     4.47843E+09     281.280E+06    -54.7696E+06     85.4942E+06     76.9789E+06
            1002               1     5.01155E+09     4.52526E+09     4.52526E+09     156.028E+06    -945.380E+06     5.47064E+09    -1.24530E+09     4.72759E+09    -932.277E+06     4.49668E+09     171.506E+06     206.459E+06     64.6376E+06    -303.132E+06
            1003               1     5.31345E+09     4.64790E+09     4.64790E+09    -37.6467E+06    -1.12518E+09     5.77308E+09    -1.16169E+09     5.05386E+09    -1.10826E+09     4.57928E+09     14.0538E+06    -284.916E+06     29.0842E+06     504.052E+06
            1004               1     5.72662E+09     4.70474E+09     4.70474E+09    -338.270E+06    -1.52084E+09     6.22558E+09    -948.543E+06     5.44163E+09    -1.50243E+09     4.63409E+09    -286.038E+06     336.649E+06    -29.1843E+06    -509.736E+06
            1005               1     8.71412E+09     7.52408E+09     7.52408E+09    -410.843E+06    -1.80189E+09     9.32597E+09    -1.77045E+09     8.45890E+09    -1.78351E+09     7.40650E+09    -311.648E+06    -385.299E+06    -93.4796E+06     888.433E+06
            1006               1     9.74706E+09     8.54119E+09     8.54119E+09    -472.701E+06    -1.80250E+09     10.3437E+09    -2.08866E+09     9.53977E+09    -1.79078E+09     8.52948E+09    -472.710E+06    -347.661E+06     4.99341E+06    -8.47762E+06
            1007               1     9.46622E+09     8.26716E+09     8.26716E+09    -451.445E+06    -1.80168E+09     10.0688E+09    -2.00468E+09     9.24584E+09    -1.78866E+09     8.22487E+09    -422.172E+06    -350.742E+06     49.6380E+06    -509.310E+06
            1008               1     6.73180E+09     5.55017E+09     5.55017E+09    -561.125E+06    -1.66555E+09     7.21572E+09    -1.10783E+09     6.52329E+09    -1.64270E+09     5.41028E+09    -444.094E+06    -399.547E+06     65.3088E+06    -836.249E+06
            1009               1     5.85696E+09     4.92747E+09     4.92747E+09    -281.466E+06    -1.41253E+09     6.34000E+09    -1.07782E+09     5.60328E+09    -1.39210E+09     4.82056E+09    -194.995E+06    -353.886E+06     18.1014E+06    -666.891E+06
            1010               1     5.29266E+09     4.63201E+09     4.63201E+09    -2.23588E+06    -1.13550E+09     5.76751E+09    -1.16476E+09     5.00865E+09    -1.11866E+09     4.57400E+09     38.9289E+06    -284.471E+06    -32.6566E+06    -450.819E+06
            1011               1     4.79173E+09     4.44911E+09     4.44911E+09     309.073E+06    -799.867E+06     5.24898E+09    -1.31944E+09     4.48919E+09    -793.497E+06     4.44685E+09     304.964E+06     69.9247E+06    -76.4711E+06     75.2231E+06
            1012               1     5.33934E+09     4.61387E+09     4.61387E+09    -85.9400E+06    -1.19181E+09     5.80568E+09    -1.11204E+09     5.07198E+09    -1.17399E+09     4.55947E+09    -49.3543E+06     291.144E+06    -36.5123E+06     432.373E+06
            1013               1     5.83767E+09     4.86659E+09     4.86659E+09    -305.849E+06    -1.46300E+09     6.32959E+09    -1.03258E+09     5.57081E+09    -1.44223E+09     4.76624E+09    -226.274E+06     356.006E+06     14.1018E+06     638.538E+06
            1014               1     5.19401E+09     4.75413E+09     4.75413E+09    -3.52431E+06    -787.182E+06     5.54131E+09    -1.32114E+09     5.05844E+09    -760.568E+06     4.73988E+09    -15.8837E+06    -141.494E+06    -126.506E+06    -228.292E+06
            1015               1     8.78957E+09     7.56562E+09     7.56562E+09    -478.475E+06    -1.81608E+09     9.38170E+09    -1.75702E+09     8.55608E+09    -1.79837E+09     7.46244E+09    -393.002E+06     378.514E+06     89.2839E+06     832.667E+06
            1016               1     9.51684E+09     8.30304E+09     8.30304E+09    -470.385E+06    -1.81434E+09     10.1174E+09    -2.00610E+09     9.29975E+09    -1.80176E+09     8.26579E+09    -445.718E+06     340.899E+06     53.6150E+06     472.793E+06
            1017               1     9.81083E+09     8.61806E+09     8.61806E+09    -450.042E+06    -1.79642E+09     10.4145E+09    -2.12387E+09     9.59968E+09    -1.78706E+09     8.60866E+09    -449.998E+06     311.543E+06    -5.81693E+06     26.3945E+06
            1018               1     7.97815E+09     6.94245E+09     6.94245E+09    -949.664E+06    -1.11904E+09     8.06149E+09    -1.62458E+09     7.97410E+09    -1.08862E+09     6.91404E+09    -951.668E+06     466.508E+06    -17.5214E+06     102.858E+06
            1019               1     8.71776E+09     7.43802E+09     7.43802E+09    -598.159E+06    -1.83024E+09     9.26825E+09    -1.66987E+09     8.51857E+09    -1.81230E+09     7.33746E+09    -515.543E+06     372.956E+06    -91.9862E+06    -820.965E+06
            1020               1     5.36510E+09     4.60161E+09     4.60161E+09    -143.037E+06    -1.22043E+09     5.82204E+09    -1.07938E+09     5.11314E+09    -1.20270E+09     4.53497E+09    -94.1142E+06     301.717E+06     19.7687E+06    -490.212E+06
            1021               1     6.57073E+09     5.88211E+09     5.88211E+09    -594.797E+06    -778.579E+06     6.66069E+09    -1.50291E+09     6.56494E+09    -696.822E+06     5.85327E+09    -647.709E+06    -274.273E+06     75.2879E+06     340.302E+06
            1022               1     6.75597E+09     5.72962E+09     5.72962E+09    -658.229E+06    -1.34242E+09     7.07203E+09    -1.24299E+09     6.67736E+09    -1.30428E+09     5.60138E+09    -568.128E+06    -451.267E+06    -26.1218E+06    -792.418E+06
            1023               1     6.40995E+09     5.76758E+09     5.76758E+09    -550.970E+06    -730.018E+06     6.49760E+09    -1.49553E+09     6.40432E+09    -655.372E+06     5.74451E+09    -602.551E+06    -251.303E+06    -74.6986E+06    -293.234E+06
            1024               1     8.13848E+09     6.84981E+09     6.84981E+09    -905.092E+06    -1.62448E+09     8.47429E+09    -1.44008E+09     8.06648E+09    -1.58513E+09     6.74875E+09    -843.388E+06    -556.470E+06     5.38876E+06    -703.203E+06
            1025               1     6.39519E+09     5.83738E+09     5.83738E+09    -352.134E+06    -745.337E+06     6.58272E+09    -1.57997E+09     6.36791E+09    -354.171E+06     5.83724E+09    -743.155E+06    -28.0527E+06    -29.1384E+06     10.7429E+06
            1026               1     8.02506E+09     7.08147E+09     7.08147E+09    -817.409E+06    -1.06408E+09     8.14555E+09    -1.73333E+09     8.01652E+09    -1.03608E+09     7.05065E+09    -814.589E+06     468.031E+06     5.64567E+06    -174.274E+06
            1027               1     4.81195E+09     4.46892E+09     4.46892E+09     304.196E+06    -798.741E+06     5.26766E+09    -1.32479E+09     4.51422E+09    -790.639E+06     4.46569E+09     299.326E+06     77.9667E+06     85.8781E+06    -94.2979E+06
            1028               1     6.02709E+09     5.07437E+09     5.07437E+09    -369.155E+06    -1.40263E+09     6.47700E+09    -1.10086E+09     5.82271E+09    -1.38154E+09     4.97416E+09    -290.032E+06    -362.478E+06    -14.7968E+06     653.667E+06
            1029               1     5.68873E+09     5.24628E+09     5.24628E+09    -300.394E+06    -574.583E+06     5.82087E+09    -1.45710E+09     5.67384E+09    -515.541E+06     5.24572E+09    -358.874E+06     41.7438E+06     112.220E+06    -39.0052E+06
            1030               1     6.67800E+09     5.42029E+09     5.42029E+09    -690.557E+06    -1.70808E+09     7.12837E+09    -1.00722E+09     6.50016E+09    -1.68556E+09     5.31023E+09    -603.019E+06    -394.173E+06    -60.5850E+06     725.452E+06
            1031               1     7.45253E+09     6.13081E+09     6.13081E+09    -640.599E+06    -1.85395E+09     7.98475E+09    -1.21209E+09     7.22528E+09    -1.83144E+09     5.99256E+09    -524.853E+06    -399.878E+06    -96.0605E+06     881.931E+06
            1032               1     8.60463E+09     7.30135E+09     7.30135E+09    -600.926E+06    -1.86564E+09     9.16699E+09    -1.61160E+09     8.39169E+09    -1.84690E+09     7.20412E+09    -522.434E+06    -379.094E+06     93.8867E+06    -794.673E+06
            1033               1     4.96959E+09     4.52835E+09     4.52835E+09     205.655E+06    -901.418E+06     5.42977E+09    -1.27753E+09     4.67993E+09    -890.685E+06     4.50939E+09     213.878E+06    -178.796E+06    -65.0910E+06    -239.472E+06
            1034               1     4.80268E+09     4.48294E+09     4.48294E+09     331.537E+06    -777.122E+06     5.26006E+09    -1.34579E+09     4.50106E+09    -770.870E+06     4.48071E+09     327.519E+06    -57.9410E+06    -77.7912E+06    -82.2612E+06
            1035               1     6.61037E+09     5.41728E+09     5.41728E+09    -518.167E+06    -1.70675E+09     7.12403E+09    -1.06412E+09     6.36326E+09    -1.68433E+09     5.27999E+09    -403.294E+06     392.492E+06     66.9958E+06     816.532E+06
            1036               1     7.67770E+09     6.34558E+09     6.34558E+09    -674.036E+06    -1.85366E+09     8.19924E+09    -1.27263E+09     7.46973E+09    -1.83143E+09     6.19570E+09    -546.387E+06     398.746E+06     101.189E+06     943.118E+06
            1037               1     9.45393E+09     8.21395E+09     8.21395E+09    -501.218E+06    -1.83671E+09     10.0507E+09    -1.95868E+09     9.23813E+09    -1.82515E+09     8.17296E+09    -471.785E+06     326.816E+06    -51.2188E+06    -511.789E+06
            1038               1     8.78287E+09     7.41689E+09     7.41689E+09    -922.782E+06    -1.75056E+09     9.16745E+09    -1.58119E+09     8.69446E+09    -1.70734E+09     7.37355E+09    -922.650E+06     625.977E+06     10.8141E+06    -58.3316E+06
            1039               1     7.65402E+09     6.40190E+09     6.40190E+09    -567.462E+06    -1.78970E+09     8.19159E+09    -1.34825E+09     7.42970E+09    -1.76830E+09     6.21404E+09    -401.002E+06     397.410E+06    -98.5192E+06    -1.06586E+09
            1040               1     7.93134E+09     6.74117E+09     6.74117E+09    -818.025E+06    -1.51617E+09     8.25734E+09    -1.46899E+09     7.86177E+09    -1.47632E+09     6.63931E+09    -756.030E+06     557.794E+06    -12.7240E+06    -691.767E+06
            1041               1     6.37792E+09     5.17424E+09     5.17424E+09    -465.061E+06    -1.74742E+09     6.92167E+09    -987.254E+06     6.07763E+09    -1.72413E+09     5.03669E+09    -350.803E+06     383.499E+06    -90.8450E+06    -796.221E+06
            1042               1     7.15319E+09     6.04859E+09     6.04859E+09    -768.638E+06    -1.39885E+09     7.44745E+09    -1.29370E+09     7.09033E+09    -1.36367E+09     5.93152E+09    -686.746E+06     490.054E+06    -11.2224E+06    -754.464E+06
            1043               1     5.42674E+09     4.88699E+09     4.88699E+09    -126.392E+06    -875.311E+06     5.76230E+09    -1.29510E+09     5.30861E+09    -845.198E+06     4.85297E+09    -122.489E+06     213.269E+06     113.568E+06    -365.605E+06
            1044               1     5.14136E+09     4.75441E+09     4.75441E+09     15.6807E+06    -712.031E+06     5.46644E+09    -1.35269E+09     5.02353E+09    -683.347E+06     4.75421E+09    -12.7948E+06    -29.1919E+06     141.144E+06     16.4398E+06
            1045               1     4.94770E+09     4.50286E+09     4.50286E+09     191.587E+06    -899.231E+06     5.40209E+09    -1.26507E+09     4.66551E+09    -887.589E+06     4.48296E+09     199.842E+06    -178.222E+06     70.8137E+06     247.798E+06
            1046               1     6.12679E+09     5.31593E+09     5.31593E+09    -451.377E+06    -1.11614E+09     6.43207E+09    -1.24947E+09     6.04486E+09    -1.07652E+09     5.22414E+09    -399.202E+06    -370.759E+06     70.9089E+06     637.884E+06
            1047               1     8.63074E+09     7.34219E+09     7.34219E+09    -894.040E+06    -1.63524E+09     8.97743E+09    -1.60430E+09     8.55869E+09    -1.59609E+09     7.29469E+09    -885.692E+06    -589.058E+06    -2.84091E+06     267.024E+06
            1048               1     8.57961E+09     7.23487E+09     7.23487E+09    -947.695E+06    -1.69314E+09     8.92801E+09    -1.53135E+09     8.50629E+09    -1.65368E+09     7.17533E+09    -927.608E+06    -591.296E+06     22.3806E+06    -404.620E+06
            1049               1     8.06638E+09     7.03671E+09     7.03671E+09    -919.753E+06    -1.13527E+09     8.17198E+09    -1.66056E+09     8.05990E+09    -1.10407E+09     7.00620E+09    -920.457E+06    -486.553E+06     27.5931E+06    -104.830E+06
            1050               1     5.00999E+09     4.63172E+09     4.63172E+09     101.719E+06    -749.247E+06     5.38097E+09    -1.32806E+09     4.84337E+09    -724.230E+06     4.63104E+09     77.3805E+06    -38.0632E+06    -142.687E+06    -44.1223E+06
            1051               1     4.98424E+09     4.53440E+09     4.53440E+09     228.932E+06    -925.877E+06     5.46027E+09    -1.27915E+09     4.66878E+09    -914.295E+06     4.51109E+09     240.656E+06     192.966E+06    -64.3680E+06     268.202E+06
            1052               1     5.65436E+09     5.02605E+09     5.02605E+09    -230.035E+06    -956.391E+06     5.98244E+09    -1.27987E+09     5.54794E+09    -924.392E+06     4.96275E+09    -198.734E+06     281.469E+06    -90.6877E+06     515.268E+06
            1053               1     7.58567E+09     6.66117E+09     6.66117E+09    -818.914E+06    -1.02584E+09     7.68701E+09    -1.60547E+09     7.57931E+09    -998.392E+06     6.61209E+09    -797.273E+06     457.849E+06     23.5765E+06     401.070E+06
            1054               1     5.65312E+09     5.16754E+09     5.16754E+09    -243.202E+06    -700.223E+06     5.86776E+09    -1.40804E+09     5.61133E+09    -664.213E+06     5.14616E+09    -257.835E+06     163.056E+06     107.328E+06    -305.009E+06
            1055               1     5.80578E+09     5.19090E+09     5.19090E+09    -301.998E+06    -883.933E+06     6.07483E+09    -1.33499E+09     5.73962E+09    -843.701E+06     5.14471E+09    -296.039E+06    -269.202E+06     105.709E+06     437.718E+06
            1056               1     9.50669E+09     8.33558E+09     8.33558E+09    -409.598E+06    -1.78319E+09     10.1188E+09    -2.04759E+09     9.27949E+09    -1.76932E+09     8.29521E+09    -383.102E+06    -361.409E+06    -52.9250E+06     487.246E+06
            1057               1     6.54996E+09     5.79872E+09     5.79872E+09    -578.247E+06    -911.519E+06     6.71024E+09    -1.43632E+09     6.53085E+09    -878.248E+06     5.73738E+09    -550.183E+06    -350.956E+06    -41.0416E+06    -523.969E+06
            1058               1     5.11288E+09     4.71299E+09     4.71299E+09     12.1644E+06    -730.677E+06     5.44366E+09    -1.33149E+09     4.98930E+09    -700.880E+06     4.70763E+09    -12.2769E+06     99.4934E+06     139.047E+06    -131.611E+06
            1059               1     5.61334E+09     5.03071E+09     5.03071E+09    -226.475E+06    -881.333E+06     5.91205E+09    -1.30763E+09     5.52642E+09    -849.098E+06     4.98712E+09    -215.120E+06    -238.720E+06    -102.304E+06    -425.773E+06
            1060               1     8.60150E+09     7.34330E+09     7.34330E+09    -871.852E+06    -1.59844E+09     8.94174E+09    -1.62434E+09     8.53204E+09    -1.55834E+09     7.29217E+09    -860.815E+06     594.850E+06     5.74512E+06     305.208E+06
            1061               1     6.41236E+09     5.39275E+09     5.39275E+09    -527.920E+06    -1.41825E+09     6.81100E+09    -1.14886E+09     6.27103E+09    -1.38529E+09     5.23872E+09    -406.857E+06     417.650E+06     23.7492E+06    -864.028E+06
            1062               1     6.59643E+09     5.84005E+09     5.84005E+09    -598.999E+06    -903.229E+06     6.74328E+09    -1.44594E+09     6.58062E+09    -876.946E+06     5.77895E+09    -564.182E+06     353.356E+06     19.9460E+06    -522.826E+06
            1063               1     6.78600E+09     6.00087E+09     6.00087E+09    -668.063E+06    -896.436E+06     6.89730E+09    -1.47879E+09     6.77735E+09    -862.549E+06     5.93706E+09    -638.138E+06    -365.696E+06     26.3753E+06     543.882E+06
            1064               1     7.66615E+09     6.33809E+09     6.33809E+09    -682.940E+06    -1.84133E+09     8.17942E+09    -1.27127E+09     7.46543E+09    -1.81961E+09     6.20348E+09    -570.060E+06    -400.034E+06     90.4635E+06    -886.763E+06
            1065               1     7.21857E+09     6.27855E+09     6.27855E+09    -750.457E+06    -1.11572E+09     7.39427E+09    -1.47079E+09     7.19774E+09    -1.07543E+09     6.19933E+09    -711.521E+06     427.399E+06    -37.2546E+06     618.697E+06
            1066               1     6.25723E+09     5.39198E+09     5.39198E+09    -517.873E+06    -1.16270E+09     6.55468E+09    -1.23713E+09     6.18182E+09    -1.12956E+09     5.29107E+09    -450.109E+06     378.791E+06    -43.6123E+06     681.473E+06
            1067               1     7.63762E+09     6.45475E+09     6.45475E+09    -783.349E+06    -1.52785E+09     7.98261E+09    -1.38118E+09     7.55533E+09    -1.49100E+09     6.32117E+09    -686.620E+06     514.014E+06     6.44636E+06     846.061E+06
            1068               1     7.53904E+09     6.56153E+09     6.56153E+09    -873.700E+06    -1.07719E+09     7.63873E+09    -1.53688E+09     7.53286E+09    -1.04287E+09     6.52057E+09    -867.058E+06     430.589E+06     23.8770E+06    -352.323E+06
            1069               1     5.35624E+09     4.89511E+09     4.89511E+09    -110.666E+06    -753.563E+06     5.64868E+09    -1.34363E+09     5.26839E+09    -719.040E+06     4.88080E+09    -130.880E+06    -135.643E+06     132.631E+06     238.612E+06
            1070               1     8.73394E+09     7.44244E+09     7.44244E+09    -861.426E+06    -1.66592E+09     9.10836E+09    -1.63836E+09     8.64999E+09    -1.62698E+09     7.40351E+09    -861.443E+06    -592.719E+06    -10.1790E+06    -40.0990E+06
            1071               1     6.66060E+09     6.03815E+09     6.03815E+09    -419.199E+06    -808.609E+06     6.84676E+09    -1.60345E+09     6.63492E+09    -423.067E+06     6.03523E+09    -801.817E+06     108.406E+06     45.2539E+06    -87.7102E+06
            1072               1     5.03017E+09     4.65156E+09     4.65156E+09     118.303E+06    -759.878E+06     5.41144E+09    -1.33666E+09     4.85319E+09    -736.327E+06     4.64873E+09      97.579E+06     66.8295E+06    -138.252E+06     97.0837E+06
            1073               1     5.54323E+09     5.09269E+09     5.09269E+09    -182.503E+06    -684.434E+06     5.77712E+09    -1.40858E+09     5.49175E+09    -649.543E+06     5.08351E+09    -208.209E+06     98.0713E+06    -121.424E+06     201.541E+06
            1074               1     5.47677E+09     5.06262E+09     5.06262E+09    -167.338E+06    -631.432E+06     5.69405E+09    -1.42128E+09     5.43227E+09    -596.055E+06     5.06095E+09    -201.042E+06    -48.1610E+06    -121.811E+06    -82.5269E+06
            1075               1     6.57405E+09     5.92649E+09     5.92649E+09    -490.432E+06    -794.159E+06     6.72065E+09    -1.54730E+09     6.55824E+09    -494.152E+06     5.90685E+09    -770.793E+06     261.656E+06     54.5428E+06    -247.487E+06
            1076               1     7.66708E+09     6.50067E+09     6.50067E+09    -856.012E+06    -1.44305E+09     7.94372E+09    -1.40054E+09     7.61627E+09    -1.40626E+09     6.36661E+09    -758.740E+06    -505.922E+06    -6.97083E+06     858.741E+06
            1077               1     6.90074E+09     5.81783E+09     5.81783E+09    -706.705E+06    -1.40588E+09     7.22372E+09    -1.23508E+09     6.82037E+09    -1.37295E+09     5.67731E+09    -599.111E+06     454.662E+06     2.91675E+06     846.743E+06
            1078               1     6.08711E+09     5.56955E+09     5.56955E+09    -389.277E+06    -638.214E+06     6.20776E+09    -1.51402E+09     6.07564E+09    -463.436E+06     5.56625E+09    -560.758E+06     92.6208E+06     112.825E+06    -108.910E+06
            1079               1     5.21728E+09     4.74560E+09     4.74560E+09    -38.7204E+06    -817.159E+06     5.56276E+09    -1.29657E+09     5.08416E+09    -789.478E+06     4.72686E+09    -47.6657E+06     170.807E+06    -122.375E+06     257.752E+06
            1080               1     6.04530E+09     5.46740E+09     5.46740E+09    -435.646E+06    -710.763E+06     6.17816E+09    -1.44033E+09     6.03119E+09    -663.872E+06     5.43905E+09    -454.185E+06     243.351E+06    -80.9255E+06     335.885E+06
            1081               1     8.24548E+09     6.96232E+09     6.96232E+09    -970.931E+06    -1.56344E+09     8.52575E+09    -1.47598E+09     8.19738E+09    -1.52523E+09     6.88289E+09    -929.710E+06    -562.592E+06    -17.4045E+06     575.531E+06
            1082               1     7.63571E+09     6.63226E+09     6.63226E+09    -953.652E+06    -1.05230E+09     7.68456E+09    -1.54210E+09     7.63428E+09    -1.02021E+09     6.60526E+09    -958.747E+06    -440.693E+06     18.4309E+06     111.976E+06
            1083               1     7.15256E+09     6.25029E+09     6.25029E+09    -723.625E+06    -1.06843E+09     7.31873E+09    -1.48608E+09     7.13382E+09    -1.02552E+09     6.19110E+09    -707.350E+06    -413.844E+06    -50.8770E+06    -500.936E+06
            1084               1     6.29048E+09     5.74425E+09     5.74425E+09    -378.919E+06    -701.158E+06     6.44541E+09    -1.55472E+09     6.27187E+09    -403.147E+06     5.73900E+09    -671.681E+06    -134.126E+06    -86.8508E+06    -123.931E+06
            1085               1     7.30659E+09     6.44218E+09     6.44218E+09    -807.294E+06    -920.214E+06     7.36240E+09    -1.57156E+09     7.30463E+09    -784.363E+06     6.41790E+09    -918.857E+06     418.806E+06    -11.5847E+06     11.5265E+06
            1086               1     6.67641E+09     5.91185E+09     5.91185E+09    -602.278E+06    -915.798E+06     6.82765E+09    -1.46459E+09     6.65982E+09    -875.961E+06     5.85652E+09    -586.778E+06     343.843E+06    -55.5224E+06     499.201E+06
            1087               1     6.22305E+09     5.67971E+09     5.67971E+09    -412.379E+06    -666.515E+06     6.34623E+09    -1.53361E+09     6.21136E+09    -476.145E+06     5.67536E+09    -598.395E+06    -117.025E+06     109.229E+06     117.669E+06
            1088               1     5.79716E+09     5.33375E+09     5.33375E+09    -318.970E+06    -597.794E+06     5.93154E+09    -1.47233E+09     5.78204E+09    -534.715E+06     5.32920E+09    -377.500E+06    -82.4833E+06     113.956E+06     140.713E+06
            1089               1     5.85241E+09     5.35709E+09     5.35709E+09    -339.200E+06    -639.853E+06     5.99694E+09    -1.45934E+09     5.83500E+09    -588.036E+06     5.34243E+09    -376.363E+06    -169.534E+06    -102.437E+06    -240.157E+06
            1090               1     5.18422E+09     4.82288E+09     4.82288E+09    -36.3228E+06    -634.467E+06     5.45735E+09    -1.38403E+09     5.10572E+09    -612.296E+06     4.82270E+09    -58.3081E+06     28.0122E+06    -112.576E+06     14.8423E+06
            1091               1     7.03251E+09     6.21194E+09     6.21194E+09    -750.340E+06    -888.754E+06     7.10069E+09    -1.52428E+09     7.02944E+09    -760.883E+06     6.18454E+09    -850.812E+06     360.779E+06    -43.6251E+06     250.582E+06
            1092               1     7.30911E+09     6.39186E+09     6.39186E+09    -786.749E+06    -1.04110E+09     7.43296E+09    -1.52134E+09     7.29914E+09    -1.00917E+09     6.34041E+09    -767.222E+06    -432.783E+06     14.9236E+06     433.509E+06
            1093               1     7.68742E+09     6.71304E+09     6.71304E+09    -854.313E+06    -1.08908E+09     7.80211E+09    -1.58988E+09     7.67935E+09    -1.05862E+09     6.65844E+09    -830.180E+06    -471.216E+06     6.41750E+06    -442.652E+06
            1094               1     7.80368E+09     6.83062E+09     6.83062E+09    -865.655E+06    -1.07622E+09     7.90683E+09    -1.62958E+09     7.79729E+09    -1.04740E+09     6.78272E+09    -846.580E+06    -456.515E+06    -1.65830E+06     405.590E+06
            1095               1     6.26905E+09     5.62785E+09     5.62785E+09    -522.444E+06    -753.570E+06     6.38142E+09    -1.45061E+09     6.25946E+09    -686.662E+06     5.60403E+09    -565.530E+06     251.738E+06     87.9117E+06    -295.690E+06
            1096               1     5.85687E+09     5.12423E+09     5.12423E+09    -319.264E+06    -1.07304E+09     6.19727E+09    -1.24397E+09     5.74622E+09    -1.03701E+09     5.04683E+09    -277.891E+06     319.532E+06     89.5229E+06    -577.812E+06
            1097               1     6.53197E+09     5.93237E+09     5.93237E+09    -438.888E+06    -749.246E+06     6.68162E+09    -1.58141E+09     6.51535E+09    -441.513E+06     5.92079E+09    -735.040E+06     223.050E+06    -50.3765E+06     160.417E+06
            1098               1     7.14447E+09     6.31871E+09     6.31871E+09    -769.195E+06    -881.016E+06     7.19973E+09    -1.55617E+09     7.14251E+09    -773.368E+06     6.29268E+09    -850.812E+06     395.438E+06     37.9267E+06    -171.088E+06
            1099               1     6.01469E+09     5.46965E+09     5.46965E+09    -447.539E+06    -638.009E+06     6.10766E+09    -1.46137E+09     6.00790E+09    -587.192E+06     5.44759E+09    -476.300E+06    -205.171E+06     70.0714E+06     302.067E+06
            1100               1     6.69577E+09     6.05500E+09     6.05500E+09    -378.873E+06    -875.066E+06     6.93007E+09    -1.60035E+09     6.65422E+09    -366.714E+06     6.04235E+09    -874.577E+06     284.110E+06     13.2375E+06    -23.8410E+06
            1101               1     6.09482E+09     5.58176E+09     5.58176E+09    -380.080E+06    -637.854E+06     6.21961E+09    -1.52127E+09     6.08253E+09    -439.686E+06     5.58133E+09    -577.815E+06    -28.0004E+06    -108.566E+06    -43.7575E+06
            1102               1     7.06469E+09     6.27293E+09     6.27293E+09    -721.511E+06    -859.965E+06     7.13290E+09    -1.56382E+09     7.06163E+09    -710.471E+06     6.24267E+09    -840.746E+06    -403.913E+06     26.6286E+06     223.042E+06
            1103               1     7.77905E+09     6.71344E+09     6.71344E+09    -969.086E+06    -1.15867E+09     7.87212E+09    -1.52856E+09     7.77385E+09    -1.12656E+09     6.68520E+09    -972.956E+06    -443.030E+06    -27.0206E+06    -158.594E+06
            1104               1     6.67790E+09     6.05541E+09     6.05541E+09    -404.684E+06    -820.831E+06     6.87624E+09    -1.60997E+09     6.64863E+09    -403.124E+06     6.05349E+09    -820.474E+06    -109.449E+06    -10.7158E+06    -20.9015E+06
            1105               1     6.68270E+09     6.05919E+09     6.05919E+09    -401.005E+06    -825.743E+06     6.88494E+09    -1.61082E+09     6.65223E+09    -400.894E+06     6.05589E+09    -822.552E+06     138.481E+06    -33.6883E+06     48.6272E+06
            1106               1     6.33993E+09     5.79282E+09     5.79282E+09    -363.206E+06    -716.259E+06     6.50908E+09    -1.57112E+09     6.31776E+09    -389.146E+06     5.79228E+09    -689.778E+06     41.7513E+06    -92.2969E+06     41.6292E+06
            1107               1     6.50363E+09     5.90056E+09     5.90056E+09    -402.643E+06    -786.502E+06     6.68706E+09    -1.57047E+09     6.47807E+09    -408.826E+06     5.89414E+09    -773.900E+06    -176.405E+06     61.5663E+06     101.355E+06
            1108               1     6.80261E+09     6.09335E+09     6.09335E+09    -563.598E+06    -846.103E+06     6.93946E+09    -1.56122E+09     6.78939E+09    -564.494E+06     6.07017E+09    -822.019E+06    -329.293E+06    -56.7141E+06    -221.254E+06
            1109               1     6.79922E+09     6.12530E+09     6.12530E+09    -474.588E+06    -857.103E+06     6.98240E+09    -1.59787E+09     6.77495E+09    -468.647E+06     6.11483E+09    -852.573E+06    -249.217E+06     33.0582E+06     86.9233E+06
            1110               1     6.29228E+09     5.75007E+09     5.75007E+09    -364.385E+06    -706.111E+06     6.45618E+09    -1.55986E+09     6.27135E+09    -372.151E+06     5.74976E+09    -698.032E+06     38.5311E+06     51.5603E+06    -21.7443E+06
            1111               1     6.59793E+09     6.00160E+09     6.00160E+09    -348.002E+06    -819.373E+06     6.82098E+09    -1.61141E+09     6.55989E+09    -348.386E+06     6.00114E+09    -818.521E+06     52.7746E+06     19.5516E+06    -14.4841E+06
            1112               1     6.59673E+09     5.98926E+09     5.98926E+09    -410.387E+06    -788.297E+06     6.77756E+09    -1.59686E+09     6.57231E+09    -411.853E+06     5.98594E+09    -783.511E+06    -122.137E+06    -36.1258E+06    -82.4984E+06
            1113               1     6.53410E+09     5.96120E+09     5.96120E+09    -316.990E+06    -801.806E+06     6.76300E+09    -1.61413E+09     6.49345E+09    -318.569E+06     5.96093E+09    -799.958E+06    -32.6902E+06     28.9367E+06     25.8701E+06
            1114               1     7.13231E+09     6.34383E+09     6.34383E+09    -662.498E+06    -908.108E+06     7.25194E+09    -1.59108E+09     7.12278E+09    -637.240E+06     6.31804E+09    -907.577E+06    -422.380E+06    -6.06191E+06    -41.4489E+06
            1115               1     6.45956E+09     5.90673E+09     5.90673E+09    -284.101E+06    -791.607E+06     6.69834E+09    -1.61034E+09     6.41447E+09    -284.163E+06     5.90670E+09    -791.516E+06     8.68721E+06    -6.12126E+06     10.6207E+06
            1116               1     6.78022E+09     5.77132E+09     5.77132E+09    -625.630E+06    -1.33621E+09     7.10753E+09    -1.26983E+09     6.69568E+09    -1.29716E+09     5.62289E+09    -516.262E+06    -462.544E+06     19.5994E+06     863.199E+06
            1117               1     7.35133E+09     6.20017E+09     6.20017E+09    -770.429E+06    -1.48038E+09     7.68055E+09    -1.31646E+09     7.27361E+09    -1.44483E+09     6.07060E+09    -676.406E+06    -507.440E+06     22.2659E+06    -810.547E+06
            1118               1     6.13646E+09     5.34826E+09     5.34826E+09    -438.973E+06    -1.08613E+09     6.43439E+09    -1.27439E+09     6.05897E+09    -1.04824E+09     5.26796E+09    -396.562E+06    -358.689E+06    -72.3641E+06    -592.023E+06
            1119               1     8.19468E+09     6.91945E+09     6.91945E+09    -942.894E+06    -1.57139E+09     8.49083E+09    -1.46839E+09     8.14020E+09    -1.53326E+09     6.83445E+09    -896.026E+06     563.173E+06     24.8887E+06     607.453E+06
            1120               1     8.55685E+09     7.22238E+09     7.22238E+09    -920.535E+06    -1.69566E+09     8.91804E+09    -1.53540E+09     8.47733E+09    -1.65394E+09     7.16280E+09    -902.669E+06     607.195E+06    -17.4122E+06    -381.747E+06
            1121               1     8.03764E+09     7.01357E+09     7.01357E+09    -915.982E+06    -1.12796E+09     8.14153E+09    -1.65654E+09     8.03135E+09    -1.09929E+09     6.98190E+09    -912.986E+06    -478.704E+06    -19.0455E+06     163.593E+06
            1122               1     7.99253E+09     7.00256E+09     7.00256E+09    -852.216E+06    -1.12095E+09     8.12351E+09    -1.67646E+09     7.98236E+09    -1.08973E+09     6.95484E+09    -835.720E+06    -481.564E+06    -2.80752E+06    -386.728E+06
            1123               1     7.29404E+09     6.39830E+09     6.39830E+09    -818.479E+06    -970.620E+06     7.36892E+09    -1.53640E+09     7.29047E+09    -945.014E+06     6.36287E+09    -808.655E+06    -426.749E+06     5.26795E+06    -276.484E+06
            1124               1     5.80876E+09     5.33584E+09     5.33584E+09    -323.752E+06    -611.410E+06     5.94725E+09    -1.46689E+09     5.79270E+09    -542.649E+06     5.33501E+09    -391.686E+06     37.4051E+06    -122.173E+06     58.8484E+06
            1125               1     6.20273E+09     5.64395E+09     5.64395E+09    -430.565E+06    -679.503E+06     6.32345E+09    -1.51129E+09     6.19147E+09    -489.467E+06     5.63316E+09    -609.812E+06     157.545E+06    -102.953E+06     207.952E+06
            1126               1     4.77607E+09     4.46700E+09     4.46700E+09     239.162E+06    -713.657E+06     5.18066E+09    -1.33083E+09     4.55481E+09    -689.074E+06     4.46448E+09     217.098E+06    -72.1094E+06     146.894E+06     82.1371E+06
            1127               1     4.95761E+09     4.49805E+09     4.49805E+09     127.328E+06    -888.949E+06     5.38699E+09    -1.24548E+09     4.71462E+09    -856.297E+06     4.46442E+09     128.307E+06     273.535E+06     121.406E+06    -299.187E+06
            1128               1     5.25800E+09     4.59483E+09     4.59483E+09    -98.9020E+06    -1.08719E+09     5.68202E+09    -1.13624E+09     5.04264E+09    -1.04734E+09     4.51649E+09    -60.4215E+06    -388.569E+06     78.2946E+06     495.314E+06
            1129               1     5.61409E+09     4.50518E+09     4.50518E+09    -461.287E+06    -1.58618E+09     6.09137E+09    -819.238E+06     5.35165E+09    -1.54152E+09     4.39983E+09    -400.600E+06     506.843E+06    -2.47603E+06    -555.136E+06
            1130               1     8.53905E+09     7.06401E+09     7.06401E+09    -552.584E+06    -2.16701E+09     9.23103E+09    -1.44814E+09     8.18505E+09    -2.11346E+09     6.90133E+09    -443.459E+06    -676.342E+06    -139.160E+06     910.012E+06
            1131               1     9.48353E+09     7.83600E+09     7.83600E+09    -669.524E+06    -2.38999E+09     10.2260E+09    -1.59216E+09     9.12245E+09    -2.35108E+09     7.79707E+09    -669.513E+06    -629.584E+06    -2.41123E+06    -12.0662E+06
            1132               1     9.21138E+09     7.60446E+09     7.60446E+09    -626.543E+06    -2.34520E+09     9.94966E+09    -1.54424E+09     8.83979E+09    -2.30006E+09     7.52563E+09    -592.851E+06    -660.420E+06     75.9081E+06    -528.979E+06
            1133               1     6.64501E+09     5.32544E+09     5.32544E+09    -712.935E+06    -1.79370E+09     7.11915E+09    -939.602E+06     6.44281E+09    -1.73937E+09     5.14323E+09    -585.057E+06    -613.790E+06     71.3947E+06    -866.547E+06
            1134               1     5.78739E+09     4.80824E+09     4.80824E+09    -392.910E+06    -1.42618E+09     6.23443E+09    -996.384E+06     5.57417E+09    -1.38071E+09     4.67907E+09    -309.214E+06    -507.467E+06    -2.97215E+06    -669.637E+06
            1135               1     5.21957E+09     4.54835E+09     4.54835E+09    -95.5155E+06    -1.10071E+09     5.64906E+09    -1.11737E+09     4.99479E+09    -1.06205E+09     4.47666E+09    -62.4910E+06    -383.283E+06    -79.1507E+06    -463.400E+06
            1136               1     4.75414E+09     4.41989E+09     4.41989E+09     236.920E+06    -750.373E+06     5.17026E+09    -1.30215E+09     4.51476E+09    -727.443E+06     4.41676E+09     217.121E+06     91.8551E+06    -141.996E+06     81.6740E+06
            1137               1     5.25010E+09     4.54003E+09     4.54003E+09    -144.265E+06    -1.13478E+09     5.67481E+09    -1.08699E+09     5.03340E+09    -1.09585E+09     4.47267E+09    -115.835E+06     393.063E+06    -75.2724E+06     436.472E+06
            1138               1     5.76072E+09     4.73303E+09     4.73303E+09    -434.425E+06    -1.47823E+09     6.21126E+09    -940.125E+06     5.54194E+09    -1.43275E+09     4.60742E+09    -354.294E+06     512.297E+06     4.85503E+06     649.582E+06
            1139               1     5.11802E+09     4.80217E+09     4.80217E+09     58.0447E+06    -621.803E+06     5.42397E+09    -1.41280E+09     5.01493E+09    -566.112E+06     4.78920E+09     15.3255E+06    -151.597E+06    -174.046E+06    -208.758E+06
            1140               1     8.58857E+09     7.05591E+09     7.05591E+09    -625.145E+06    -2.21735E+09     9.27326E+09    -1.40447E+09     8.24666E+09    -2.16293E+09     6.90765E+09    -531.306E+06     680.613E+06     140.190E+06     851.878E+06
            1141               1     9.26433E+09     7.61744E+09     7.61744E+09    -684.685E+06    -2.37605E+09     9.99349E+09    -1.51890E+09     8.90698E+09    -2.32788E+09     7.53465E+09    -650.060E+06     685.648E+06     72.3224E+06     536.895E+06
            1142               1     9.50969E+09     7.84873E+09     7.84873E+09    -653.929E+06    -2.42031E+09     10.2690E+09    -1.59150E+09     9.12960E+09    -2.37669E+09     7.80503E+09    -653.851E+06     667.742E+06    -2.86223E+06     27.9727E+06
            1143               1     7.72555E+09     6.70745E+09     6.70745E+09    -976.663E+06    -1.05888E+09     7.76633E+09    -1.55730E+09     7.72457E+09    -956.867E+06     6.62024E+09    -991.470E+06     814.265E+06     39.6902E+06     69.1728E+06
            1144               1     8.54963E+09     6.93046E+09     6.93046E+09    -797.858E+06    -2.25357E+09     9.18403E+09    -1.29301E+09     8.26389E+09    -2.19657E+09     6.76925E+09    -693.653E+06     706.326E+06    -119.948E+06    -891.901E+06
            1145               1     5.27698E+09     4.54954E+09     4.54954E+09    -118.129E+06    -1.17637E+09     5.72591E+09    -1.08502E+09     5.02986E+09    -1.13470E+09     4.47008E+09    -80.3314E+06     407.570E+06     78.3834E+06    -487.842E+06
            1146               1     6.39936E+09     5.87472E+09     5.87472E+09    -321.601E+06    -709.979E+06     6.58470E+09    -1.61438E+09     6.37276E+09    -339.057E+06     5.83333E+09    -651.128E+06    -364.902E+06     95.4628E+06     366.529E+06
            1147               1     6.63152E+09     5.74117E+09     5.74117E+09    -530.556E+06    -1.19945E+09     6.94062E+09    -1.33705E+09     6.55498E+09    -1.14157E+09     5.61107E+09    -458.349E+06    -588.066E+06    -8.11475E+06    -704.270E+06
            1148               1     6.26018E+09     5.77170E+09     5.77170E+09    -283.373E+06    -675.189E+06     6.44689E+09    -1.60438E+09     6.23250E+09    -325.960E+06     5.74178E+09    -602.683E+06    -295.616E+06    -122.835E+06    -321.098E+06
            1149               1     8.15713E+09     6.97392E+09     6.97392E+09    -782.911E+06    -1.53185E+09     8.50577E+09    -1.55305E+09     8.07923E+09    -1.47158E+09     6.86587E+09    -735.135E+06    -710.056E+06     64.3893E+06    -605.069E+06
            1150               1     6.43086E+09     5.99780E+09     5.99780E+09    -129.077E+06    -699.097E+06     6.69690E+09    -1.72321E+09     6.37365E+09    -138.185E+06     5.99779E+09    -689.983E+06    -2.70223E+06    -71.4746E+06    -6.02630E+06
            1151               1     8.20575E+09     7.00051E+09     7.00051E+09    -919.430E+06    -1.46393E+09     8.46444E+09    -1.53905E+09     8.16496E+09    -1.37029E+09     6.90403E+09    -916.589E+06     884.486E+06    -7.20263E+06    -153.955E+06
            1152               1     4.75928E+09     4.43669E+09     4.43669E+09     232.578E+06    -730.454E+06     5.16715E+09    -1.31294E+09     4.53221E+09    -704.084E+06     4.43222E+09     210.678E+06     103.881E+06     148.926E+06    -103.069E+06
            1153               1     5.94300E+09     4.95468E+09     4.95468E+09    -449.776E+06    -1.40994E+09     6.36462E+09    -1.03166E+09     5.76461E+09    -1.36158E+09     4.83111E+09    -374.563E+06    -522.979E+06     11.3084E+06     654.971E+06
            1154               1     5.72242E+09     5.36918E+09     5.36918E+09    -148.052E+06    -538.440E+06     5.90762E+09    -1.56090E+09     5.69234E+09    -313.286E+06     5.36867E+09    -372.702E+06     26.8713E+06     192.685E+06    -47.4005E+06
            1155               1     6.55685E+09     5.17369E+09     5.17369E+09    -803.224E+06    -1.83964E+09     7.01333E+09    -843.609E+06     6.36864E+09    -1.78495E+09     5.02290E+09    -707.133E+06    -612.362E+06    -59.5818E+06     749.598E+06
            1156               1     7.39135E+09     5.86479E+09     5.86479E+09    -779.563E+06    -2.09651E+09     7.96130E+09    -996.239E+06     7.12018E+09    -2.04094E+09     5.68124E+09    -651.589E+06    -642.367E+06    -133.540E+06     914.156E+06
            1157               1     8.44940E+09     6.79944E+09     6.79944E+09    -796.806E+06    -2.30106E+09     9.10049E+09    -1.23386E+09     8.13992E+09    -2.24906E+09     6.65131E+09    -700.675E+06    -664.368E+06     127.268E+06    -853.740E+06
            1158               1     4.91889E+09     4.48273E+09     4.48273E+09     133.610E+06    -855.593E+06     5.33832E+09    -1.25358E+09     4.68720E+09    -826.775E+06     4.45749E+09     130.032E+06    -240.245E+06    -120.643E+06    -255.472E+06
            1159               1     4.76687E+09     4.45378E+09     4.45378E+09     260.522E+06    -730.811E+06     5.18459E+09    -1.32783E+09     4.52615E+09    -708.370E+06     4.45112E+09     240.743E+06    -74.8087E+06    -142.754E+06    -83.5541E+06
            1160               1     6.54021E+09     5.18978E+09     5.18978E+09    -699.111E+06    -1.84919E+09     7.03897E+09    -880.492E+06     6.30666E+09    -1.79679E+09     5.00981E+09    -571.543E+06     598.672E+06     87.6012E+06     853.399E+06
            1161               1     7.58348E+09     6.02957E+09     6.02957E+09    -826.215E+06    -2.11614E+09     8.14571E+09    -1.02907E+09     7.33054E+09    -2.06148E+09     5.83182E+09    -683.128E+06     647.899E+06     129.031E+06     979.041E+06
            1162               1     9.18683E+09     7.51166E+09     7.51166E+09    -722.916E+06    -2.39715E+09     9.90881E+09    -1.46386E+09     8.83376E+09    -2.34920E+09     7.42534E+09    -684.546E+06     679.606E+06    -78.4907E+06    -563.428E+06
            1163               1     8.91753E+09     7.67133E+09     7.67133E+09    -772.794E+06    -1.65415E+09     9.32548E+09    -1.74813E+09     8.81874E+09    -1.60084E+09     7.61768E+09    -772.450E+06     702.974E+06    -7.25396E+06    -54.3156E+06
            1164               1     7.50969E+09     6.09135E+09     6.09135E+09    -650.947E+06    -2.00226E+09     8.09361E+09    -1.14605E+09     7.22853E+09    -1.94224E+09     5.86410E+09    -483.731E+06     671.850E+06    -149.859E+06    -1.04776E+09
            1165               1     7.96009E+09     6.86036E+09     6.86036E+09    -736.538E+06    -1.41898E+09     8.27935E+09    -1.56828E+09     7.89388E+09    -1.35706E+09     6.75548E+09    -693.581E+06     711.382E+06    -46.0659E+06    -567.899E+06
            1166               1     6.30890E+09     4.94452E+09     4.94452E+09    -644.804E+06    -1.89637E+09     6.84088E+09    -801.115E+06     6.02002E+09    -1.84622E+09     4.76549E+09    -515.927E+06     575.372E+06    -96.2808E+06    -835.163E+06
            1167               1     7.10028E+09     6.06538E+09     6.06538E+09    -679.852E+06    -1.34337E+09     7.40875E+09    -1.34739E+09     7.03002E+09    -1.28519E+09     5.94025E+09    -612.898E+06     625.558E+06    -5.07503E+06    -692.492E+06
            1168               1     5.30085E+09     4.88016E+09     4.88016E+09    -73.9172E+06    -710.045E+06     5.59021E+09    -1.36540E+09     5.21394E+09    -642.549E+06     4.84198E+09    -103.231E+06     283.002E+06     158.218E+06    -351.475E+06
            1169               1     5.06539E+09     4.79680E+09     4.79680E+09     65.7540E+06    -547.169E+06     5.34396E+09    -1.43846E+09     4.98094E+09    -488.290E+06     4.79674E+09     6.93210E+06    -7.96515E+06     180.577E+06     15.0810E+06
            1170               1     4.89012E+09     4.46388E+09     4.46388E+09     135.233E+06    -840.575E+06     5.30445E+09    -1.25285E+09     4.66346E+09    -809.171E+06     4.43925E+09     128.455E+06    -236.926E+06     129.686E+06     251.919E+06
            1171               1     6.00901E+09     5.32475E+09     5.32475E+09    -375.479E+06    -951.547E+06     6.27629E+09    -1.33257E+09     5.94640E+09    -890.667E+06     5.22994E+09    -341.549E+06    -462.966E+06     76.2420E+06     590.287E+06
            1172               1     8.76043E+09     7.54137E+09     7.54137E+09    -779.594E+06    -1.60070E+09     9.14208E+09    -1.72036E+09     8.67322E+09    -1.53841E+09     7.47518E+09    -775.695E+06    -744.231E+06    -48.9054E+06     203.730E+06
            1173               1     8.70828E+09     7.43565E+09     7.43565E+09    -849.365E+06    -1.64173E+09     9.07739E+09    -1.64819E+09     8.62662E+09    -1.58395E+09     7.36018E+09    -831.671E+06    -721.151E+06     33.2015E+06    -381.131E+06
            1174               1     8.07541E+09     6.92126E+09     6.92126E+09    -984.611E+06    -1.31364E+09     8.23489E+09    -1.54100E+09     8.06031E+09    -1.21747E+09     6.83123E+09    -990.751E+06    -849.579E+06    -38.1014E+06    -106.968E+06
            1175               1     4.96297E+09     4.68619E+09     4.68619E+09     139.025E+06    -607.911E+06     5.29410E+09    -1.40577E+09     4.83408E+09    -567.522E+06     4.68542E+09     99.4068E+06    -40.1459E+06    -167.974E+06    -47.4164E+06
            1176               1     4.92550E+09     4.49971E+09     4.49971E+09     170.980E+06    -859.506E+06     5.35922E+09    -1.27040E+09     4.67364E+09    -829.873E+06     4.47075E+09     170.309E+06     254.300E+06    -120.169E+06     275.565E+06
            1177               1     5.54922E+09     5.03821E+09     5.03821E+09    -164.510E+06    -802.397E+06     5.84060E+09    -1.35710E+09     5.46583E+09    -742.521E+06     4.97356E+09    -159.738E+06     356.017E+06    -121.737E+06     478.618E+06
            1178               1     7.44513E+09     6.50964E+09     6.50964E+09    -771.465E+06    -1.08933E+09     7.59897E+09    -1.54962E+09     7.42984E+09    -947.250E+06     6.41675E+09    -820.655E+06     718.804E+06    -93.1677E+06     424.851E+06
            1179               1     5.57185E+09     5.18127E+09     5.18127E+09    -163.918E+06    -592.481E+06     5.77375E+09    -1.47496E+09     5.53458E+09    -452.040E+06     5.15700E+09    -280.081E+06     200.390E+06     187.663E+06    -312.528E+06
            1180               1     5.68617E+09     5.19470E+09     5.19470E+09    -224.109E+06    -725.605E+06     5.92031E+09    -1.41500E+09     5.63609E+09    -649.999E+06     5.14418E+09    -249.194E+06    -328.434E+06     135.892E+06     425.320E+06
            1181               1     9.28891E+09     7.70913E+09     7.70913E+09    -605.326E+06    -2.31633E+09     10.0255E+09    -1.59583E+09     8.92398E+09    -2.27141E+09     7.62775E+09    -568.854E+06    -664.808E+06    -65.1869E+06     549.863E+06
            1182               1     6.42701E+09     5.73729E+09     5.73729E+09    -507.747E+06    -857.417E+06     6.59470E+09    -1.45737E+09     6.40555E+09    -734.316E+06     5.65829E+09    -551.855E+06    -508.959E+06    -109.737E+06    -503.595E+06
            1183               1     5.09577E+09     4.80304E+09     4.80304E+09     82.2572E+06    -599.162E+06     5.40220E+09    -1.42871E+09     4.99173E+09    -543.151E+06     4.79787E+09     31.4122E+06     88.6589E+06     182.741E+06    -135.724E+06
            1184               1     5.52588E+09     5.06604E+09     5.06604E+09    -146.842E+06    -727.065E+06     5.79310E+09    -1.39738E+09     5.45672E+09    -660.386E+06     5.02029E+09    -167.773E+06    -315.817E+06    -140.481E+06    -392.685E+06
            1185               1     8.75448E+09     7.56561E+09     7.56561E+09    -763.045E+06    -1.56017E+09     9.12578E+09    -1.74747E+09     8.67227E+09    -1.49724E+09     7.49734E+09    -757.706E+06     749.114E+06     46.5682E+06     226.047E+06
            1186               1     6.30185E+09     5.39126E+09     5.39126E+09    -470.630E+06    -1.27358E+09     6.66485E+09    -1.21568E+09     6.18520E+09    -1.22700E+09     5.23954E+09    -365.485E+06     534.501E+06    -17.7600E+06    -789.103E+06
            1187               1     6.49952E+09     5.77074E+09     5.77074E+09    -500.188E+06    -935.493E+06     6.70623E+09    -1.44502E+09     6.46660E+09    -782.456E+06     5.68363E+09    -566.120E+06     520.928E+06     147.188E+06    -549.670E+06
            1188               1     6.66039E+09     5.90134E+09     5.90134E+09    -582.742E+06    -922.370E+06     6.82371E+09    -1.46541E+09     6.64086E+09    -778.658E+06     5.81862E+09    -643.738E+06    -535.779E+06     114.096E+06     519.100E+06
            1189               1     7.54106E+09     5.97909E+09     5.97909E+09    -863.407E+06    -2.10615E+09     8.08524E+09    -1.00318E+09     7.30534E+09    -2.04927E+09     5.79071E+09    -731.900E+06    -657.586E+06     129.914E+06    -939.350E+06
            1190               1     7.18658E+09     6.21149E+09     6.21149E+09    -793.164E+06    -1.14415E+09     7.35564E+09    -1.42472E+09     7.16725E+09    -1.06700E+09     6.10753E+09    -766.354E+06     674.644E+06    -19.5061E+06     539.439E+06
            1191               1     6.12605E+09     5.37856E+09     5.37856E+09    -405.594E+06    -1.04001E+09     6.41857E+09    -1.31098E+09     6.05148E+09    -979.038E+06     5.27380E+09    -361.808E+06     497.412E+06    -67.1265E+06     619.995E+06
            1192               1     7.59162E+09     6.48644E+09     6.48644E+09    -690.509E+06    -1.46109E+09     7.94752E+09    -1.44495E+09     7.50288E+09    -1.40367E+09     6.34736E+09    -608.854E+06     669.471E+06     60.9952E+06     758.820E+06
            1193               1     7.25676E+09     6.38026E+09     6.38026E+09    -820.882E+06    -930.853E+06     7.31112E+09    -1.54284E+09     7.25488E+09    -780.022E+06     6.29735E+09    -888.805E+06     702.693E+06     16.8460E+06    -320.061E+06
            1194               1     5.30104E+09     4.96475E+09     4.96475E+09    -46.2618E+06    -585.150E+06     5.54990E+09    -1.44444E+09     5.23888E+09    -513.853E+06     4.94986E+09    -102.668E+06    -169.194E+06     169.972E+06     226.452E+06
            1195               1     8.89316E+09     7.67491E+09     7.67491E+09    -740.595E+06    -1.62919E+09     9.30410E+09    -1.76838E+09     8.79245E+09    -1.56702E+09     7.61287E+09    -740.721E+06    -755.983E+06     20.2741E+06    -39.4143E+06
            1196               1     6.61281E+09     6.13701E+09     6.13701E+09    -153.922E+06    -756.428E+06     6.89344E+09    -1.74222E+09     6.55063E+09    -150.155E+06     6.13129E+09    -754.475E+06     177.568E+06     25.4203E+06    -70.4322E+06
            1197               1     4.96364E+09     4.69977E+09     4.69977E+09     163.845E+06    -602.447E+06     5.30222E+09    -1.42039E+09     4.82786E+09    -561.298E+06     4.69673E+09     125.740E+06     78.2100E+06    -169.051E+06     95.2454E+06
            1198               1     5.47421E+09     5.12625E+09     5.12625E+09    -122.842E+06    -548.248E+06     5.67450E+09    -1.48505E+09     5.43683E+09    -425.336E+06     5.11534E+09    -234.838E+06     156.922E+06    -185.458E+06     191.519E+06
            1199               1     5.44634E+09     5.12150E+09     5.12150E+09    -102.222E+06    -523.037E+06     5.64454E+09    -1.49875E+09     5.40958E+09    -396.108E+06     5.11930E+09    -226.949E+06    -80.8903E+06    -191.539E+06    -76.4682E+06
            1200               1     6.52678E+09     6.00787E+09     6.00787E+09    -274.931E+06    -738.197E+06     6.74607E+09    -1.66491E+09     6.48963E+09    -278.372E+06     5.98994E+09    -716.824E+06     219.542E+06     61.7451E+06    -264.873E+06
            1201               1     7.60353E+09     6.52178E+09     6.52178E+09    -759.602E+06    -1.36741E+09     7.88919E+09    -1.46492E+09     7.54858E+09    -1.30506E+09     6.38227E+09    -682.440E+06    -687.116E+06    -37.1247E+06     752.044E+06
            1202               1     6.77966E+09     5.82254E+09     5.82254E+09    -560.211E+06    -1.29428E+09     7.11682E+09    -1.32268E+09     6.68937E+09    -1.23461E+09     5.67872E+09    -476.058E+06     594.615E+06    -15.4421E+06     769.613E+06
            1203               1     6.09685E+09     5.70549E+09     5.70549E+09    -194.070E+06    -571.155E+06     6.27664E+09    -1.64675E+09     6.07053E+09    -211.274E+06     5.70244E+09    -550.901E+06     97.5904E+06     80.5342E+06    -96.2350E+06
            1204               1     5.15372E+09     4.77953E+09     4.77953E+09     14.4165E+06    -690.277E+06     5.46981E+09    -1.36789E+09     5.04362E+09    -636.872E+06     4.76074E+09    -20.1980E+06     197.579E+06    -165.855E+06      241.71E+06
            1205               1     5.99885E+09     5.51195E+09     5.51195E+09    -302.406E+06    -655.776E+06     6.16773E+09    -1.51792E+09     5.97537E+09    -460.935E+06     5.47829E+09    -463.589E+06     270.971E+06    -160.494E+06     364.457E+06
            1206               1     8.31178E+09     7.06744E+09     7.06744E+09    -890.028E+06    -1.55831E+09     8.62574E+09    -1.53970E+09     8.25101E+09    -1.49792E+09     6.97369E+09    -856.663E+06    -717.761E+06    -44.0113E+06     512.306E+06
            1207               1     7.10673E+09     6.37838E+09     6.37838E+09    -509.797E+06    -928.394E+06     7.30678E+09    -1.64673E+09     7.07892E+09    -448.992E+06     6.31318E+09    -924.001E+06    -653.431E+06     13.7170E+06     140.706E+06
            1208               1     7.05239E+09     6.18063E+09     6.18063E+09    -737.980E+06    -998.347E+06     7.17897E+09    -1.48143E+09     7.04157E+09    -896.313E+06     6.09212E+09    -751.504E+06    -651.287E+06    -54.6465E+06    -450.063E+06
            1209               1     6.34332E+09     5.91288E+09     5.91288E+09    -187.952E+06    -647.883E+06     6.56076E+09    -1.69235E+09     6.30564E+09    -193.742E+06     5.90941E+09    -638.618E+06    -85.5105E+06    -54.5572E+06    -122.893E+06
            1210               1     6.92317E+09     6.32356E+09     6.32356E+09    -349.465E+06    -825.229E+06     7.14879E+09    -1.71629E+09     6.88625E+09    -317.294E+06     6.29037E+09    -824.217E+06     469.015E+06    -19.7964E+06     21.7787E+06
            1211               1     6.46164E+09     5.81896E+09     5.81896E+09    -499.895E+06    -776.587E+06     6.59555E+09    -1.51416E+09     6.44829E+09    -601.362E+06     5.74390E+09    -600.057E+06     493.286E+06    -100.814E+06     496.100E+06
            1212               1     6.18252E+09     5.78579E+09     5.78579E+09    -148.618E+06    -618.087E+06     6.40387E+09    -1.67303E+09     6.14223E+09    -161.964E+06     5.78171E+09    -600.665E+06    -69.2518E+06     78.6089E+06     145.394E+06
            1213               1     5.75048E+09     5.38199E+09     5.38199E+09    -192.139E+06    -529.959E+06     5.91194E+09    -1.55330E+09     5.72809E+09    -324.099E+06     5.37618E+09    -392.198E+06    -115.990E+06     162.481E+06     144.252E+06
            1214               1     5.81602E+09     5.40498E+09     5.40498E+09    -233.878E+06    -573.330E+06     5.97831E+09    -1.53259E+09     5.79366E+09    -390.627E+06     5.38687E+09    -398.474E+06    -185.850E+06    -161.152E+06    -270.571E+06
            1215               1     5.19727E+09     4.89173E+09     4.89173E+09     36.8509E+06    -590.914E+06     5.48264E+09    -1.44589E+09     5.11093E+09    -495.913E+06     4.89158E+09    -57.9985E+06     17.0657E+06    -224.852E+06     22.6667E+06
            1216               1     6.77896E+09     6.15831E+09     6.15831E+09    -366.837E+06    -848.736E+06     7.00705E+09    -1.64758E+09     6.74026E+09    -353.341E+06     6.11788E+09    -821.803E+06     434.911E+06    -66.4069E+06     286.270E+06
            1217               1     7.12510E+09     6.26661E+09     6.26661E+09    -747.802E+06    -964.251E+06     7.23086E+09    -1.51819E+09     7.11770E+09    -822.903E+06     6.17869E+09    -801.230E+06    -661.083E+06     64.0935E+06     436.901E+06
            1218               1     7.65006E+09     6.58235E+09     6.58235E+09    -875.687E+06    -1.24626E+09     7.82862E+09    -1.48680E+09     7.62983E+09    -1.14836E+09     6.47674E+09    -867.974E+06    -789.944E+06    -33.3965E+06    -434.082E+06
            1219               1     7.68992E+09     6.68171E+09     6.68171E+09    -858.840E+06    -1.14936E+09     7.83107E+09    -1.55784E+09     7.67756E+09    -1.05635E+09     6.58286E+09    -853.008E+06    -795.309E+06     18.8532E+06     360.918E+06
            1220               1     6.12166E+09     5.64490E+09     5.64490E+09    -286.270E+06    -650.944E+06     6.29585E+09    -1.56923E+09     6.09715E+09    -351.024E+06     5.61594E+09    -557.223E+06     285.610E+06     135.127E+06    -315.020E+06
            1221               1     5.77549E+09     5.11868E+09     5.11868E+09    -320.145E+06    -942.992E+06     6.06167E+09    -1.28518E+09     5.69920E+09    -897.073E+06     5.04107E+09    -288.451E+06     419.636E+06     64.1437E+06    -515.699E+06
            1222               1     6.54024E+09     6.06028E+09     6.06028E+09    -211.370E+06    -718.979E+06     6.77925E+09    -1.70998E+09     6.49570E+09    -215.603E+06     6.05312E+09    -707.590E+06     145.032E+06    -57.8887E+06     161.770E+06
            1223               1     6.82705E+09     6.24183E+09     6.24183E+09    -300.258E+06    -838.334E+06     7.08017E+09    -1.70108E+09     6.77910E+09    -279.829E+06     6.20841E+09    -825.346E+06     421.497E+06     46.7145E+06    -211.933E+06
            1224               1     6.02285E+09     5.56048E+09     5.56048E+09    -254.215E+06    -650.904E+06     6.21139E+09    -1.55179E+09     5.99335E+09    -387.791E+06     5.53375E+09    -490.590E+06    -245.496E+06     177.691E+06     324.184E+06
            1225               1     6.84134E+09     6.27554E+09     6.27554E+09    -296.537E+06    -806.534E+06     7.08207E+09    -1.72416E+09     6.79838E+09    -293.214E+06     6.27184E+09    -806.163E+06     155.567E+06     13.3834E+06    -8.47965E+06
            1226               1     6.10969E+09     5.73121E+09     5.73121E+09    -147.869E+06    -585.556E+06     6.31677E+09    -1.66593E+09     6.07427E+09    -181.757E+06     5.73003E+09    -550.490E+06    -68.4901E+06    -117.650E+06    -50.4890E+06
            1227               1     6.86390E+09     6.23664E+09     6.23664E+09    -373.132E+06    -855.906E+06     7.09255E+09    -1.66920E+09     6.82555E+09    -374.240E+06     6.20191E+09    -820.073E+06    -400.971E+06     91.4024E+06     276.490E+06
            1228               1     7.12461E+09     6.36998E+09     6.36998E+09    -573.167E+06    -923.189E+06     7.29317E+09    -1.62454E+09     7.10523E+09    -494.667E+06     6.28812E+09    -919.822E+06    -734.344E+06     22.1371E+06    -152.978E+06
            1229               1     6.61541E+09     6.12800E+09     6.12800E+09    -144.721E+06    -783.726E+06     6.91173E+09    -1.73319E+09     6.54544E+09    -142.242E+06     6.12507E+09    -783.276E+06    -133.970E+06     16.1046E+06    -21.1051E+06
            1230               1     6.62960E+09     6.13719E+09     6.13719E+09    -175.492E+06    -769.370E+06     6.90656E+09    -1.73078E+09     6.56936E+09    -171.622E+06     6.13319E+09    -769.236E+06     156.450E+06    -1.63901E+06     29.4247E+06
            1231               1     6.31909E+09     5.90036E+09     5.90036E+09    -169.300E+06    -641.651E+06     6.54201E+09    -1.69647E+09     6.27919E+09    -177.526E+06     5.89906E+09    -632.118E+06     74.5407E+06    -64.4457E+06     51.3923E+06
            1232               1     6.48140E+09     6.01238E+09     6.01238E+09    -202.139E+06    -706.455E+06     6.71883E+09    -1.70126E+09     6.43704E+09    -203.662E+06     6.00792E+09    -700.474E+06    -132.160E+06     44.3056E+06     106.148E+06
            1233               1     6.75171E+09     6.17387E+09     6.17387E+09    -333.086E+06    -798.512E+06     6.97238E+09    -1.68076E+09     6.71547E+09    -326.956E+06     6.15423E+09    -785.004E+06    -282.786E+06    -43.4572E+06    -227.834E+06
            1234               1     6.78716E+09     6.24113E+09     6.24113E+09    -255.837E+06    -803.076E+06     7.04421E+09    -1.72741E+09     6.73725E+09    -247.515E+06     6.23226E+09    -802.521E+06    -232.489E+06    -4.38017E+06     61.9278E+06
            1235               1     6.32522E+09     5.90327E+09     5.90327E+09    -152.532E+06    -660.700E+06     6.56397E+09    -1.69668E+09     6.27905E+09    -164.943E+06     5.90291E+09    -647.920E+06     5.10749E+06     78.4152E+06    -48.9039E+06
            1236               1     6.59468E+09     6.12788E+09     6.12788E+09    -122.571E+06    -764.124E+06     6.89201E+09    -1.74706E+09     6.52391E+09    -121.947E+06     6.12714E+09    -764.011E+06     63.1286E+06    -3.17992E+06    -26.2580E+06
            1237               1     6.55059E+09     6.08388E+09     6.08388E+09    -176.838E+06    -722.460E+06     6.80634E+09    -1.72819E+09     6.49917E+09    -173.471E+06     6.07782E+09    -719.766E+06    -179.491E+06    -28.8624E+06    -79.6101E+06
            1238               1     6.61058E+09     6.15510E+09     6.15510E+09    -130.360E+06    -738.558E+06     6.89366E+09    -1.76206E+09     6.54719E+09    -131.641E+06     6.15427E+09    -736.442E+06    -56.8603E+06     32.5764E+06     47.2553E+06
            1239               1     6.95946E+09     6.34511E+09     6.34511E+09    -379.200E+06    -827.790E+06     7.17290E+09    -1.71271E+09     6.92682E+09    -360.305E+06     6.32609E+09    -827.667E+06    -356.047E+06    -772.439E+03    -28.2648E+06
            1240               1     6.60124E+09     6.16233E+09     6.16233E+09    -119.524E+06    -717.610E+06     6.87994E+09    -1.77506E+09     6.53987E+09    -119.571E+06     6.16197E+09    -717.208E+06     39.3094E+06    -13.0724E+06     27.4383E+06
            1241               1     6.67855E+09     5.80502E+09     5.80502E+09    -523.809E+06    -1.17548E+09     6.98050E+09    -1.36858E+09     6.60645E+09    -1.11731E+09     5.65657E+09    -433.524E+06    -587.722E+06     2.96452E+06     784.371E+06
            1242               1     7.29870E+09     6.24004E+09     6.24004E+09    -660.018E+06    -1.40081E+09     7.64085E+09    -1.39307E+09     7.21340E+09    -1.33945E+09     6.10829E+09    -589.630E+06    -657.515E+06     9.42465E+06    -713.486E+06
            1243               1     6.01219E+09     5.34446E+09     5.34446E+09    -346.556E+06    -944.251E+06     6.28871E+09    -1.35122E+09     5.94480E+09    -877.846E+06     5.25828E+09    -326.781E+06    -447.326E+06    -98.6914E+06    -560.525E+06
            1244               1     8.26771E+09     7.05176E+09     7.05176E+09    -860.455E+06    -1.53065E+09     8.58241E+09    -1.55355E+09     8.20627E+09    -1.46956E+09     6.95154E+09    -821.323E+06     719.201E+06     38.4851E+06     554.547E+06
            1245               1     8.66847E+09     7.45263E+09     7.45263E+09    -754.315E+06    -1.61340E+09     9.06603E+09    -1.69497E+09     8.57191E+09    -1.55796E+09     7.38347E+09    -740.603E+06     705.828E+06    -34.0488E+06    -334.403E+06
            1246               1     7.97808E+09     6.87097E+09     6.87097E+09    -981.856E+06    -1.22672E+09     8.09769E+09    -1.55413E+09     7.96961E+09    -1.12837E+09     6.78026E+09    -989.489E+06    -837.785E+06     33.6700E+06     156.369E+06
            1247               1     8.00452E+09     6.86495E+09     6.86495E+09    -912.777E+06    -1.34857E+09     8.21352E+09    -1.53453E+09     7.97777E+09    -1.25892E+09     6.76465E+09    -902.135E+06    -848.513E+06     11.4307E+06    -299.884E+06
            1248               1     6.91540E+09     6.22090E+09     6.22090E+09    -447.586E+06    -917.440E+06     7.13834E+09    -1.61863E+09     6.87935E+09    -476.045E+06     6.15014E+09    -818.219E+06    -576.884E+06    -141.706E+06    -397.217E+06
            1249               1     5.75832E+09     5.41995E+09     5.41995E+09    -149.131E+06    -510.570E+06     5.93052E+09    -1.58675E+09     5.73271E+09    -241.730E+06     5.41898E+09    -416.997E+06     49.7133E+06    -157.532E+06     57.3729E+06
            1250               1     6.19283E+09     5.76387E+09     5.76387E+09    -220.885E+06    -617.938E+06     6.38181E+09    -1.64168E+09     6.16410E+09    -249.543E+06     5.75058E+09    -575.992E+06     176.208E+06    -104.221E+06     229.986E+06
            1251               1     4.83421E+09     4.59736E+09     4.59736E+09     307.341E+06    -640.606E+06     5.23796E+09    -1.42136E+09     4.61810E+09    -599.257E+06     4.59522E+09     268.125E+06    -68.9950E+06     190.599E+06     75.0589E+06
            1252               1     4.95182E+09     4.57371E+09     4.57371E+09     207.921E+06    -806.916E+06     5.38062E+09    -1.32490E+09     4.70924E+09    -753.761E+06     4.53860E+09     189.873E+06     291.726E+06     174.712E+06    -298.989E+06
            1253               1     5.20680E+09     4.64885E+09     4.64885E+09     32.2354E+06    -995.004E+06     5.64385E+09    -1.22869E+09     4.97108E+09    -935.803E+06     4.57006E+09     51.8261E+06    -427.808E+06     126.706E+06     469.512E+06
            1254               1     5.64835E+09     4.64739E+09     4.64739E+09    -229.463E+06    -1.54151E+09     6.18890E+09    -958.807E+06     5.28893E+09    -1.48388E+09     4.55920E+09    -198.899E+06     571.039E+06     35.2103E+06    -415.148E+06
            1255               1     9.04858E+09     7.33895E+09     7.33895E+09    -412.978E+06    -2.60393E+09     9.94288E+09    -1.44068E+09     8.42018E+09    -2.49641E+09     7.16443E+09    -345.984E+06    -1.00160E+09    -177.780E+06     728.258E+06
            1256               1     10.4100E+09     8.44138E+09     8.44138E+09    -521.125E+06    -2.97689E+09     11.4183E+09    -1.64779E+09     9.72566E+09    -2.88903E+09     8.35356E+09    -521.166E+06    -997.535E+06     10.3043E+06    -1.31291E+06
            1257               1     10.0525E+09     8.15400E+09     8.15400E+09    -487.119E+06    -2.87856E+09     11.0326E+09    -1.59611E+09     9.37991E+09    -2.78788E+09     8.04453E+09    -468.314E+06    -984.979E+06     103.925E+06    -414.196E+06
            1258               1     6.63851E+09     5.38496E+09     5.38496E+09    -473.412E+06    -1.82550E+09     7.21047E+09    -1.02868E+09     6.31747E+09    -1.74112E+09     5.21695E+09    -389.785E+06    -768.335E+06     48.2661E+06    -696.090E+06
            1259               1     5.71981E+09     4.84611E+09     4.84611E+09    -195.651E+06    -1.36959E+09     6.21570E+09    -1.09362E+09     5.43876E+09    -1.30122E+09     4.72294E+09    -140.856E+06    -593.533E+06    -54.9416E+06    -578.383E+06
            1260               1     5.18434E+09     4.62777E+09     4.62777E+09     58.6553E+06    -1.00639E+09     5.63416E+09    -1.22668E+09     4.92911E+09    -948.496E+06     4.55955E+09     68.9718E+06    -421.571E+06    -133.077E+06    -416.950E+06
            1261               1     4.81237E+09     4.55158E+09     4.55158E+09     326.130E+06    -686.546E+06     5.23812E+09    -1.39705E+09     4.56331E+09    -649.134E+06     4.54865E+09     291.645E+06     90.7740E+06    -185.754E+06     78.8504E+06
            1262               1     5.23210E+09     4.61152E+09     4.61152E+09    -13.6279E+06    -1.06720E+09     5.67872E+09    -1.17690E+09     4.98499E+09    -1.00699E+09     4.54671E+09    -9.02856E+06     433.935E+06    -135.618E+06     390.590E+06
            1263               1     5.69733E+09     4.77546E+09     4.77546E+09    -224.435E+06    -1.42723E+09     6.20270E+09    -1.04127E+09     5.40047E+09    -1.35996E+09     4.65905E+09    -175.293E+06     596.274E+06    -50.0650E+06     542.858E+06
            1264               1     5.22254E+09     4.96731E+09     4.96731E+09     81.1690E+06    -536.670E+06     5.50398E+09    -1.50393E+09     5.13935E+09    -385.639E+06     4.95072E+09    -53.2754E+06    -166.216E+06    -255.096E+06    -247.139E+06
            1265               1     9.13101E+09     7.39050E+09     7.39050E+09    -482.690E+06    -2.61940E+09     10.0099E+09    -1.42947E+09     8.54091E+09    -2.51512E+09     7.22982E+09    -426.303E+06     989.297E+06     170.850E+06     678.237E+06
            1266               1     10.0720E+09     8.17125E+09     8.17125E+09    -506.088E+06    -2.87357E+09     11.0448E+09    -1.59720E+09     9.41490E+09    -2.78156E+09     8.06580E+09    -492.651E+06     985.481E+06     120.890E+06     370.382E+06
            1267               1     10.4782E+09     8.50917E+09     8.50917E+09    -491.319E+06    -2.99367E+09     11.5028E+09    -1.67473E+09     9.77142E+09    -2.91198E+09     8.42745E+09    -491.279E+06     965.673E+06    -7.38033E+06     27.0042E+06
            1268               1     7.08350E+09     6.50238E+09     6.50238E+09    -253.980E+06    -868.261E+06     7.37064E+09    -1.79338E+09     7.02320E+09    -221.505E+06     6.44727E+09    -845.622E+06     596.697E+06    -98.8050E+06     134.752E+06
            1269               1     8.96958E+09     7.22717E+09     7.22717E+09    -603.030E+06    -2.55900E+09     9.78617E+09    -1.35504E+09     8.46957E+09    -2.45692E+09     7.07231E+09    -550.256E+06     969.734E+06    -159.292E+06    -654.120E+06
            1270               1     5.25934E+09     4.59075E+09     4.59075E+09    -35.6747E+06    -1.12947E+09     5.72023E+09    -1.14187E+09     4.99372E+09    -1.07202E+09     4.51168E+09    -14.0512E+06     470.364E+06     103.903E+06    -437.722E+06
            1271               1     6.47210E+09     6.15712E+09     6.15712E+09    -53.3299E+06    -548.217E+06     6.70534E+09    -1.85186E+09     6.42933E+09    -57.7779E+06     6.13253E+09    -519.172E+06    -135.485E+06     51.8881E+06     381.249E+06
            1272               1     6.41758E+09     5.54339E+09     5.54339E+09    -506.786E+06    -1.18735E+09     6.73074E+09    -1.28309E+09     6.33563E+09    -976.045E+06     5.36236E+09    -537.054E+06    -766.096E+06    -171.994E+06    -763.837E+06
            1273               1     6.37828E+09     6.08281E+09     6.08281E+09    -62.0756E+06    -505.689E+06     6.58850E+09    -1.83835E+09     6.34343E+09    -64.7615E+06     6.06297E+09    -483.160E+06    -124.743E+06    -41.0567E+06    -337.979E+06
            1274               1     7.85516E+09     6.52202E+09     6.52202E+09    -874.455E+06    -1.72295E+09     8.24496E+09    -1.30820E+09     7.75106E+09    -1.51398E+09     6.29099E+09    -852.402E+06    -1.19522E+09    -63.8176E+06    -636.121E+06
            1275               1     6.68990E+09     6.39391E+09     6.39391E+09     1.85481E+06    -558.576E+06     6.95249E+09    -1.94573E+09     6.63678E+09     1.88532E+06     6.39388E+09    -558.569E+06    -15.2540E+06     1.81107E+06     2.89550E+06
            1276               1     7.08803E+09     6.45567E+09     6.45567E+09    -427.208E+06    -821.093E+06     7.27676E+09    -1.73579E+09     7.06335E+09    -327.129E+06     6.33300E+09    -798.499E+06     892.013E+06     54.5894E+06    -204.403E+06
            1277               1     4.82397E+09     4.57851E+09     4.57851E+09     315.679E+06    -658.054E+06     5.23656E+09    -1.41204E+09     4.59499E+09    -614.200E+06     4.57441E+09     275.918E+06     94.7220E+06     196.275E+06    -104.372E+06
            1278               1     5.87772E+09     4.99311E+09     4.99311E+09    -269.456E+06    -1.34986E+09     6.34298E+09    -1.12460E+09     5.64780E+09    -1.27893E+09     4.87451E+09    -221.792E+06    -603.720E+06     60.3971E+06     567.421E+06
            1279               1     5.87568E+09     5.67497E+09     5.67497E+09    -21.6956E+06    -364.685E+06     6.03966E+09    -1.76286E+09     5.85309E+09    -52.1702E+06     5.67452E+09    -333.760E+06     28.3175E+06     97.5797E+06    -43.6878E+06
            1280               1     6.57076E+09     5.26757E+09     5.26757E+09    -594.061E+06    -1.83528E+09     7.10285E+09    -946.075E+06     6.29885E+09    -1.75231E+09     5.12371E+09    -533.176E+06    -754.724E+06    -27.6513E+06     600.177E+06
            1281               1     7.51288E+09     5.92741E+09     5.92741E+09    -581.389E+06    -2.29388E+09     8.22130E+09    -1.01738E+09     7.05341E+09    -2.19440E+09     5.74860E+09    -502.065E+06    -883.741E+06    -142.502E+06     713.327E+06
            1282               1     8.95149E+09     7.14643E+09     7.14643E+09    -590.014E+06    -2.65810E+09     9.80453E+09    -1.29944E+09     8.38833E+09    -2.55623E+09     6.99555E+09    -541.002E+06    -964.411E+06     170.355E+06    -633.318E+06
            1283               1     4.94947E+09     4.60082E+09     4.60082E+09     236.013E+06    -776.665E+06     5.37749E+09    -1.35339E+09     4.70784E+09    -731.114E+06     4.57822E+09     213.066E+06    -241.681E+06    -173.659E+06    -233.806E+06
            1284               1     4.82729E+09     4.58616E+09     4.58616E+09     352.117E+06    -670.510E+06     5.25667E+09    -1.42259E+09     4.57396E+09    -635.401E+06     4.58383E+09     319.343E+06    -74.5132E+06    -182.412E+06    -76.2323E+06
            1285               1     6.53813E+09     5.25715E+09     5.25715E+09    -444.872E+06    -1.87899E+09     7.13614E+09    -977.765E+06     6.16918E+09    -1.79497E+09     5.09299E+09    -364.730E+06     763.917E+06     52.0079E+06     670.871E+06
            1286               1     7.78417E+09     6.16585E+09     6.16585E+09    -606.917E+06    -2.33820E+09     8.50405E+09    -1.07358E+09     7.33198E+09    -2.23990E+09     5.97892E+09    -518.290E+06     888.649E+06     159.017E+06     771.375E+06
            1287               1     10.0088E+09     8.09017E+09     8.09017E+09    -526.612E+06    -2.88826E+09     10.9784E+09    -1.55843E+09     9.35058E+09    -2.79998E+09     7.98332E+09    -508.040E+06     964.781E+06    -116.505E+06    -418.427E+06
            1288               1     8.74946E+09     7.11950E+09     7.11950E+09    -986.855E+06    -2.15558E+09     9.27508E+09    -1.32569E+09     8.57121E+09    -1.91653E+09     6.88221E+09    -988.610E+06     1.46240E+09     40.6108E+06    -77.5576E+06
            1289               1     7.67756E+09     6.17022E+09     6.17022E+09    -518.344E+06    -2.21313E+09     8.38335E+09    -1.14625E+09     7.23851E+09    -2.11346E+09     5.94935E+09    -397.137E+06     896.289E+06    -143.653E+06    -886.319E+06
            1290               1     7.51213E+09     6.37441E+09     6.37441E+09    -782.094E+06    -1.44888E+09     7.82329E+09    -1.38115E+09     7.44511E+09    -1.25442E+09     6.14791E+09    -750.038E+06     1.14229E+09     25.9832E+06    -632.541E+06
            1291               1     6.34675E+09     5.04244E+09     5.04244E+09    -367.237E+06    -1.94408E+09     6.98652E+09    -910.372E+06     5.88131E+09    -1.86848E+09     4.88777E+09    -288.177E+06     715.354E+06    -100.959E+06    -645.004E+06
            1292               1     6.81157E+09     5.81358E+09     5.81358E+09    -680.148E+06    -1.27659E+09     7.09018E+09    -1.28561E+09     6.75244E+09    -1.07635E+09     5.62395E+09    -690.752E+06     879.369E+06     119.655E+06    -724.684E+06
            1293               1     5.36958E+09     5.03974E+09     5.03974E+09    -1.65201E+06    -606.756E+06     5.64650E+09    -1.47711E+09     5.29205E+09    -425.732E+06     5.00052E+09    -143.451E+06     226.148E+06     256.941E+06    -403.626E+06
            1294               1     5.20633E+09     5.01800E+09     5.01800E+09     109.758E+06    -442.415E+06     5.46041E+09    -1.56178E+09     5.13983E+09    -267.417E+06     5.01759E+09    -64.8394E+06    -41.4664E+06     256.627E+06     21.5715E+06
            1295               1     4.91712E+09     4.58505E+09     4.58505E+09     228.188E+06    -746.377E+06     5.33143E+09    -1.35562E+09     4.69239E+09    -696.136E+06     4.56149E+09     201.512E+06    -238.589E+06     181.381E+06     244.767E+06
            1296               1     5.89622E+09     5.29624E+09     5.29624E+09    -281.442E+06    -873.801E+06     6.17004E+09    -1.38033E+09     5.82871E+09    -653.234E+06     5.17529E+09    -381.058E+06    -526.960E+06     212.363E+06     667.752E+06
            1297               1     8.39252E+09     6.96141E+09     6.96141E+09    -924.271E+06    -1.85959E+09     8.82100E+09    -1.39252E+09     8.27404E+09    -1.63912E+09     6.73909E+09    -922.423E+06    -1.36167E+09     29.8691E+06     235.111E+06
            1298               1     8.38993E+09     6.88504E+09     6.88504E+09    -977.844E+06    -1.94764E+09     8.83269E+09    -1.31985E+09     8.26242E+09    -1.73403E+09     6.65857E+09    -964.989E+06    -1.34885E+09     7.98750E+06    -346.232E+06
            1299               1     7.09673E+09     6.45608E+09     6.45608E+09    -397.324E+06    -861.219E+06     7.31730E+09    -1.73251E+09     7.06250E+09    -302.584E+06     6.35677E+09    -856.643E+06    -812.889E+06     49.8455E+06    -100.356E+06
            1300               1     5.06681E+09     4.84098E+09     4.84098E+09     169.501E+06    -545.268E+06     5.38624E+09    -1.48840E+09     4.95148E+09    -406.143E+06     4.83998E+09     31.3709E+06    -51.5678E+06    -282.128E+06    -51.1169E+06
            1301               1     4.94979E+09     4.60073E+09     4.60073E+09     261.640E+06    -790.564E+06     5.39130E+09    -1.35727E+09     4.68816E+09    -745.973E+06     4.57371E+09     244.070E+06     259.714E+06    -168.389E+06     258.551E+06
            1302               1     5.53388E+09     5.11235E+09     5.11235E+09    -100.189E+06    -694.837E+06     5.80719E+09    -1.43911E+09     5.46130E+09    -509.665E+06     5.03600E+09    -209.008E+06     359.172E+06    -231.250E+06     547.402E+06
            1303               1     6.85266E+09     6.31375E+09     6.31375E+09    -321.363E+06    -737.487E+06     7.05124E+09    -1.75163E+09     6.82414E+09    -262.042E+06     6.22503E+09    -708.085E+06     623.915E+06     35.3650E+06     451.969E+06
            1304               1     5.68678E+09     5.46872E+09     5.46872E+09    -4.88436E+06    -409.595E+06     5.87832E+09    -1.68475E+09     5.65424E+09    -105.192E+06     5.44377E+09    -284.333E+06     126.560E+06      168.58E+06    -360.090E+06
            1305               1     5.70434E+09     5.32803E+09     5.32803E+09    -109.209E+06    -610.329E+06     5.93836E+09    -1.53617E+09     5.65450E+09    -368.825E+06     5.27104E+09    -293.720E+06    -313.595E+06     223.554E+06     484.543E+06
            1306               1     10.0899E+09     8.21095E+09     8.21095E+09    -454.583E+06    -2.86633E+09     11.0773E+09    -1.63001E+09     9.40807E+09    -2.77203E+09     8.10061E+09    -438.549E+06    -1.00521E+09    -107.890E+06     388.323E+06
            1307               1     6.23414E+09     5.79964E+09     5.79964E+09    -166.815E+06    -671.508E+06     6.47115E+09    -1.65377E+09     6.18793E+09    -213.337E+06     5.71962E+09    -544.961E+06    -379.460E+06    -137.794E+06    -605.027E+06
            1308               1     5.18872E+09     4.95444E+09     4.95444E+09     94.7341E+06    -510.264E+06     5.46470E+09    -1.51297E+09     5.10846E+09    -360.461E+06     4.94773E+09    -48.3609E+06     123.548E+06     256.236E+06    -144.314E+06
            1309               1     5.53740E+09     5.17387E+09     5.17387E+09    -86.5247E+06    -604.191E+06     5.77806E+09    -1.49438E+09     5.48257E+09    -413.809E+06     5.12114E+09    -224.172E+06    -291.345E+06    -221.853E+06    -461.379E+06
            1310               1     8.31312E+09     6.93231E+09     6.93231E+09    -896.811E+06    -1.79232E+09     8.72462E+09    -1.41439E+09     8.20356E+09    -1.57099E+09     6.70586E+09    -891.692E+06     1.36119E+09    -12.5493E+06     260.730E+06
            1311               1     6.21693E+09     5.27858E+09     5.27858E+09    -418.691E+06    -1.35238E+09     6.63096E+09    -1.16917E+09     6.05617E+09    -1.21623E+09     5.09639E+09    -372.636E+06     724.260E+06     133.828E+06    -771.843E+06
            1312               1     6.23657E+09     5.80242E+09     5.80242E+09    -226.809E+06    -622.649E+06     6.42506E+09    -1.65099E+09     6.20822E+09    -228.321E+06     5.71923E+09    -537.952E+06     406.709E+06     63.4195E+06    -598.820E+06
            1313               1     6.43223E+09     5.96437E+09     5.96437E+09    -165.619E+06    -732.551E+06     6.69693E+09    -1.68873E+09     6.37565E+09    -177.521E+06     5.87719E+09    -633.460E+06    -416.364E+06     103.723E+06     630.673E+06
            1314               1     7.73395E+09     6.13839E+09     6.13839E+09    -621.036E+06    -2.29569E+09     8.43408E+09    -1.07389E+09     7.30913E+09    -2.19778E+09     5.96184E+09    -542.397E+06    -894.972E+06     117.377E+06    -720.511E+06
            1315               1     6.64897E+09     6.00720E+09     6.00720E+09    -343.613E+06    -904.402E+06     6.91160E+09    -1.58640E+09     6.59545E+09    -402.765E+06     5.87458E+09    -712.629E+06     660.300E+06    -167.390E+06     675.907E+06
            1316               1     5.97610E+09     5.31591E+09     5.31591E+09    -362.084E+06    -919.279E+06     6.23519E+09    -1.34485E+09     5.91724E+09    -721.081E+06     5.18243E+09    -426.801E+06     576.111E+06    -179.267E+06     688.223E+06
            1317               1     7.36285E+09     6.18254E+09     6.18254E+09    -736.466E+06    -1.55565E+09     7.73819E+09    -1.29681E+09     7.25926E+09    -1.36861E+09     5.95754E+09    -698.511E+06     1.03771E+09    -79.0999E+06     763.753E+06
            1318               1     6.83906E+09     6.32005E+09     6.32005E+09    -206.571E+06    -793.611E+06     7.11366E+09    -1.77329E+09     6.78203E+09    -204.873E+06     6.26492E+09    -740.183E+06     453.249E+06     100.646E+06    -415.503E+06
            1319               1     5.40972E+09     5.15047E+09     5.15047E+09     8.53051E+06    -492.217E+06     5.64269E+09    -1.55559E+09     5.35721E+09    -307.687E+06     5.13388E+09    -159.413E+06    -150.624E+06     233.475E+06     263.110E+06
            1320               1     8.57505E+09     7.07221E+09     7.07221E+09    -918.185E+06    -1.98725E+09     9.05945E+09    -1.38893E+09     8.42316E+09    -1.76408E+09     6.84972E+09    -918.866E+06    -1.40166E+09    -24.0084E+06    -37.5680E+06
            1321               1     6.83656E+09     6.52512E+09     6.52512E+09     36.9534E+06    -613.368E+06     7.13848E+09    -1.98290E+09     6.76645E+09      34.875E+06     6.52392E+09    -610.099E+06     17.8890E+06     36.8912E+06    -90.3538E+06
            1322               1     5.07735E+09     4.85243E+09     4.85243E+09     183.044E+06    -552.627E+06     5.40505E+09    -1.49428E+09     4.95531E+09    -423.868E+06     4.84912E+09     57.5919E+06     78.8479E+06    -277.049E+06     105.006E+06
            1323               1     5.58882E+09     5.41328E+09     5.41328E+09     11.5458E+06    -345.505E+06     5.75879E+09    -1.69311E+09     5.56308E+09    -98.3260E+06     5.40195E+09    -224.298E+06     91.0838E+06    -161.647E+06     237.976E+06
            1324               1     5.57788E+09     5.41392E+09     5.41392E+09     11.7059E+06    -324.419E+06     5.73834E+09    -1.70040E+09     5.55502E+09    -86.3139E+06     5.41146E+09    -223.935E+06    -47.8794E+06    -152.049E+06    -108.700E+06
            1325               1     6.67544E+09     6.31097E+09     6.31097E+09    -67.3023E+06    -626.467E+06     6.93744E+09    -1.87240E+09     6.62244E+09    -66.5361E+06     6.29767E+09    -613.933E+06     147.790E+06     32.4569E+06    -262.249E+06
            1326               1     7.25805E+09     6.19553E+09     6.19553E+09    -770.125E+06    -1.32327E+09     7.51879E+09    -1.36738E+09     7.21040E+09    -1.11786E+09     5.97447E+09    -754.476E+06    -978.350E+06     81.3072E+06     802.496E+06
            1327               1     6.59408E+09     5.63528E+09     5.63528E+09    -594.422E+06    -1.27099E+09     6.90628E+09    -1.25662E+09     6.51530E+09    -1.11778E+09     5.44207E+09    -554.422E+06     809.168E+06    -92.2222E+06     782.844E+06
            1328               1     6.28581E+09     6.04268E+09     6.04268E+09    -30.7750E+06    -435.899E+06     6.47858E+09    -1.85867E+09     6.25634E+09    -43.5656E+06     6.04018E+09    -420.613E+06     51.3524E+06     71.0248E+06    -116.053E+06
            1329               1     5.22196E+09     4.92287E+09     4.92287E+09     52.6658E+06    -591.152E+06     5.51402E+09    -1.46146E+09     5.13153E+09    -436.185E+06     4.89979E+09    -79.2214E+06     213.215E+06    -259.299E+06     280.191E+06
            1330               1     6.03369E+09     5.73600E+09     5.73600E+09    -93.7321E+06    -482.829E+06     6.21882E+09    -1.71981E+09     6.00537E+09    -122.540E+06     5.70316E+09    -421.187E+06     201.248E+06    -98.8119E+06     402.843E+06
            1331               1     7.90979E+09     6.60788E+09     6.60788E+09    -947.894E+06    -1.61383E+09     8.22170E+09    -1.34872E+09     7.84635E+09    -1.41945E+09     6.39780E+09    -932.196E+06    -1.18846E+09     32.3645E+06     512.029E+06
            1332               1     7.10017E+09     6.64006E+09     6.64006E+09    -111.383E+06    -763.800E+06     7.40386E+09    -1.92162E+09     7.03225E+09    -108.292E+06     6.63208E+09    -758.911E+06    -188.795E+06     33.8032E+06     142.237E+06
            1333               1     6.58117E+09     6.05979E+09     6.05979E+09    -227.031E+06    -780.749E+06     6.84054E+09    -1.68400E+09     6.52846E+09    -255.328E+06     5.96472E+09    -657.388E+06    -529.615E+06    -138.541E+06    -594.768E+06
            1334               1     6.53005E+09     6.24083E+09     6.24083E+09    -22.4559E+06    -526.755E+06     6.76758E+09    -1.89721E+09     6.48602E+09    -27.5299E+06     6.23726E+09    -518.111E+06    -82.8012E+06    -53.7277E+06    -130.063E+06
            1335               1     7.07449E+09     6.64397E+09     6.64397E+09    -124.522E+06    -701.214E+06     7.34519E+09    -1.93941E+09     7.02132E+09    -120.826E+06     6.63981E+09    -700.752E+06     165.787E+06    -13.8825E+06     26.8120E+06
            1336               1     6.37077E+09     5.97828E+09     5.97828E+09    -133.518E+06    -623.197E+06     6.60148E+09    -1.74052E+09     6.32822E+09    -163.624E+06     5.91391E+09    -528.720E+06     291.470E+06    -113.156E+06     578.744E+06
            1337               1     6.40674E+09     6.16810E+09     6.16810E+09    -1.02556E+06    -452.383E+06     6.62048E+09    -1.90490E+09     6.37082E+09    -6.58826E+06     6.16481E+09    -443.532E+06    -62.2407E+06     51.1666E+06     133.130E+06
            1338               1     5.92747E+09     5.73523E+09     5.73523E+09     21.7036E+06    -385.219E+06     6.12045E+09    -1.79057E+09     5.89592E+09    -12.9917E+06     5.73025E+09    -345.547E+06    -51.0141E+06     112.880E+06     166.824E+06
            1339               1     5.90852E+09     5.68902E+09     5.68902E+09    -11.7293E+06    -407.394E+06     6.09641E+09    -1.75663E+09     5.87860E+09    -48.5128E+06     5.67150E+09    -353.091E+06    -132.907E+06    -112.366E+06    -297.939E+06
            1340               1     5.28743E+09     5.12083E+09     5.12083E+09     57.8497E+06    -365.576E+06     5.48641E+09    -1.60437E+09     5.24908E+09    -174.539E+06     5.12061E+09    -132.962E+06     27.6345E+06    -210.578E+06     21.7442E+06
            1341               1     6.84697E+09     6.43570E+09     6.43570E+09    -111.414E+06    -676.145E+06     7.11185E+09    -1.88271E+09     6.79428E+09    -107.024E+06     6.41970E+09    -664.533E+06     176.098E+06    -6.58989E+06     282.972E+06
            1342               1     6.69506E+09     6.17340E+09     6.17340E+09    -258.060E+06    -757.311E+06     6.93071E+09    -1.71934E+09     6.65298E+09    -246.230E+06     6.09505E+09    -690.790E+06    -511.892E+06     76.7266E+06     513.655E+06
            1343               1     6.89932E+09     6.23936E+09     6.23936E+09    -382.889E+06    -907.132E+06     7.14649E+09    -1.64978E+09     6.85429E+09    -360.386E+06     6.11603E+09    -806.310E+06    -744.655E+06    -109.766E+06    -538.555E+06
            1344               1     6.96826E+09     6.37172E+09     6.37172E+09    -340.803E+06    -826.833E+06     7.19855E+09    -1.73469E+09     6.92997E+09    -290.121E+06     6.27077E+09    -776.566E+06    -695.597E+06     54.5923E+06     455.601E+06
            1345               1     6.23944E+09     5.94566E+09     5.94566E+09    -79.5193E+06    -487.957E+06     6.43362E+09    -1.79273E+09     6.20925E+09    -85.8214E+06     5.92488E+09    -460.870E+06     134.419E+06     53.4802E+06    -338.772E+06
            1346               1     5.64602E+09     5.11329E+09     5.11329E+09    -153.989E+06    -847.430E+06     5.96072E+09    -1.37062E+09     5.54901E+09    -610.710E+06     5.01234E+09    -289.760E+06     473.041E+06     265.529E+06    -599.395E+06
            1347               1     6.69870E+09     6.37537E+09     6.37537E+09    -38.1396E+06    -576.077E+06     6.95145E+09    -1.92038E+09     6.64984E+09    -36.0791E+06     6.36808E+09    -570.846E+06     142.747E+06    -20.7540E+06     169.508E+06
            1348               1     6.97836E+09     6.58262E+09     6.58262E+09    -99.4143E+06    -658.439E+06     7.24106E+09    -1.94159E+09     6.92772E+09    -95.6088E+06     6.57346E+09    -653.083E+06     159.789E+06    -1.28971E+06    -196.507E+06
            1349               1     6.07501E+09     5.80344E+09     5.80344E+09    -55.9229E+06    -466.412E+06     6.26985E+09    -1.76037E+09     6.04369E+09    -64.7299E+06     5.77880E+09    -432.969E+06    -147.008E+06     61.5626E+06     363.008E+06
            1350               1     6.88772E+09     6.47641E+09     6.47641E+09    -77.4981E+06    -702.510E+06     7.17892E+09    -1.89880E+09     6.82348E+09    -70.0539E+06     6.46856E+09    -702.102E+06     225.998E+06     14.2843E+06    -19.5613E+06
            1351               1     6.34253E+09     6.08991E+09     6.08991E+09    -37.5379E+06    -447.788E+06     6.53769E+09    -1.86819E+09     6.31257E+09    -43.9390E+06     6.08955E+09    -441.034E+06     25.4636E+06    -51.4223E+06    -39.9481E+06
            1352               1     6.88179E+09     6.47255E+09     6.47255E+09    -122.784E+06    -663.754E+06     7.13631E+09    -1.89534E+09     6.83370E+09    -114.457E+06     6.45397E+09    -653.502E+06    -241.244E+06    -26.4300E+06     262.540E+06
            1353               1     7.11696E+09     6.62730E+09     6.62730E+09    -161.726E+06    -777.583E+06     7.40488E+09    -1.89600E+09     7.05664E+09    -165.359E+06     6.61735E+09    -764.002E+06    -197.482E+06    -70.2818E+06    -178.369E+06
            1354               1     6.87182E+09     6.56068E+09     6.56068E+09     42.9315E+06    -617.521E+06     7.17820E+09    -1.99536E+09     6.79986E+09     42.5717E+06     6.56054E+09    -617.028E+06    -24.3620E+06    -17.1834E+06    -17.4903E+06
            1355               1     6.85759E+09     6.53913E+09     6.53913E+09     33.9467E+06    -623.525E+06     7.16265E+09    -1.98318E+09     6.78614E+09     32.5850E+06     6.53828E+09    -621.321E+06     58.5582E+06    -34.7603E+06     47.8031E+06
            1356               1     6.56716E+09     6.29843E+09     6.29843E+09     35.6202E+06    -535.746E+06     6.83418E+09    -1.93277E+09     6.51089E+09     24.6118E+06     6.29803E+09    -524.334E+06    -8.26981E+06    -78.6496E+06     51.6173E+06
            1357               1     6.70245E+09     6.37332E+09     6.37332E+09    -33.0513E+06    -590.407E+06     6.96373E+09    -1.91662E+09     6.65002E+09    -33.7689E+06     6.37026E+09    -586.632E+06    -87.8289E+06     31.1167E+06     114.013E+06
            1358               1     6.80627E+09     6.41731E+09     6.41731E+09    -81.5204E+06    -659.537E+06     7.07684E+09    -1.89208E+09     6.75072E+09    -76.8346E+06     6.40310E+09    -650.014E+06    -208.827E+06    -26.8536E+06    -231.001E+06
            1359               1     6.90040E+09     6.52271E+09     6.52271E+09    -29.2925E+06    -680.000E+06     7.20271E+09    -1.93780E+09     6.83086E+09    -28.8197E+06     6.51848E+09    -676.244E+06    -147.514E+06     41.1355E+06     81.7445E+06
            1360               1     6.55643E+09     6.27247E+09     6.27247E+09    -5.62859E+06    -530.721E+06     6.80319E+09    -1.91204E+09     6.50887E+09    -5.77749E+06     6.27216E+09    -530.268E+06     27.8475E+06     11.8019E+06    -35.0823E+06
            1361               1     6.87453E+09     6.54744E+09     6.54744E+09     18.7737E+06    -627.330E+06     7.17477E+09    -1.97963E+09     6.80572E+09     18.6927E+06     6.54735E+09    -627.157E+06     15.0895E+06     8.60739E+06    -20.2035E+06
            1362               1     6.77185E+09     6.45642E+09     6.45642E+09     7.94036E+06    -598.068E+06     7.05449E+09    -1.95543E+09     6.71044E+09     7.26315E+06     6.45505E+09    -596.026E+06    -28.5696E+06    -21.6438E+06    -93.5162E+06
            1363               1     6.82792E+09     6.50138E+09     6.50138E+09     6.00944E+06    -616.464E+06     7.11785E+09    -1.96364E+09     6.76365E+09     5.41973E+06     6.50118E+09    -615.674E+06    -4.36308E+06     19.1728E+06     37.4985E+06
            1364               1     7.02711E+09     6.57723E+09     6.57723E+09    -150.291E+06    -715.353E+06     7.29258E+09    -1.90386E+09     6.97572E+09    -140.831E+06     6.56671E+09    -714.295E+06    -262.689E+06    -19.7295E+06    -43.1775E+06
            1365               1     6.81855E+09     6.48275E+09     6.48275E+09    -24.9950E+06    -609.025E+06     7.09178E+09    -1.94958E+09     6.76193E+09    -25.0816E+06     6.48268E+09    -608.864E+06    -11.5141E+06     7.87059E+06     19.5660E+06
            1366               1     6.43958E+09     5.59010E+09     5.59010E+09    -490.692E+06    -1.15653E+09     6.74662E+09    -1.31429E+09     6.36144E+09    -954.915E+06     5.39221E+09    -494.422E+06    -764.773E+06     153.113E+06     830.235E+06
            1367               1     7.01450E+09     5.93120E+09     5.93120E+09    -711.823E+06    -1.40353E+09     7.33473E+09    -1.27195E+09     6.93715E+09    -1.22860E+09     5.71646E+09    -672.006E+06    -976.141E+06    -62.1210E+06    -742.759E+06
            1368               1     5.92101E+09     5.34037E+09     5.34037E+09    -278.614E+06    -842.340E+06     6.18271E+09    -1.40647E+09     5.86018E+09    -642.641E+06     5.23359E+09    -371.524E+06    -508.122E+06    -201.323E+06    -619.626E+06
            1369               1     7.87508E+09     6.56839E+09     6.56839E+09    -919.728E+06    -1.64366E+09     8.21205E+09    -1.33500E+09     7.79969E+09    -1.44533E+09     6.35084E+09    -900.514E+06     1.18996E+09    -39.1291E+06     558.149E+06
            1370               1     8.44727E+09     6.92201E+09     6.92201E+09    -949.879E+06    -2.00206E+09     8.92407E+09    -1.32336E+09     8.29792E+09    -1.78331E+09     6.69303E+09    -939.638E+06     1.37609E+09    -15.3258E+06    -297.713E+06
            1371               1     7.09229E+09     6.47638E+09     6.47638E+09    -361.618E+06    -845.439E+06     7.32182E+09    -1.75644E+09     7.05502E+09    -280.800E+06     6.38895E+09    -838.829E+06    -745.462E+06     5.35759E+06     195.405E+06
            1372               1     7.04048E+09     6.38592E+09     6.38592E+09    -442.733E+06    -848.796E+06     7.23472E+09    -1.69813E+09     7.01406E+09    -350.694E+06     6.25264E+09    -807.555E+06    -870.991E+06    -39.9633E+06    -390.747E+06
            1373               1     6.86490E+09     6.43648E+09     6.43648E+09    -163.454E+06    -665.778E+06     7.10226E+09    -1.86908E+09     6.82336E+09    -161.123E+06     6.40911E+09    -640.740E+06    -262.145E+06     77.1227E+06    -343.294E+06
            1374               1     5.96268E+09     5.77473E+09     5.77473E+09    -30.5052E+06    -333.822E+06     6.10855E+09    -1.80347E+09     5.94529E+09    -53.5499E+06     5.77390E+09    -309.946E+06     22.6194E+06    -80.2505E+06     67.5409E+06
            1375               1     6.36067E+09     6.08168E+09     6.08168E+09    -42.1053E+06    -491.997E+06     6.57367E+09    -1.84919E+09     6.32473E+09    -49.9311E+06     6.07287E+09    -475.364E+06     73.7130E+06    -59.2933E+06     228.597E+06
            1376               1     5.17686E+09     4.92792E+09     4.92792E+09     175.724E+06    -588.614E+06     5.51654E+09    -1.50501E+09     5.04757E+09    -515.925E+06     4.92466E+09     106.294E+06    -64.0346E+06     221.922E+06     112.425E+06
            1377               1     5.23461E+09     4.86109E+09     4.86109E+09     105.513E+06    -747.714E+06     5.60880E+09    -1.40630E+09     5.07461E+09    -663.872E+06     4.82203E+09     60.7352E+06     214.439E+06     227.816E+06    -392.617E+06
            1378               1     5.39176E+09     4.86502E+09     4.86502E+09    -77.9065E+06    -884.658E+06     5.74968E+09    -1.30082E+09     5.25340E+09    -786.918E+06     4.77090E+09    -81.5253E+06    -342.511E+06     200.930E+06     614.154E+06
            1379               1     5.57625E+09     4.43487E+09     4.43487E+09    -443.743E+06    -1.64365E+09     6.07853E+09    -782.492E+06     5.27392E+09    -1.51101E+09     4.27421E+09    -415.728E+06     622.604E+06     203.471E+06    -701.324E+06
            1380               1     8.18049E+09     6.05861E+09     6.05861E+09    -768.175E+06    -3.00870E+09     9.06730E+09    -760.578E+06     7.44185E+09    -2.76523E+09     5.70047E+09    -653.502E+06    -1.45343E+09    -100.792E+06     876.048E+06
            1381               1     9.32487E+09     6.49152E+09     6.49152E+09    -1.01916E+09    -3.94554E+09     10.4371E+09    -508.940E+06     8.19200E+09    -3.66291E+09     6.20888E+09    -1.01914E+09    -1.69407E+09     5.66081E+06    -11.3969E+06
            1382               1     8.98396E+09     6.32811E+09     6.32811E+09    -955.669E+06    -3.71077E+09     10.0389E+09    -553.892E+06     7.94671E+09    -3.42419E+09     6.00325E+09    -917.382E+06    -1.66579E+09     41.0849E+06    -533.520E+06
            1383               1     6.38335E+09     5.03839E+09     5.03839E+09    -697.262E+06    -1.83865E+09     6.87704E+09    -834.160E+06     6.14744E+09    -1.67714E+09     4.76891E+09    -589.298E+06    -846.651E+06    -117.730E+06    -971.663E+06
            1384               1     5.72598E+09     4.84778E+09     4.84778E+09    -351.755E+06    -1.28901E+09     6.13679E+09    -1.06900E+09     5.54946E+09    -1.17144E+09     4.67978E+09    -301.326E+06    -556.887E+06    -167.070E+06    -789.549E+06
            1385               1     5.37687E+09     4.80974E+09     4.80974E+09    -79.7497E+06    -948.671E+06     5.75841E+09    -1.26044E+09     5.21539E+09    -841.620E+06     4.72085E+09    -97.9136E+06    -354.980E+06    -222.293E+06    -585.120E+06
            1386               1     5.15854E+09     4.84299E+09     4.84299E+09     165.050E+06    -689.436E+06     5.53243E+09    -1.43954E+09     4.99558E+09    -621.729E+06     4.83951E+09     100.826E+06     73.7337E+06    -227.814E+06     111.594E+06
            1387               1     5.39383E+09     4.76542E+09     4.76542E+09    -129.453E+06    -1.01722E+09     5.78264E+09    -1.20625E+09     5.22566E+09    -904.136E+06     4.67876E+09    -155.869E+06     370.176E+06    -230.630E+06     569.115E+06
            1388               1     5.67309E+09     4.73210E+09     4.73210E+09    -393.886E+06    -1.36320E+09     6.09530E+09    -991.673E+06     5.48213E+09    -1.23250E+09     4.56273E+09    -355.215E+06     574.397E+06    -185.126E+06     779.129E+06
            1389               1     5.51630E+09     5.51634E+09     5.51634E+09     120.811E+06    -113.281E+06     5.62962E+09    -1.84129E+09     5.50511E+09    -24.1366E+06     5.50076E+09     47.2494E+06    -59.3903E+06    -110.588E+06    -287.028E+06
            1390               1     8.24501E+09     6.01011E+09     6.01011E+09    -847.011E+06    -3.13816E+09     9.14827E+09    -674.979E+06     7.47695E+09    -2.88458E+09     5.65070E+09    -741.182E+06     1.48554E+09     68.7030E+06     855.351E+06
            1391               1     9.01742E+09     6.31829E+09     6.31829E+09    -1.00022E+09    -3.75527E+09     10.0736E+09    -520.932E+06     7.98482E+09    -3.44995E+09     5.97466E+09    -961.912E+06     1.72140E+09     47.8431E+06     533.103E+06
            1392               1     9.38507E+09     6.48868E+09     6.48868E+09    -1.03068E+09    -4.02925E+09     10.5179E+09    -476.253E+06     8.19861E+09    -3.73228E+09     6.19181E+09    -1.03078E+09     1.74181E+09     23.2125E+06     13.9547E+06
            1393               1     7.57568E+09     7.33358E+09     7.33358E+09     45.9766E+06    -500.572E+06     7.83415E+09    -2.29299E+09     7.53113E+09     29.9148E+06     7.33161E+09    -482.545E+06    -55.0946E+06     92.6340E+06     110.756E+06
            1394               1     8.12697E+09     5.92976E+09     5.92976E+09    -963.638E+06    -3.03133E+09     8.96109E+09    -644.932E+06     7.50015E+09    -2.77288E+09     5.55664E+09    -848.964E+06     1.47832E+09    -63.6483E+06    -898.532E+06
            1395               1     5.38114E+09     4.69963E+09     4.69963E+09    -131.925E+06    -1.09974E+09     5.79938E+09    -1.15599E+09     5.17988E+09    -960.344E+06     4.59124E+09    -162.934E+06     433.260E+06     256.515E+06    -623.713E+06
            1396               1     6.97049E+09     6.80057E+09     6.80057E+09    -37.9444E+06    -294.805E+06     7.09537E+09    -2.15594E+09     6.95983E+09    -38.8353E+06     6.77940E+09    -272.749E+06    -29.8303E+06    -17.8776E+06     385.646E+06
            1397               1     6.19467E+09     5.85515E+09     5.85515E+09    -119.312E+06    -538.435E+06     6.39359E+09    -1.73247E+09     6.16265E+09    -182.417E+06     5.68863E+09    -308.813E+06    -349.954E+06    -113.280E+06    -955.811E+06
            1398               1     6.84998E+09     6.71197E+09     6.71197E+09    -6.46967E+06    -262.378E+06     6.97435E+09    -2.14771E+09     6.83921E+09    -6.59429E+06     6.69661E+09    -246.888E+06    -9.18638E+06     6.37868E+06    -326.846E+06
            1399               1     6.85660E+09     6.36124E+09     6.36124E+09    -281.293E+06    -691.054E+06     7.05229E+09    -1.79630E+09     6.82897E+09    -291.785E+06     6.20417E+09    -523.500E+06    -668.604E+06    -82.2923E+06    -794.807E+06
            1400               1     7.18135E+09     7.00872E+09     7.00872E+09     33.4345E+06    -362.317E+06     7.37104E+09    -2.22661E+09     7.15675E+09     33.0703E+06     7.00871E+09    -361.933E+06     11.6625E+06    -12.3150E+06     544.536E+03
            1401               1     7.39365E+09     7.31804E+09     7.31804E+09     258.097E+06    -369.328E+06     7.68737E+09    -2.40227E+09     7.33340E+09     254.738E+06     7.31170E+09    -359.624E+06    -115.532E+06    -54.1381E+06    -185.826E+06
            1402               1     5.17444E+09     4.89627E+09     4.89627E+09     167.410E+06    -630.951E+06     5.52722E+09    -1.47758E+09     5.03307E+09    -563.722E+06     4.89119E+09     105.261E+06     81.0282E+06     217.925E+06    -139.416E+06
            1403               1     5.85831E+09     4.97630E+09     4.97630E+09    -382.551E+06    -1.27829E+09     6.25460E+09    -1.10515E+09     5.70119E+09    -1.14517E+09     4.81157E+09    -350.941E+06    -576.286E+06     180.683E+06     783.796E+06
            1404               1     6.32410E+09     6.32280E+09     6.32280E+09     69.4756E+06    -69.7744E+06     6.39258E+09    -2.10750E+09     6.32065E+09     69.3042E+06     6.32237E+09    -69.1705E+06     4.37789E+06     4.88866E+06    -52.3957E+06
            1405               1     6.27795E+09     4.89372E+09     4.89372E+09    -783.091E+06    -1.84893E+09     6.74264E+09    -753.900E+06     6.06937E+09    -1.68301E+09     4.65976E+09    -715.047E+06    -805.856E+06     148.733E+06     888.823E+06
            1406               1     7.04319E+09     5.31418E+09     5.31418E+09    -863.997E+06    -2.35520E+09     7.66939E+09    -698.328E+06     6.67401E+09    -2.18324E+09     4.99820E+09    -719.980E+06    -1.08715E+09    -14.1322E+06     975.422E+06
            1407               1     8.12951E+09     5.81426E+09     5.81426E+09    -995.938E+06    -3.18591E+09     9.00017E+09    -544.140E+06     7.42114E+09    -2.94476E+09     5.46947E+09    -892.291E+06    -1.43403E+09     52.2087E+06    -850.407E+06
            1408               1     5.24203E+09     4.87136E+09     4.87136E+09     95.2763E+06    -737.043E+06     5.60840E+09    -1.40986E+09     5.09018E+09    -659.650E+06     4.84114E+09     48.1039E+06    -204.208E+06    -218.818E+06    -338.532E+06
            1409               1     5.17561E+09     4.87907E+09     4.87907E+09     182.657E+06    -669.876E+06     5.54894E+09    -1.46395E+09     5.01398E+09    -596.729E+06     4.87571E+09     112.871E+06    -66.7354E+06    -236.255E+06    -112.944E+06
            1410               1     6.25954E+09     4.88482E+09     4.88482E+09    -693.067E+06    -1.88497E+09     6.76980E+09    -768.928E+06     5.99620E+09    -1.74420E+09     4.62255E+09    -571.574E+06     832.647E+06    -80.8858E+06     937.647E+06
            1411               1     7.27345E+09     5.40311E+09     5.40311E+09    -930.333E+06    -2.54050E+09     7.94361E+09    -644.091E+06     6.85502E+09    -2.35171E+09     5.06319E+09    -779.209E+06     1.15799E+09     12.2292E+06     1.01427E+09
            1412               1     9.00674E+09     6.27663E+09     6.27663E+09    -1.02787E+09    -3.78691E+09     10.0635E+09    -487.281E+06     7.96938E+09    -3.50279E+09     5.95176E+09    -987.129E+06     1.66239E+09    -61.4296E+06    -543.710E+06
            1413               1     7.09806E+09     6.57330E+09     6.57330E+09    -456.947E+06    -590.677E+06     7.16398E+09    -1.84189E+09     7.09522E+09    -351.265E+06     6.45655E+09    -579.609E+06     896.176E+06    -44.8187E+06    -68.3238E+06
            1414               1     7.14995E+09     5.49111E+09     5.49111E+09    -754.735E+06    -2.30770E+09     7.79881E+09    -809.559E+06     6.75468E+09    -2.11940E+09     5.12855E+09    -580.475E+06     1.14037E+09    -19.7501E+06    -1.07585E+09
            1415               1     6.78330E+09     6.43716E+09     6.43716E+09    -142.377E+06     -533.02E+06     6.97018E+09    -1.92059E+09     6.75793E+09    -159.005E+06     6.32232E+09    -401.552E+06     487.075E+06     79.6541E+06    -740.267E+06
            1416               1     6.20773E+09     4.72299E+09     4.72299E+09    -675.210E+06    -2.06028E+09     6.78327E+09    -662.501E+06     5.84470E+09    -1.92158E+09     4.46291E+09    -553.823E+06     830.726E+06     95.7076E+06    -919.798E+06
            1417               1     6.37267E+09     5.99822E+09     5.99822E+09    -221.663E+06    -516.965E+06     6.51519E+09    -1.75320E+09     6.35725E+09    -216.154E+06     5.84891E+09    -373.160E+06     417.831E+06     19.9736E+06    -880.172E+06
            1418               1     5.64713E+09     5.58478E+09     5.58478E+09     39.7600E+06    -159.208E+06     5.74399E+09    -1.82178E+09     5.63924E+09    -53.8313E+06     5.54629E+09    -27.1246E+06     95.1634E+06     91.9785E+06    -456.466E+06
            1419               1     5.56765E+09     5.60148E+09     5.60148E+09     121.270E+06    -49.6883E+06     5.65116E+09    -1.89102E+09     5.56174E+09     7.25859E+06     5.60132E+09     64.4807E+06     5.69821E+06     80.6052E+06     28.8815E+06
            1420               1     5.22539E+09     4.88912E+09     4.88912E+09     101.231E+06    -684.726E+06     5.57384E+09    -1.43521E+09     5.08985E+09    -608.151E+06     4.86025E+09     53.5193E+06    -188.978E+06     212.939E+06     335.911E+06
            1421               1     5.97433E+09     5.81445E+09     5.81445E+09    -5.74026E+06    -302.935E+06     6.11738E+09    -1.83526E+09     5.95767E+09    -34.2652E+06     5.70569E+09    -165.651E+06    -136.693E+06     73.7548E+06     796.197E+06
            1422               1     7.08643E+09     6.65947E+09     6.65947E+09    -308.311E+06    -539.935E+06     7.19940E+09    -1.93707E+09     7.07791E+09    -238.549E+06     6.56639E+09    -516.624E+06    -745.180E+06     16.6412E+06     302.169E+06
            1423               1     7.06358E+09     6.54061E+09     6.54061E+09    -375.680E+06    -661.576E+06     7.20219E+09    -1.83445E+09     7.05054E+09    -316.160E+06     6.41740E+09    -597.891E+06    -796.898E+06    -37.7238E+06    -471.675E+06
            1424               1     7.52123E+09     7.35808E+09     7.35808E+09     138.484E+06    -432.266E+06     7.79035E+09    -2.35477E+09     7.47228E+09     138.672E+06     7.35359E+09     -427.96E+06     145.372E+06    -41.6713E+06    -109.596E+06
            1425               1     5.39301E+09     5.38225E+09     5.38225E+09     155.353E+06    -162.796E+06     5.54504E+09    -1.79160E+09     5.37183E+09    -68.5570E+06     5.38120E+09     62.1574E+06    -18.7813E+06    -144.997E+06     -72.626E+06
            1426               1     5.24369E+09     4.86604E+09     4.86604E+09     134.351E+06    -771.594E+06     5.63764E+09    -1.40960E+09     5.06311E+09    -690.529E+06     4.83133E+09     88.0017E+06     225.396E+06    -231.007E+06     358.573E+06
            1427               1     5.73021E+09     5.64358E+09     5.64358E+09     13.2170E+06    -181.512E+06     5.82509E+09    -1.82509E+09     5.72276E+09    -51.1556E+06     5.57347E+09    -47.0291E+06     118.086E+06    -79.9787E+06     622.112E+06
            1428               1     7.26656E+09     7.12137E+09     7.12137E+09     119.053E+06    -383.357E+06     7.50473E+09    -2.28569E+09     7.22733E+09     115.791E+06     7.09047E+09    -349.195E+06    -70.3537E+06    -49.3760E+06     474.425E+06
            1429               1     6.08494E+09     6.07278E+09     6.07278E+09     16.6584E+06    -40.5727E+06     6.11336E+09    -2.01629E+09     6.08434E+09     13.5991E+06     6.05297E+09    -17.7025E+06     18.8021E+06    -14.0901E+06    -346.802E+06
            1430               1     5.96176E+09     5.89851E+09     5.89851E+09     44.4726E+06    -165.431E+06     6.06394E+09    -1.92585E+09     5.95344E+09     21.9612E+06     5.85015E+09    -94.5628E+06    -63.1305E+06     60.2845E+06     535.168E+06
            1431               1     9.02882E+09     6.39822E+09     6.39822E+09    -917.888E+06    -3.69223E+09     10.0904E+09    -596.034E+06     7.98184E+09    -3.39535E+09     6.06016E+09    -876.707E+06    -1.69595E+09    -24.4335E+06     563.904E+06
            1432               1     6.57651E+09     6.48483E+09     6.48483E+09     81.7955E+06    -252.410E+06     6.73724E+09    -2.10474E+09     6.55736E+09     60.9173E+06     6.43581E+09    -182.509E+06    -1.56530E+06     81.3322E+06    -571.640E+06
            1433               1     5.50365E+09     5.54164E+09     5.54164E+09     163.574E+06    -79.5403E+06     5.62118E+09    -1.87523E+09     5.49155E+09     28.3136E+06     5.53656E+09     60.8018E+06     3.42955E+06     120.734E+06    -166.882E+06
            1434               1     5.79542E+09     5.74542E+09     5.74542E+09     46.9217E+06    -142.277E+06     5.88770E+09    -1.88336E+09     5.78846E+09     467.589E+03     5.69903E+09    -49.4323E+06    -76.9207E+06    -75.4373E+06    -513.665E+06
            1435               1     7.11460E+09     6.71019E+09     6.71019E+09    -253.200E+06    -546.534E+06     7.25673E+09    -1.97015E+09     7.10097E+09    -210.264E+06     6.62518E+09    -504.459E+06     702.724E+06    -54.9916E+06     319.443E+06
            1436               1     5.97009E+09     5.43600E+09     5.43600E+09    -271.423E+06    -765.991E+06     6.20199E+09    -1.46620E+09     5.92374E+09    -488.556E+06     5.23097E+09    -343.825E+06     486.931E+06     167.717E+06    -989.984E+06
            1437               1     6.61263E+09     6.52185E+09     6.52185E+09     77.0133E+06    -246.669E+06     6.76852E+09    -2.11740E+09     6.59477E+09     77.1135E+06     6.46589E+09    -190.803E+06    -25.8301E+06     1.29927E+06    -612.357E+06
            1438               1     6.70122E+09     6.59540E+09     6.59540E+09     97.1727E+06    -291.854E+06     6.88726E+09    -2.13357E+09     6.67574E+09     78.4512E+06     6.55092E+09    -228.644E+06     5.11976E+06    -83.1211E+06     550.988E+06
            1439               1     7.18533E+09     5.33043E+09     5.33043E+09    -952.562E+06    -2.50383E+09     7.83426E+09    -624.677E+06     6.79307E+09    -2.30397E+09     4.99142E+09    -813.416E+06    -1.15967E+09    -23.0158E+06    -1.00376E+09
            1440               1     6.83923E+09     6.66670E+09     6.66670E+09     84.0373E+06    -403.059E+06     7.06976E+09    -2.11589E+09     6.80004E+09     64.2423E+06     6.60004E+09    -316.599E+06     24.3498E+06     99.4178E+06     681.408E+06
            1441               1     5.98342E+09     5.76034E+09     5.76034E+09    -56.6304E+06    -376.684E+06     6.13702E+09    -1.77568E+09     5.96411E+09    -106.255E+06     5.64341E+09    -210.134E+06     189.746E+06    -95.8168E+06     816.296E+06
            1442               1     6.61113E+09     6.12946E+09     6.12946E+09    -319.150E+06    -633.014E+06     6.76247E+09    -1.72576E+09     6.59434E+09    -337.306E+06     5.93658E+09    -421.980E+06     605.533E+06    -45.7877E+06     948.806E+06
            1443               1     7.34945E+09     7.10170E+09     7.10170E+09     712.139E+03    -473.265E+06     7.57497E+09    -2.20972E+09     7.31494E+09    -16.9467E+06     7.08175E+09    -435.655E+06    -20.4925E+06    -88.9188E+06    -387.446E+06
            1444               1     5.72429E+09     5.73967E+09     5.73967E+09     99.8755E+06    -65.5320E+06     5.80520E+09    -1.92467E+09     5.71891E+09     46.9808E+06     5.72453E+09     2.50270E+06    -36.7408E+06     75.4441E+06     292.867E+06
            1445               1     7.10381E+09     6.65821E+09     6.65821E+09    -353.507E+06    -534.249E+06     7.19246E+09    -1.92348E+09     7.09863E+09    -253.179E+06     6.55355E+09    -529.917E+06    -849.188E+06     32.2589E+06    -44.1154E+06
            1446               1     7.36327E+09     7.14454E+09     7.14454E+09    -7.73454E+06    -412.989E+06     7.55753E+09    -2.24127E+09     7.33812E+09    -8.39368E+06     7.14350E+09    -411.292E+06     24.6340E+06    -17.6412E+06    -84.7785E+06
            1447               1     5.38420E+09     5.38284E+09     5.38284E+09     178.036E+06    -164.414E+06     5.54725E+09    -1.79882E+09     5.35962E+09    -65.4673E+06     5.37946E+09     82.4630E+06     40.1933E+06    -154.181E+06     128.812E+06
            1448               1     6.03499E+09     6.02969E+09     6.02969E+09     25.2522E+03    -10.6138E+06     6.04030E+09    -2.00637E+09     6.03497E+09    -8.45446E+06     6.02149E+09     6.06351E+06    -6.45047E+06    -4.51452E+06     222.117E+06
            1449               1     6.01298E+09     6.03974E+09     6.03974E+09     34.7616E+06     18.8010E+06     6.02094E+09    -2.03110E+09     6.01293E+09     34.7950E+06     6.03829E+09     20.2195E+06     18.7537E+06    -919.076E+03    -91.5794E+06
            1450               1     7.13023E+09     6.98262E+09     6.98262E+09     90.4811E+06    -363.975E+06     7.34659E+09    -2.23637E+09     7.09754E+09     90.3339E+06     6.97307E+09    -354.286E+06    -28.5341E+06    -9.89917E+06    -262.987E+06
            1451               1     6.70661E+09     6.30240E+09     6.30240E+09    -180.867E+06    -607.206E+06     6.90961E+09    -1.83811E+09     6.67602E+09    -181.941E+06     6.14625E+09    -449.981E+06    -467.171E+06     51.9879E+06     913.182E+06
            1452               1     6.25002E+09     5.85199E+09     5.85199E+09    -160.949E+06    -610.807E+06     6.46280E+09    -1.69341E+09     6.21344E+09    -247.555E+06     5.67158E+09    -343.791E+06     407.024E+06    -131.607E+06     982.981E+06
            1453               1     6.77174E+09     6.67642E+09     6.67642E+09     45.8649E+06    -228.185E+06     6.90460E+09    -2.16470E+09     6.75924E+09     46.0122E+06     6.67439E+09    -226.305E+06    -32.0705E+06    -917.636E+03    -113.668E+06
            1454               1     5.48579E+09     5.45974E+09     5.45974E+09     99.2789E+06    -143.324E+06     5.60306E+09    -1.80523E+09     5.47370E+09    -45.5445E+06     5.43810E+09     23.1358E+06     70.0786E+06    -114.744E+06     337.214E+06
            1455               1     6.44625E+09     6.39532E+09     6.39532E+09     62.6178E+06    -158.777E+06     6.55410E+09    -2.09972E+09     6.43769E+09     62.2636E+06     6.37252E+09    -135.623E+06    -33.4919E+06     8.81792E+06     384.431E+06
            1456               1     6.95213E+09     6.48726E+09     6.48726E+09    -259.387E+06    -653.584E+06     7.14084E+09    -1.85810E+09     6.92692E+09    -235.401E+06     6.37073E+09    -561.045E+06    -611.236E+06     48.2042E+06     659.805E+06
            1457               1     7.57828E+09     7.21411E+09     7.21411E+09    -216.743E+06    -503.464E+06     7.71757E+09    -2.16463E+09     7.56606E+09    -215.880E+06     7.20802E+09    -498.240E+06    -156.014E+06    -29.2911E+06     146.602E+06
            1458               1     6.98049E+09     6.81533E+09     6.81533E+09     52.2267E+06    -363.934E+06     7.17926E+09    -2.16787E+09     6.95250E+09     29.3156E+06     6.77353E+09    -299.227E+06     52.9953E+06     91.7554E+06    -543.274E+06
            1459               1     7.02237E+09     6.89715E+09     6.89715E+09     67.5834E+06    -303.331E+06     7.20048E+09    -2.22047E+09     7.00028E+09     67.2787E+06     6.89461E+09    -300.483E+06     43.5173E+06     13.8709E+06    -127.802E+06
            1460               1     7.50601E+09     7.24627E+09     7.24627E+09    -41.1642E+06    -460.721E+06     7.70699E+09    -2.24813E+09     7.47956E+09    -40.2358E+06     7.24528E+09    -460.665E+06     83.0469E+06    -2.56266E+06     17.0692E+06
            1461               1     6.77859E+09     6.62783E+09     6.62783E+09    -3.18868E+06    -289.273E+06     6.91710E+09    -2.11179E+09     6.76498E+09    -20.5028E+06     6.58277E+09    -226.898E+06     31.9508E+06     71.4168E+06     554.448E+06
            1462               1     6.92075E+09     6.77280E+09     6.77280E+09    -19.2405E+06    -269.863E+06     7.04266E+09    -2.16123E+09     6.91053E+09    -19.9696E+06     6.76997E+09    -266.306E+06     9.49118E+06     13.8198E+06     140.746E+06
            1463               1     6.38366E+09     6.35344E+09     6.35344E+09     35.8372E+06    -94.2857E+06     6.44773E+09    -2.09833E+09     6.38068E+09     27.9747E+06     6.34988E+09    -82.8535E+06     8.20803E+06    -30.8363E+06     151.389E+06
            1464               1     6.38012E+09     6.34675E+09     6.34675E+09     36.4064E+06    -100.925E+06     6.44768E+09    -2.09408E+09     6.37679E+09     32.2157E+06     6.33487E+09    -84.8505E+06     41.1661E+06     22.5790E+06    -273.473E+06
            1465               1     5.66497E+09     5.74785E+09     5.74785E+09     115.947E+06     50.3729E+06     5.69747E+09    -1.97139E+09     5.66412E+09     64.9445E+06     5.74771E+09     101.514E+06    -126.891E+03    -27.2623E+06     27.9746E+06
            1466               1     7.32242E+09     7.06068E+09     7.06068E+09    -54.5996E+06    -452.653E+06     7.51333E+09    -2.18447E+09     7.29802E+09    -55.5513E+06     7.04844E+09    -439.470E+06     60.6845E+06    -21.6333E+06     296.588E+06
            1467               1     7.11445E+09     6.94941E+09     6.94941E+09     63.4188E+06    -373.366E+06     7.32278E+09    -2.21315E+09     7.08419E+09     56.0236E+06     6.91117E+09    -327.727E+06     37.4755E+06    -54.3939E+06     526.423E+06
            1468               1     7.20436E+09     7.05688E+09     7.05688E+09     171.433E+06    -428.835E+06     7.48571E+09    -2.26649E+09     7.14777E+09     152.440E+06     7.01959E+09    -372.554E+06     47.0696E+06     102.623E+06    -524.710E+06
            1469               1     7.34821E+09     7.21607E+09     7.21607E+09     182.583E+06    -410.867E+06     7.62694E+09    -2.32926E+09     7.29400E+09     177.586E+06     7.19022E+09    -380.014E+06     85.6580E+06    -54.3775E+06     434.800E+06
            1470               1     6.69566E+09     6.56253E+09     6.56253E+09    -27.8466E+06    -233.666E+06     6.79619E+09    -2.10034E+09     6.68854E+09    -28.2307E+06     6.54645E+09    -217.203E+06     4.30947E+06     8.70997E+06    -330.143E+06
            1471               1     5.78457E+09     5.61918E+09     5.61918E+09    -66.7236E+06    -259.234E+06     5.87842E+09    -1.76441E+09     5.77735E+09    -101.282E+06     5.52915E+09    -134.644E+06     110.305E+06     62.2853E+06    -712.349E+06
            1472               1     7.17868E+09     7.03659E+09     7.03659E+09     77.4983E+06    -343.176E+06     7.37977E+09    -2.25697E+09     7.15087E+09     78.1691E+06     7.03202E+09    -339.279E+06    -68.9960E+06     724.423E+03     169.241E+06
            1473               1     7.42410E+09     7.15157E+09     7.15157E+09    -82.0033E+06    -449.422E+06     7.60099E+09    -2.20671E+09     7.40360E+09    -81.5415E+06     7.14481E+09    -443.130E+06     90.7808E+06     13.1856E+06    -206.648E+06
            1474               1     6.52729E+09      6.4864E+09      6.4864E+09     78.6171E+06    -154.163E+06     6.64056E+09    -2.13695E+09     6.51794E+09     77.3963E+06     6.46953E+09    -136.077E+06     36.9160E+06    -16.3199E+06     332.178E+06
            1475               1     7.36765E+09     7.24330E+09     7.24330E+09     203.216E+06    -413.177E+06     7.65648E+09    -2.34445E+09     7.30930E+09     205.834E+06     7.24063E+09    -413.121E+06    -136.107E+06     3.38548E+06    -17.7990E+06
            1476               1     6.79760E+09     6.70844E+09     6.70844E+09     65.2897E+06    -233.744E+06     6.94218E+09    -2.17999E+09     6.78278E+09     63.6142E+06     6.70785E+09    -231.484E+06    -38.3247E+06    -23.4494E+06    -50.3737E+06
            1477               1     7.35329E+09     7.13343E+09     7.13343E+09     36.0663E+06    -451.508E+06     7.58494E+09    -2.23933E+09     7.31679E+09     28.7160E+06     7.12432E+09    -435.045E+06    -2.27554E+06     59.3688E+06     262.613E+06
            1478               1     7.57752E+09     7.19515E+09     7.19515E+09    -215.028E+06    -539.305E+06     7.73445E+09    -2.14694E+09     7.56188E+09    -219.789E+06     7.18583E+09    -525.232E+06    -193.525E+06     60.2849E+06    -179.798E+06
            1479               1     7.41125E+09     7.16168E+09     7.16168E+09    -36.4795E+06    -445.692E+06     7.60738E+09    -2.22650E+09     7.38576E+09    -37.2979E+06     7.16160E+09    -444.795E+06    -14.4046E+06     18.6396E+06    -19.5132E+06
            1480               1     7.38779E+09     7.16212E+09     7.16212E+09    -5.86633E+06    -427.421E+06     7.58954E+09    -2.24294E+09     7.36065E+09    -6.23923E+06     7.16184E+09    -426.774E+06    -1.94472E+06     12.5291E+06     45.5564E+06
            1481               1     7.07954E+09     6.92224E+09     6.92224E+09     14.5603E+06    -317.463E+06     7.23971E+09    -2.20645E+09     7.06199E+09     14.2912E+06     6.92181E+09    -316.763E+06     16.3105E+06     10.2277E+06     53.3018E+06
            1482               1     7.16317E+09     7.00919E+09     7.00919E+09     76.5252E+06    -364.139E+06     7.37333E+09    -2.24053E+09     7.13258E+09     76.5832E+06     7.00755E+09    -362.556E+06     32.3799E+06    -5.92062E+06     104.813E+06
            1483               1     7.28004E+09     7.10199E+09     7.10199E+09     66.6395E+06    -400.261E+06     7.50225E+09    -2.25612E+09     7.24624E+09     66.7877E+06     7.09411E+09    -392.535E+06     38.8361E+06    -6.89302E+06    -239.570E+06
            1484               1     7.40065E+09     7.21498E+09     7.21498E+09     74.6329E+06    -421.065E+06     7.63604E+09    -2.28952E+09     7.36317E+09     73.4575E+06     7.21376E+09    -418.674E+06     44.6092E+06    -26.2803E+06     84.7612E+06
            1485               1     7.04255E+09     6.90211E+09     6.90211E+09     49.8213E+06    -316.415E+06     7.21853E+09    -2.21184E+09     7.02108E+09     49.6108E+06     6.90194E+09    -316.032E+06    -13.3239E+06     9.36530E+06    -32.4978E+06
            1486               1     7.36473E+09     7.15377E+09     7.15377E+09     24.9274E+06    -426.113E+06     7.57989E+09    -2.25086E+09     7.33356E+09     24.8498E+06     7.15372E+09    -425.980E+06     108.895E+03    -5.91938E+06    -20.3936E+06
            1487               1     7.28366E+09     7.09922E+09     7.09922E+09     29.6086E+06    -381.107E+06     7.48033E+09    -2.24924E+09     7.25753E+09     28.8863E+06     7.09834E+09    -379.505E+06    -434.607E+03     17.2146E+06    -81.1423E+06
            1488               1     7.32298E+09     7.15732E+09     7.15732E+09     87.3794E+06    -394.879E+06     7.55219E+09    -2.28327E+09     7.28713E+09     87.3243E+06     7.15712E+09    -394.624E+06    -1.43619E+06    -5.17792E+06     38.8154E+06
            1489               1     7.44511E+09     7.26898E+09     7.26898E+09     122.740E+06    -442.737E+06     7.71172E+09    -2.31633E+09     7.39656E+09     122.403E+06     7.26859E+09    -442.004E+06     41.0080E+06     17.7746E+06    -35.2996E+06
            1490               1     7.28015E+09     7.14271E+09     7.14271E+09     125.196E+06    -374.348E+06     7.51706E+09    -2.29785E+09     7.24144E+09     125.246E+06     7.14259E+09    -374.274E+06     22.1209E+06    -3.08844E+06     20.2551E+06
            1491               1     6.25689E+09     5.96874E+09     5.96874E+09    -82.3406E+06    -475.432E+06     6.44417E+09    -1.80366E+09     6.22902E+09    -117.798E+06      5.7856E+09    -256.835E+06    -335.392E+06     80.2926E+06     1.01681E+09
            1492               1     6.43064E+09     6.03388E+09     6.03388E+09    -170.570E+06    -601.302E+06     6.63518E+09    -1.75400E+09     6.39807E+09    -221.980E+06     5.86670E+09    -382.712E+06    -477.296E+06    -104.484E+06    -923.848E+06
            1493               1     5.99052E+09     5.82544E+09     5.82544E+09    -3.27825E+06    -314.744E+06     6.14018E+09    -1.83580E+09     5.97226E+09    -52.2337E+06     5.73098E+09    -171.332E+06    -149.810E+06    -98.6976E+06    -739.661E+06
            1494               1     6.96176E+09     6.47115E+09     6.47115E+09    -323.189E+06    -646.753E+06     7.11790E+09    -1.83374E+09     6.94481E+09    -281.379E+06     6.34350E+09    -560.910E+06     632.871E+06    -9.36110E+06     694.101E+06
            1495               1     6.99199E+09     6.52163E+09     6.52163E+09    -264.931E+06    -659.120E+06     7.18075E+09    -1.86586E+09     6.96693E+09    -264.554E+06     6.40198E+09    -539.850E+06     789.071E+06     114.679E+06    -457.109E+06
            1496               1     7.55196E+09     7.36143E+09     7.36143E+09     123.245E+06    -469.376E+06     7.83081E+09    -2.33843E+09     7.49938E+09     124.895E+06     7.35535E+09    -464.947E+06     112.777E+06    -5.15286E+06     183.983E+06
            1497               1     7.35327E+09     7.22720E+09     7.22720E+09     170.609E+06    -390.582E+06     7.61779E+09    -2.33574E+09     7.30485E+09     167.072E+06     7.20825E+09    -368.087E+06     110.826E+06     48.5565E+06    -362.381E+06
            1498               1     7.32117E+09     7.04739E+09     7.04739E+09    -65.2624E+06    -465.851E+06     7.51324E+09    -2.17209E+09     7.29645E+09    -90.6053E+06     7.02914E+09    -422.259E+06    -82.9879E+06    -95.1604E+06    -360.389E+06
            1499               1     6.43794E+09     6.37464E+09     6.37464E+09     2.71654E+06    -127.339E+06     6.50198E+09    -2.08334E+09     6.43498E+09    -4.71842E+06     6.37404E+09    -119.305E+06    -973.658E+03    -30.2052E+06     62.3584E+06
            1500               1     6.83472E+09     6.72928E+09     6.72928E+09     52.9880E+06    -253.541E+06     6.98282E+09    -2.17624E+09     6.81923E+09     52.9387E+06     6.72118E+09    -245.385E+06     15.2704E+06    -4.54219E+06     237.293E+06
            1501               1     5.70826E+09     5.87934E+09     5.87934E+09     755.931E+06    -273.635E+06     6.15298E+09    -2.12055E+09     5.49351E+09    -265.927E+06     5.87796E+09     749.604E+06    -28.8067E+06     87.6064E+06     80.3300E+06
            1502               1     5.76140E+09     5.89772E+09     5.89772E+09     764.461E+06    -333.737E+06     6.23146E+09    -2.10948E+09     5.51850E+09    -322.186E+06     5.87648E+09     774.156E+06     85.0964E+06     102.036E+06    -322.104E+06
            1503               1     5.90904E+09     5.99485E+09     5.99485E+09     715.001E+06    -387.961E+06     6.38281E+09    -2.10730E+09     5.67047E+09    -377.965E+06     5.93963E+09     760.219E+06    -127.200E+06     80.0479E+06     526.646E+06
            1504               1     6.20026E+09     5.92042E+09     5.92042E+09     671.391E+06    -920.603E+06     6.84103E+09    -1.89040E+09     5.71264E+09    -879.290E+06     5.85804E+09     692.466E+06     240.393E+06     207.840E+06    -537.802E+06
            1505               1     9.15169E+09     8.46985E+09     8.46985E+09     621.940E+06    -1.58283E+09     10.0527E+09    -2.50298E+09     8.52287E+09    -1.51788E+09     8.31990E+09     706.930E+06    -794.406E+06    -117.320E+06     811.270E+06
            1506               1     10.5323E+09     9.37304E+09     9.37304E+09     475.967E+06    -2.25604E+09     11.6291E+09    -2.53099E+09     9.68578E+09    -2.17622E+09     9.29330E+09     475.895E+06    -959.318E+06     20.4767E+06    -20.5533E+06
            1507               1     10.2264E+09     9.15453E+09     9.15453E+09     526.557E+06    -2.14135E+09     11.2959E+09    -2.51324E+09     9.39433E+09    -2.06484E+09     9.05943E+09     545.136E+06    -917.546E+06    -25.8937E+06    -417.660E+06
            1508               1     7.04416E+09     6.74455E+09     6.74455E+09     524.207E+06    -904.421E+06     7.64897E+09    -2.12145E+09     6.70649E+09    -874.153E+06     6.61575E+09     622.735E+06    -371.962E+06    -89.6457E+06    -827.282E+06
            1509               1     6.25471E+09     6.18421E+09     6.18421E+09     646.262E+06    -599.716E+06     6.78392E+09    -2.07692E+09     5.96583E+09    -581.785E+06     6.09082E+09     721.719E+06    -212.691E+06    -96.1928E+06    -691.129E+06
            1510               1     5.88715E+09     5.96261E+09     5.96261E+09     744.769E+06    -419.795E+06     6.38241E+09    -2.09586E+09     5.61917E+09    -406.713E+06     5.91690E+09     777.400E+06    -136.933E+06    -98.2303E+06    -472.964E+06
            1511               1     5.66459E+09     5.80543E+09     5.80543E+09     770.408E+06    -327.881E+06     6.13331E+09    -2.08265E+09     5.41722E+09    -316.874E+06     5.80386E+09     760.972E+06     31.3112E+06    -108.188E+06     84.9060E+06
            1512               1     5.91025E+09     5.97090E+09     5.97090E+09     724.706E+06    -432.289E+06     6.40319E+09    -2.08777E+09     5.64696E+09    -417.472E+06     5.93032E+09     750.473E+06     142.343E+06    -105.811E+06     444.218E+06
            1513               1     6.22679E+09     6.13381E+09     6.13381E+09     647.299E+06    -633.951E+06     6.76776E+09    -2.04905E+09     5.91922E+09    -612.516E+06     6.04922E+09     710.451E+06     204.982E+06    -119.150E+06     655.391E+06
            1514               1     6.10233E+09     6.48765E+09     6.48765E+09     652.691E+06     149.160E+06     6.33849E+09    -2.42983E+09     6.05532E+09     156.748E+06     6.47863E+09     654.130E+06     52.2729E+06     57.7832E+06    -224.392E+06
            1515               1     9.32683E+09     8.54002E+09     8.54002E+09     549.949E+06    -1.70871E+09     10.2487E+09    -2.46042E+09     8.67891E+09    -1.64649E+09     8.40594E+09     621.814E+06     793.068E+06     68.5249E+06     751.501E+06
            1516               1     10.2872E+09     9.21537E+09     9.21537E+09     535.700E+06    -2.14755E+09     11.3629E+09    -2.53451E+09     9.45057E+09    -2.07426E+09     9.12624E+09     551.538E+06     901.412E+06    -26.2046E+06     387.645E+06
            1517               1     10.6519E+09     9.43194E+09     9.43194E+09     469.481E+06    -2.34441E+09     11.7763E+09    -2.51900E+09     9.76180E+09    -2.26238E+09     9.35000E+09     469.395E+06     978.843E+06    -15.5051E+06     9.40054E+06
            1518               1     8.90892E+09     8.73121E+09     8.73121E+09    -113.716E+06    -240.366E+06     8.97157E+09    -2.79237E+09     8.90690E+09    -228.812E+06     8.73057E+09    -124.635E+06    -15.9743E+06    -36.5592E+06     73.2469E+06
            1519               1     9.20430E+09     8.43078E+09     8.43078E+09     453.687E+06    -1.64000E+09     10.0708E+09    -2.41483E+09     8.64383E+09    -1.58323E+09     8.31019E+09     517.512E+06     711.086E+06     58.3068E+06    -748.922E+06
            1520               1     5.85576E+09     5.93795E+09     5.93795E+09     768.778E+06    -421.502E+06     6.35946E+09    -2.09508E+09     5.57375E+09    -405.471E+06     5.88333E+09     807.374E+06     157.946E+06     106.885E+06    -512.564E+06
            1521               1     7.65354E+09     7.74256E+09     7.74256E+09     133.558E+06     45.2450E+06     7.69732E+09    -2.64045E+09     7.65240E+09     123.474E+06     7.72702E+09     70.8736E+06     67.2656E+06    -25.8251E+06     338.894E+06
            1522               1     7.14959E+09     7.56666E+09     7.56666E+09     551.660E+06     289.682E+06     7.27698E+09    -2.80267E+09     7.13878E+09     378.503E+06     7.48111E+09     548.393E+06     147.075E+06     107.879E+06    -763.250E+06
            1523               1     7.56351E+09     7.64169E+09     7.64169E+09     99.7286E+06     56.8072E+06     7.58488E+09    -2.59941E+09     7.56324E+09     73.5994E+06     7.62927E+09     95.3495E+06     58.0778E+06     18.5484E+06    -300.658E+06
            1524               1     8.28520E+09     8.85029E+09     8.85029E+09     715.045E+06     422.868E+06     8.42742E+09    -3.32940E+09     8.27359E+09     683.754E+06     8.78572E+09     518.723E+06     276.608E+06     78.3807E+06    -680.753E+06
            1525               1     7.80008E+09     7.75425E+09     7.75425E+09     28.1298E+06    -117.748E+06     7.87200E+09    -2.55488E+09     7.79701E+09     28.0458E+06     7.75425E+09    -117.662E+06     2.51748E+06     3.51451E+06    -2.49324E+06
            1526               1     9.20211E+09     8.84659E+09     8.84659E+09    -10.7921E+06    -665.315E+06     9.51190E+09    -2.72349E+09     9.14952E+09    -664.903E+06     8.84292E+09    -7.54219E+06     6.76156E+06     16.1850E+06    -179.945E+06
            1527               1     5.65749E+09     5.84984E+09     5.84984E+09     793.342E+06    -260.462E+06     6.11030E+09    -2.12757E+09     5.43005E+09    -253.235E+06     5.84769E+09     788.265E+06     27.6596E+06     85.7689E+06    -101.590E+06
            1528               1     6.43513E+09     6.38730E+09     6.38730E+09     610.057E+06    -548.346E+06     6.93565E+09    -2.14967E+09     6.19400E+09    -529.611E+06     6.29818E+09     680.443E+06    -231.909E+06     89.1808E+06     684.265E+06
            1529               1     7.01244E+09     7.09074E+09     7.09074E+09     226.879E+06    -61.3788E+06     7.15212E+09    -2.41875E+09     6.99909E+09    -61.2413E+06     7.09051E+09     226.978E+06    -8.57920E+06    -6.00666E+06    -39.4185E+06
            1530               1     7.00118E+09     6.66963E+09     6.66963E+09     451.892E+06    -913.756E+06     7.58339E+09    -2.06925E+09     6.69160E+09    -877.491E+06     6.57242E+09     512.836E+06    -314.051E+06     146.520E+06     725.679E+06
            1531               1     7.62506E+09     7.11692E+09     7.11692E+09     402.876E+06    -1.17292E+09     8.28984E+09    -2.11563E+09     7.24500E+09    -1.13972E+09     6.98750E+09     499.108E+06    -480.752E+06     39.5566E+06     821.586E+06
            1532               1     9.11721E+09     8.25740E+09     8.25740E+09     425.920E+06    -1.75132E+09     10.0087E+09    -2.31066E+09     8.50226E+09    -1.69094E+09     8.13384E+09     489.092E+06    -756.027E+06    -19.9372E+06    -718.092E+06
            1533               1     5.76118E+09     5.88831E+09     5.88831E+09     767.812E+06    -349.792E+06     6.23810E+09    -2.10211E+09     5.50932E+09    -339.715E+06     5.87446E+09     771.586E+06    -89.7964E+06    -95.0936E+06    -254.800E+06
            1534               1     5.68065E+09     5.83743E+09     5.83743E+09     800.875E+06    -320.161E+06     6.15760E+09    -2.10605E+09     5.42334E+09    -310.492E+06     5.83572E+09     792.922E+06    -29.7440E+06    -102.475E+06    -89.5048E+06
            1535               1     6.88128E+09     6.55476E+09     6.55476E+09     510.044E+06    -933.920E+06     7.48868E+09    -2.04363E+09     6.52723E+09    -902.168E+06     6.43098E+09     602.074E+06     351.576E+06    -108.863E+06     803.876E+06
            1536               1     7.94600E+09     7.34269E+09     7.34269E+09     379.836E+06    -1.31348E+09     8.65616E+09    -2.13635E+09     7.52382E+09    -1.27269E+09     7.19093E+09     490.793E+06     572.434E+06    -2.84027E+06     882.903E+06
            1537               1     10.1603E+09     9.03944E+09     9.03944E+09     434.163E+06    -2.16930E+09     11.2087E+09    -2.43477E+09     9.36474E+09    -2.09481E+09     8.94989E+09     449.222E+06     883.809E+06     72.1039E+06    -413.822E+06
            1538               1     8.78443E+09     9.56541E+09     9.56541E+09     1.01290E+09     566.115E+06     8.99930E+09    -3.71481E+09     8.75881E+09     1.02943E+09     9.54775E+09     567.250E+06    -383.190E+06     20.2583E+06    -63.1849E+06
            1539               1     7.86097E+09     7.43833E+09     7.43833E+09     507.402E+06    -1.10321E+09     8.54154E+09    -2.28084E+09     7.47610E+09    -1.06289E+09     7.24263E+09     662.773E+06     580.092E+06    -73.9545E+06    -1.02338E+09
            1540               1     8.25161E+09     8.73585E+09     8.73585E+09     649.620E+06     328.245E+06     8.40760E+09    -3.23790E+09     8.23751E+09     584.806E+06     8.67435E+09     454.558E+06    -257.427E+06    -113.915E+06    -668.338E+06
            1541               1     6.66362E+09     6.21297E+09     6.21297E+09     513.534E+06    -1.11348E+09     7.32645E+09    -1.87101E+09     6.19261E+09    -1.07497E+09     6.07868E+09     609.311E+06     420.313E+06     104.821E+06    -791.231E+06
            1542               1     7.57071E+09     7.89439E+09     7.89439E+09     384.030E+06     264.750E+06     7.62964E+09    -2.84772E+09     7.56859E+09     269.565E+06     7.80643E+09     467.177E+06    -176.496E+06     9.40917E+06    -789.064E+06
            1543               1     6.24589E+09     6.61059E+09     6.61059E+09     612.075E+06     143.687E+06     6.46690E+09    -2.45545E+09     6.20620E+09     154.481E+06     6.59045E+09     621.425E+06    -57.7003E+06    -65.6431E+06    -343.432E+06
            1544               1     6.13094E+09     6.49689E+09     6.49689E+09     623.247E+06     137.552E+06     6.35934E+09    -2.41923E+09     6.08743E+09     145.624E+06     6.49677E+09     615.293E+06     12.0660E+06    -61.9615E+06     23.7729E+06
            1545               1     5.71286E+09     5.88046E+09     5.88046E+09     792.694E+06    -299.727E+06     6.18019E+09    -2.12448E+09     5.47041E+09    -291.832E+06     5.86640E+09     798.866E+06    -70.1168E+06     84.8982E+06     260.623E+06
            1546               1     6.78595E+09     7.13181E+09     7.13181E+09     521.032E+06     183.303E+06     6.94851E+09    -2.61205E+09     6.76700E+09     232.931E+06     7.07853E+09     524.679E+06     136.337E+06    -105.708E+06     580.107E+06
            1547               1     8.81044E+09     9.44153E+09     9.44153E+09     837.065E+06     438.648E+06     9.00289E+09    -3.57242E+09     8.79013E+09     844.206E+06     9.41897E+09     454.071E+06     367.235E+06    -47.1238E+06     250.619E+06
            1548               1     8.65008E+09     9.29277E+09     9.29277E+09     839.766E+06     458.232E+06     8.83454E+09    -3.53026E+09     8.63112E+09     838.280E+06     9.25894E+09     493.553E+06     355.441E+06     60.3967E+06    -410.232E+06
            1549               1     9.11223E+09     8.82422E+09     8.82422E+09    -104.501E+06    -461.058E+06     9.28528E+09    -2.75289E+09     9.09652E+09    -457.513E+06     8.82279E+09    -106.620E+06     11.0048E+06     35.1821E+06    -112.403E+06
            1550               1     5.92745E+09     6.31877E+09     6.31877E+09     682.244E+06     137.940E+06     6.18083E+09    -2.37965E+09     5.87083E+09     143.748E+06     6.31827E+09     676.933E+06     10.3196E+06     55.7612E+06    -52.1464E+06
            1551               1     5.72934E+09     5.89134E+09     5.89134E+09     818.911E+06    -322.938E+06     6.21428E+09    -2.12911E+09     5.46447E+09    -312.117E+06     5.87466E+09     824.770E+06     100.372E+06    -97.6753E+06     277.728E+06
            1552               1     6.40721E+09     6.76479E+09     6.76479E+09     600.065E+06     139.892E+06     6.62489E+09    -2.50158E+09     6.36987E+09     154.634E+06     6.72397E+09     626.143E+06    -82.8231E+06     72.2044E+06     495.044E+06
            1553               1     8.58957E+09     8.44744E+09     8.44744E+09     27.5114E+06    -302.266E+06     8.74971E+09    -2.72423E+09     8.57531E+09    -286.004E+06     8.42581E+09     32.8778E+06    -14.8858E+06     70.7103E+06     426.465E+06
            1554               1     6.77705E+09     6.95116E+09     6.95116E+09     381.201E+06    -15.5656E+06     6.96672E+09    -2.43893E+09     6.75085E+09    -15.4044E+06     6.93708E+09     395.113E+06    -27.0803E+06    -3.52754E+06    -302.621E+06
            1555               1     6.67943E+09     6.98525E+09     6.98525E+09     478.736E+06     145.390E+06     6.83986E+09    -2.53646E+09     6.66068E+09     163.368E+06     6.95486E+09     491.148E+06     74.8123E+06    -68.9768E+06     438.947E+06
            1556               1     10.3363E+09     9.30157E+09     9.30157E+09     591.112E+06    -2.12007E+09     11.4216E+09    -2.59087E+09     9.48554E+09    -2.04548E+09     9.21025E+09     607.846E+06    -910.994E+06     28.1102E+06     399.811E+06
            1557               1     7.58219E+09     7.57732E+09     7.57732E+09     193.072E+06    -188.400E+06     7.76572E+09    -2.52733E+09     7.56055E+09    -188.246E+06     7.54024E+09     229.999E+06     30.5624E+06    -5.64317E+06    -521.098E+06
            1558               1     6.12071E+09     6.45587E+09     6.45587E+09     613.326E+06     90.5275E+06     6.36534E+09    -2.38658E+09     6.07017E+09     97.2644E+06     6.45294E+09     609.519E+06    -9.04286E+06    -58.7354E+06    -130.649E+06
            1559               1     6.48657E+09     6.80691E+09     6.80691E+09     533.886E+06     126.038E+06     6.68087E+09    -2.48894E+09     6.45763E+09     141.659E+06     6.77874E+09     546.430E+06     76.6525E+06     71.4906E+06    -414.083E+06
            1560               1     8.85439E+09     9.45712E+09     9.45712E+09     760.390E+06     453.066E+06     9.00406E+09    -3.55686E+09     8.84238E+09     758.321E+06     9.43560E+09     476.654E+06    -330.754E+06     54.7135E+06     285.467E+06
            1561               1     6.52663E+09     7.00954E+09     7.00954E+09     704.509E+06     281.862E+06     6.72768E+09    -2.66530E+09     6.49573E+09     317.160E+06     6.89202E+09     786.736E+06    -30.1318E+06    -113.842E+06    -855.067E+06
            1562               1     7.61545E+09     7.58921E+09     7.58921E+09     202.333E+06    -235.890E+06     7.82510E+09    -2.51855E+09     7.58701E+09    -230.196E+06     7.54770E+09     238.153E+06     464.465E+03    -49.7922E+06    -552.409E+06
            1563               1     7.85592E+09     7.78420E+09     7.78420E+09     114.181E+06    -245.277E+06     8.02948E+09    -2.55104E+09     7.83739E+09    -242.457E+06     7.73757E+09     157.995E+06     7.03129E+06     32.2960E+06     596.285E+06
            1564               1     7.96988E+09     7.39107E+09     7.39107E+09     444.277E+06    -1.30971E+09     8.70078E+09    -2.17521E+09     7.51699E+09    -1.26267E+09     7.25444E+09     533.862E+06    -534.897E+06    -101.868E+06    -848.942E+06
            1565               1     8.16525E+09     8.07759E+09     8.07759E+09     81.1968E+06    -246.650E+06     8.32424E+09    -2.63738E+09     8.15042E+09    -245.642E+06     8.02928E+09     128.492E+06    -49.5582E+06    -19.0009E+06     617.642E+06
            1566               1     6.83042E+09     7.15720E+09     7.15720E+09     518.931E+06     149.611E+06     7.00759E+09    -2.60858E+09     6.80790E+09     192.230E+06     7.08834E+09     545.167E+06    -91.4780E+06     108.214E+06     670.160E+06
            1567               1     7.84242E+09     8.31924E+09     8.31924E+09     571.168E+06     385.744E+06     7.93349E+09    -3.09205E+09     7.83749E+09     486.237E+06     8.21861E+09     571.298E+06    -172.603E+06     73.8698E+06     867.699E+06
            1568               1     8.42500E+09     8.36097E+09     8.36097E+09    -36.5517E+06    -91.2536E+06     8.45222E+09    -2.74439E+09     8.42460E+09    -84.9258E+06     8.34706E+09    -28.9776E+06    -58.4037E+06     19.3418E+06    -336.389E+06
            1569               1     6.36159E+09     6.68344E+09     6.68344E+09     526.046E+06     135.638E+06     6.54780E+09    -2.44838E+09     6.33455E+09     149.016E+06     6.67416E+09     521.952E+06     50.7736E+06    -68.2249E+06     234.540E+06
            1570               1     8.86910E+09     9.58940E+09     9.58940E+09     869.124E+06     578.625E+06     9.01078E+09    -3.67905E+09     8.85838E+09     883.702E+06     9.57365E+09     579.799E+06     367.382E+06    -18.3571E+06    -46.5276E+06
            1571               1     7.98356E+09     7.96138E+09     7.96138E+09     110.058E+06    -148.166E+06     8.10954E+09    -2.64109E+09     7.97416E+09     110.226E+06     7.96059E+09    -147.546E+06    -44.3500E+06    -4.22913E+06    -66.0666E+06
            1572               1     5.92726E+09     6.32963E+09     6.32963E+09     715.830E+06     132.116E+06     6.19752E+09    -2.39253E+09     5.86207E+09     137.394E+06     6.32805E+09     712.139E+06    -7.45420E+06     55.1018E+06     94.2138E+06
            1573               1     6.64785E+09     6.85739E+09     6.85739E+09     408.065E+06     27.3709E+06     6.83002E+09    -2.43094E+09     6.62326E+09     28.7042E+06     6.85202E+09     412.102E+06    -19.3977E+06     21.5047E+06     185.159E+06
            1574               1     6.67988E+09     6.84020E+09     6.84020E+09     382.181E+06    -41.3777E+06     6.88158E+09    -2.39367E+09     6.64957E+09    -40.8617E+06     6.83920E+09     382.667E+06     3.24396E+06     14.7159E+06    -80.3672E+06
            1575               1     7.90969E+09     7.83877E+09     7.83877E+09    -51.2152E+06    -90.4643E+06     7.92924E+09    -2.56570E+09     7.90947E+09    -55.5035E+06     7.82941E+09    -76.8122E+06    -30.1695E+06    -11.3594E+06    -270.613E+06
            1576               1     7.96142E+09     8.37144E+09     8.37144E+09     532.847E+06     292.617E+06     8.07882E+09    -3.06563E+09     7.95326E+09     422.052E+06     8.26834E+09     506.511E+06     145.906E+06    -104.164E+06     890.542E+06
            1577               1     7.18924E+09     7.59292E+09     7.59292E+09     577.041E+06     242.024E+06     7.35089E+09    -2.80399E+09     7.17165E+09     344.881E+06     7.48815E+09     578.956E+06    -115.593E+06     141.077E+06     851.752E+06
            1578               1     7.41431E+09     7.46442E+09     7.46442E+09     85.6968E+06     15.0290E+06     7.44939E+09    -2.52171E+09     7.41355E+09     21.9651E+06     7.46356E+09     79.6204E+06    -13.5700E+06    -20.8495E+06    -78.5620E+06
            1579               1     6.12460E+09     6.46850E+09     6.46850E+09     637.148E+06     87.6809E+06     6.38082E+09    -2.39778E+09     6.06878E+09     92.9385E+06     6.45782E+09     642.571E+06    -49.1469E+06     49.6908E+06     245.358E+06
            1580               1     7.23967E+09     7.29780E+09     7.29780E+09     207.752E+06    -82.7446E+06     7.38054E+09    -2.47427E+09     7.22654E+09    -82.2050E+06     7.27922E+09     225.786E+06    -18.2719E+06     11.0888E+06     362.007E+06
            1581               1     8.56178E+09     8.99252E+09     8.99252E+09     590.234E+06     279.709E+06     8.71281E+09    -3.28749E+09     8.54909E+09     602.435E+06     8.93740E+09     322.628E+06     324.320E+06     12.4241E+06     607.130E+06
            1582               1     8.37279E+09     8.51651E+09     8.51651E+09     412.145E+06    -101.096E+06     8.61760E+09    -2.94252E+09     8.33729E+09     414.867E+06     8.51033E+09    -97.6404E+06     183.767E+06     30.1911E+06     130.882E+06
            1583               1     8.10368E+09     8.06523E+09     8.06523E+09     81.0992E+06    -152.921E+06     8.21815E+09    -2.66447E+09     8.09607E+09    -152.250E+06     8.03708E+09     108.576E+06     71.6363E+06    -7.33089E+06    -467.903E+06
            1584               1     7.70205E+09     7.67449E+09     7.67449E+09    -9.39417E+06    -45.5923E+06     7.72009E+09    -2.53984E+09     7.70186E+09    -12.2764E+06     7.67274E+09    -40.9564E+06     6.95391E+06     9.70501E+06    -116.118E+06
            1585               1     8.28950E+09     8.36091E+09     8.36091E+09     218.302E+06    -68.0497E+06     8.42896E+09    -2.83706E+09     8.27836E+09     219.797E+06     8.35929E+09    -67.9231E+06    -112.725E+06    -4.64521E+06     22.6274E+06
            1586               1     7.61300E+09     7.69893E+09     7.69893E+09     163.960E+06     10.2138E+06     7.68871E+09    -2.62437E+09     7.60951E+09     12.1880E+06     7.66383E+09     197.081E+06    -62.2306E+06     10.8427E+06     509.496E+06
            1587               1     7.48286E+09     7.56915E+09     7.56915E+09     138.949E+06     34.7216E+06     7.53443E+09    -2.58094E+09     7.48123E+09     136.058E+06     7.56685E+09     39.9170E+06     20.1924E+06    -16.9238E+06     130.172E+06
            1588               1     7.05674E+09     7.15059E+09     7.15059E+09     227.296E+06    -32.4252E+06     7.18302E+09    -2.44849E+09     7.04598E+09    -32.4169E+06     7.14752E+09     230.357E+06     6.85529E+06    -535.698E+03     145.589E+06
            1589               1     7.09090E+09     7.17786E+09     7.17786E+09     241.493E+06    -58.0799E+06     7.23594E+09    -2.45376E+09     7.07664E+09    -57.9591E+06     7.16833E+09     250.905E+06    -1.82142E+06     6.07275E+06    -256.954E+06
            1590               1     6.38203E+09     6.57224E+09     6.57224E+09     522.979E+06    -97.2577E+06     6.66950E+09    -2.33265E+09     6.31368E+09    -97.2456E+06     6.57219E+09     523.019E+06    -3.74143E+06    -2.49672E+06     17.3683E+06
            1591               1     8.08392E+09     8.13254E+09     8.13254E+09     176.842E+06    -73.7801E+06     8.20632E+09    -2.74520E+09     8.07517E+09     176.404E+06     8.12230E+09    -63.0990E+06    -83.8782E+06     15.2469E+06     277.117E+06
            1592               1     8.24965E+09     8.18886E+09     8.18886E+09     8.63908E+06    -128.500E+06     8.31736E+09    -2.68967E+09     8.24708E+09    -127.749E+06     8.16767E+09     29.0764E+06     74.6610E+06     379.393E+03     409.173E+06
            1593               1     8.68090E+09     8.46828E+09     8.46828E+09     11.1344E+06    -420.278E+06     8.88856E+09    -2.68638E+09     8.65673E+09    -420.276E+06     8.44639E+09     33.0236E+06     2.25690E+06    -659.630E+03    -429.705E+06
            1594               1     8.77586E+09     8.57402E+09     8.57402E+09     29.0045E+06    -415.772E+06     8.98979E+09    -2.72908E+09     8.75045E+09    -406.567E+06     8.55681E+09     37.0114E+06    -24.8704E+06    -64.2086E+06     382.368E+06
            1595               1     7.36986E+09     7.49281E+09     7.49281E+09     151.105E+06     95.1223E+06     7.39769E+09    -2.57968E+09     7.36938E+09     104.961E+06     7.47959E+09     154.490E+06    -62.2051E+06    -18.2916E+06    -305.432E+06
            1596               1     6.58064E+09     6.86840E+09     6.86840E+09     535.381E+06     65.3530E+06     6.80305E+09    -2.48971E+09     6.54271E+09     76.0396E+06     6.82226E+09     570.839E+06    -81.0261E+06    -60.6821E+06    -534.097E+06
            1597               1     7.93698E+09     7.87476E+09     7.87476E+09    -19.0750E+06    -104.672E+06     7.97943E+09    -2.58367E+09     7.93594E+09    -23.0944E+06     7.87141E+09    -97.3065E+06    -22.6401E+06     17.7861E+06     161.776E+06
            1598               1     8.14446E+09     8.26364E+09     8.26364E+09     299.398E+06    -49.7977E+06     8.31344E+09    -2.83775E+09     8.12759E+09     298.448E+06     8.25740E+09    -42.6015E+06    -101.140E+06    -25.2761E+06    -203.332E+06
            1599               1     7.32497E+09     7.32933E+09     7.32933E+09     146.033E+06    -129.549E+06     7.45888E+09    -2.44860E+09     7.31330E+09    -129.421E+06     7.31575E+09     159.480E+06     11.7021E+06    -5.02771E+06     311.776E+06
            1600               1     8.28476E+09     8.03405E+09     8.03405E+09    -228.667E+06    -272.581E+06     8.30663E+09    -2.51093E+09     8.28450E+09    -268.353E+06     8.03402E+09    -232.864E+06     8.31307E+06     12.9281E+06    -13.7025E+06
            1601               1     7.45995E+09     7.49618E+09     7.49618E+09     57.3806E+06     15.2409E+06     7.48094E+09    -2.52293E+09     7.45969E+09     26.1018E+06     7.49574E+09     46.9569E+06     33.2381E+06     18.1423E+06    -46.5119E+06
            1602               1     8.18608E+09     8.19045E+09     8.19045E+09     70.6942E+06    -60.3699E+06     8.25082E+09    -2.73359E+09     8.18372E+09     60.9842E+06     8.18041E+09    -40.6143E+06     44.9069E+06    -33.1776E+06     284.160E+06
            1603               1     8.36619E+09     8.53279E+09     8.53279E+09     390.725E+06    -40.8285E+06     8.57362E+09    -2.96090E+09     8.34110E+09     393.611E+06     8.52688E+09    -37.8039E+06     166.226E+06    -17.8234E+06    -146.474E+06
            1604               1     7.98637E+09     7.95883E+09     7.95883E+09     125.737E+06    -172.450E+06     8.13128E+09    -2.63737E+09     7.97383E+09     125.180E+06     7.95871E+09    -171.769E+06     25.5401E+06    -13.8533E+06    -18.3468E+06
            1605               1     8.00673E+09     7.95682E+09     7.95682E+09     67.8852E+06    -162.725E+06     8.11954E+09    -2.62066E+09     7.99925E+09     67.0950E+06     7.95667E+09    -161.784E+06    -18.0090E+06    -13.8894E+06     29.7643E+06
            1606               1     7.67407E+09     7.67113E+09     7.67113E+09     42.4276E+06    -47.5254E+06     7.71865E+09    -2.55534E+09     7.67289E+09     42.4562E+06     7.67080E+09    -47.2221E+06    -19.7728E+06    -1.54714E+06     46.5379E+06
            1607               1     7.89277E+09     7.82029E+09     7.82029E+09    -34.2458E+06    -110.167E+06     7.93046E+09    -2.55863E+09     7.89195E+09    -34.8585E+06     7.81881E+09    -108.071E+06     22.0235E+06    -6.82675E+06     106.189E+06
            1608               1     8.12234E+09     8.05234E+09     8.05234E+09    -11.3114E+06    -127.449E+06     8.17979E+09    -2.63786E+09     8.12048E+09    -15.4902E+06     8.04633E+09    -117.260E+06     46.6208E+06     21.0450E+06    -216.684E+06
            1609               1     8.19195E+09     8.07856E+09     8.07856E+09    -34.4038E+06    -190.153E+06     8.26871E+09    -2.61800E+09     8.18862E+09    -35.9029E+06     8.07797E+09    -188.064E+06     33.8526E+06     16.1538E+06     60.8532E+06
            1610               1     7.69708E+09     7.66496E+09     7.66496E+09     5.85865E+06    -69.5417E+06     7.73450E+09    -2.53376E+09     7.69625E+09     3.67979E+06     7.66462E+09    -67.0221E+06     657.252E+03    -12.6357E+06    -51.3283E+06
            1611               1     7.99113E+09     7.91959E+09     7.91959E+09     47.9724E+06    -185.927E+06     8.10551E+09    -2.59388E+09     7.98342E+09     47.8941E+06     7.91952E+09    -185.781E+06    -7.54683E+06    -4.45181E+06    -22.1083E+06
            1612               1     7.95274E+09     7.90162E+09     7.90162E+09     28.8916E+06    -128.796E+06     8.03041E+09    -2.60057E+09     7.94922E+09     28.2182E+06     7.90084E+09    -127.341E+06     37.4488E+06     11.2256E+06    -69.6549E+06
            1613               1     8.00939E+09     7.90476E+09     7.90476E+09    -27.0300E+06    -180.045E+06     8.08480E+09    -2.56589E+09     8.00610E+09    -27.0255E+06     7.90450E+09    -179.793E+06     11.6552E+06    -1.32155E+06     43.9192E+06
            1614               1     8.37235E+09     8.28167E+09     8.28167E+09    -57.5777E+06    -123.407E+06     8.40507E+09    -2.70023E+09     8.37177E+09     -64.427E+06     8.28140E+09    -116.293E+06     39.0341E+06    -20.4565E+06    -26.2025E+06
            1615               1     8.02071E+09     7.88897E+09     7.88897E+09    -71.0455E+06    -191.096E+06     8.08006E+09    -2.54228E+09     8.01869E+09    -75.5136E+06     7.88887E+09    -186.532E+06    -14.1734E+06     22.7443E+06     23.9352E+06
            1616               1     7.08151E+09     7.53404E+09     7.53404E+09     649.807E+06     270.502E+06     7.26354E+09    -2.81812E+09     7.05860E+09     402.449E+06     7.43746E+09     614.442E+06     145.431E+06    -164.205E+06     807.977E+06
            1617               1     7.63299E+09     8.08096E+09     8.08096E+09     617.985E+06     288.630E+06     7.79233E+09    -2.99586E+09     7.61697E+09     433.996E+06     7.99768E+09     555.901E+06     185.701E+06     144.858E+06    -773.287E+06
            1618               1     6.82506E+09     7.16934E+09     7.16934E+09     511.039E+06     188.923E+06     6.98042E+09    -2.62310E+09     6.80793E+09     233.309E+06     7.11823E+09     517.763E+06     99.4090E+06     101.587E+06    -576.270E+06
            1619               1     8.47757E+09     8.93828E+09     8.93828E+09     582.325E+06     344.114E+06     8.59417E+09    -3.28824E+09     8.47004E+09     590.066E+06     8.88408E+09     390.574E+06    -282.397E+06     42.5412E+03     617.772E+06
            1620               1     8.64254E+09     9.34621E+09     9.34621E+09     933.522E+06     490.815E+06     8.85539E+09    -3.59018E+09     8.61698E+09     910.953E+06     9.31535E+09     544.241E+06    -343.729E+06    -106.246E+06    -389.406E+06
            1621               1     9.05522E+09     8.81085E+09     8.81085E+09    -77.1046E+06    -402.844E+06     9.21369E+09    -2.77697E+09     9.04202E+09    -402.815E+06     8.80711E+09    -73.3928E+06    -16.1571E+06    -707.215E+03     181.604E+06
            1622               1     9.03782E+09     8.78193E+09     8.78193E+09    -4.02954E+06    -488.288E+06     9.27021E+09    -2.76320E+09     9.00856E+09    -487.541E+06     8.76835E+09     8.80282E+06    -23.5802E+06     19.1118E+06    -344.340E+06
            1623               1     8.13706E+09     8.27549E+09     8.27549E+09     253.031E+06     28.4730E+06     8.24702E+09    -2.85233E+09     8.13009E+09     239.864E+06     8.25897E+09     58.1573E+06     75.0983E+06     50.7345E+06    -360.963E+06
            1624               1     7.03632E+09     7.19610E+09     7.19610E+09     233.640E+06     88.1766E+06     7.10792E+09    -2.50597E+09     7.03293E+09     90.7844E+06     7.19560E+09     231.528E+06    -8.48510E+06     19.1956E+06     58.1671E+06
            1625               1     7.52291E+09     7.54680E+09     7.54680E+09     52.2338E+06    -4.13420E+06     7.55093E+09    -2.53163E+09     7.52243E+09     3.54674E+06     7.54019E+09     51.1627E+06    -31.1796E+06     18.2967E+06     220.481E+06


Field Output reported at integration points for region: RVE-1.Region_2

         Element             Int         S.Mises     S.Max. Prin  S.Max. Prin(a)     S.Mid. Prin     S.Min. Prin        S.Tresca      S.Pressure     S.Third Inv           S.S11           S.S22           S.S33           S.S12           S.S13           S.S23
           Label              Pt          @Loc 1          @Loc 1          @Loc 1          @Loc 1          @Loc 1          @Loc 1          @Loc 1          @Loc 1          @Loc 1          @Loc 1          @Loc 1          @Loc 1          @Loc 1          @Loc 1
-----------------------------------------------------------------------------------------------------------------------------------------------------------------------------------------------------------------------------------------------------------------
            1626               1     1.63784E+09     1.68089E+09     1.68089E+09     68.8927E+06     18.3666E+06     1.66252E+09    -589.381E+06     1.63609E+09     36.1485E+06     1.67146E+09     60.5362E+06     43.0489E+06     26.8492E+06     115.241E+06
            1627               1     1.51484E+09     1.52078E+09     1.52078E+09     29.5477E+06    -16.6070E+06     1.53739E+09    -511.242E+06     1.51326E+09    -12.3168E+06     1.50337E+09     42.6758E+06     22.6350E+06    -15.3579E+06    -158.674E+06
            1628               1     2.46248E+09     2.34097E+09     2.34097E+09     11.8252E+06    -236.095E+06     2.57707E+09    -705.567E+06     2.43417E+09     3.99004E+06     2.32548E+09    -212.774E+06     107.102E+06     47.3073E+06    -166.491E+06
            1629               1     4.92005E+09     5.21760E+09     5.21760E+09     448.187E+06     159.618E+06     5.05798E+09    -1.94180E+09     4.90095E+09     214.205E+06     5.21010E+09     401.100E+06     133.510E+06     113.769E+06     134.635E+06
            1630               1     3.43216E+09     3.30465E+09     3.30465E+09     82.0311E+06    -304.353E+06     3.60900E+09    -1.02744E+09     3.38271E+09     86.5751E+06     3.26465E+09    -268.899E+06     232.945E+06    -47.4170E+06     290.939E+06
            1631               1     4.34567E+09     4.40132E+09     4.40132E+09     220.934E+06    -92.6457E+06     4.49396E+09    -1.50987E+09     4.32010E+09     205.747E+06     4.32435E+09    -488.960E+03     425.062E+06    -83.0537E+06     394.665E+06
            1632               1     2.13910E+09     2.08007E+09     2.08007E+09     86.8753E+06    -179.903E+06     2.25998E+09    -662.348E+06     2.10118E+09     60.5852E+06     2.05251E+09    -126.047E+06    -90.6273E+06    -95.4917E+06     223.168E+06
            1633               1     1.98049E+09     2.01838E+09     2.01838E+09     150.697E+06    -58.3302E+06     2.07671E+09    -703.582E+06     1.95544E+09     1.38999E+06     2.00427E+09     105.086E+06    -37.3406E+06     97.3744E+06    -158.223E+06
            1634               1     6.51125E+09     8.78172E+09     8.78172E+09     3.07197E+09     1.69064E+09     7.09107E+09    -4.51478E+09     6.16853E+09     2.20947E+09     8.26364E+09     3.07121E+09    -1.84497E+09    -41.4815E+06     17.6776E+06
            1635               1     3.67209E+09     3.83027E+09     3.83027E+09     322.534E+06     13.3727E+06     3.81689E+09    -1.38872E+09     3.64263E+09     90.0558E+06     3.82765E+09     248.467E+06    -30.9468E+06    -134.167E+06     90.7620E+06
            1636               1     3.01339E+09     3.04134E+09     3.04134E+09     71.6845E+06    -13.9661E+06     3.05530E+09    -1.03302E+09     3.01065E+09     54.2173E+06     2.99988E+09     44.9547E+06    -113.980E+06    -50.4166E+06     331.464E+06
            1637               1     2.12167E+09     2.09143E+09     2.09143E+09     33.6667E+06      -88.84E+06     2.18027E+09    -678.751E+06     2.11369E+09     27.8585E+06     2.08922E+09    -80.8200E+06     59.8739E+06    -30.3749E+06    -31.2210E+06
            1638               1     4.50318E+09     4.26352E+09     4.26352E+09     531.824E+06    -738.328E+06     5.00185E+09    -1.35234E+09     4.06997E+09     514.398E+06     4.18658E+09    -643.959E+06     534.429E+06    -337.117E+06    -12.9138E+06
            1639               1     6.16791E+09     6.54095E+09     6.54095E+09     507.704E+06     246.661E+06     6.29429E+09    -2.43177E+09     6.15546E+09     261.389E+06     6.53398E+09     499.948E+06     189.881E+06     50.1762E+06     84.6607E+06
            1640               1     6.30459E+09     6.65041E+09     6.65041E+09     466.431E+06     231.765E+06     6.41865E+09    -2.44954E+09     6.29475E+09     243.052E+06     6.64117E+09     464.382E+06     172.182E+06    -43.4972E+06    -167.712E+06
            1641               1     4.93123E+09     5.14986E+09     5.14986E+09     387.321E+06     65.6836E+06     5.08417E+09    -1.86762E+09     4.90755E+09     110.487E+06     5.14895E+09     343.424E+06     49.8373E+06    -111.293E+06    -43.4789E+06
            1642               1     1.65197E+09     1.70229E+09     1.70229E+09     70.2008E+06     31.1403E+06     1.67115E+09    -601.211E+06     1.65093E+09     47.8124E+06     1.68984E+09     65.9814E+06    -47.6856E+06     23.0232E+06    -133.962E+06
            1643               1     3.15130E+09     2.89694E+09     2.89694E+09     300.300E+06    -609.046E+06     3.50599E+09    -862.733E+06     2.83279E+09     254.881E+06     2.80057E+09    -467.257E+06    -250.216E+06     291.756E+06    -464.454E+06
            1644               1     2.17328E+09     2.10339E+09     2.10339E+09     90.1625E+06    -200.655E+06     2.30405E+09    -664.300E+06     2.12884E+09     64.2101E+06     2.07352E+09    -144.831E+06    -89.5717E+06     99.5651E+06    -236.844E+06
            1645               1     1.98466E+09     2.02425E+09     2.02425E+09     147.646E+06    -53.1962E+06     2.07744E+09    -706.233E+06     1.96160E+09     3.64807E+06     2.01501E+09     100.041E+06    -9.29136E+06    -91.2722E+06     132.462E+06
            1646               1     6.58879E+09     7.07908E+09     7.07908E+09     577.234E+06     406.659E+06     6.67243E+09    -2.68766E+09     6.58382E+09     409.549E+06     7.07443E+09     578.996E+06    -125.683E+06    -7.11752E+06    -121.961E+06
            1647               1     3.17642E+09     3.20999E+09     3.20999E+09     101.365E+06    -30.1432E+06     3.24014E+09    -1.09374E+09     3.17029E+09     77.9288E+06     3.15909E+09     44.1965E+06    -187.815E+06     79.7279E+06    -349.358E+06
            1648               1     4.02539E+09     4.14751E+09     4.14751E+09     185.135E+06     61.9320E+06     4.08558E+09    -1.46486E+09     4.02115E+09     82.1871E+06     4.11485E+09     197.540E+06    -209.436E+06     47.9450E+06    -291.426E+06
            1649               1     4.09971E+09     3.99988E+09     3.99988E+09     343.099E+06    -432.081E+06     4.43196E+09    -1.30363E+09     3.92972E+09     309.753E+06     3.94648E+09    -345.340E+06    -409.589E+06    -212.835E+06    -209.025E+06
            1650               1     1.50627E+09     1.55644E+09     1.55644E+09     131.355E+06    -19.6497E+06     1.57609E+09    -556.048E+06     1.48910E+09     76.1524E+06     1.49063E+09     101.358E+06    -32.8835E+06    -81.7041E+06     305.423E+06
            1651               1     1.43046E+09     1.46820E+09     1.46820E+09     73.1211E+06     4.81229E+06     1.46339E+09    -515.379E+06     1.42678E+09     31.5990E+06     1.46809E+09     46.4432E+06     7.40203E+06    -33.3939E+06    -9.85606E+06
            1652               1     2.11357E+09     2.11518E+09     2.11518E+09     58.9650E+06    -51.4192E+06     2.16660E+09    -707.576E+06     2.10707E+09     52.8484E+06     2.10606E+09    -36.1830E+06    -66.9364E+06     33.1131E+06    -121.162E+06
            1653               1     1.44864E+09     1.47385E+09     1.47385E+09     59.4097E+06    -6.71333E+06     1.48057E+09    -508.850E+06     1.44524E+09     24.1579E+06     1.47367E+09     28.7208E+06     3.34435E+06     33.0269E+06     15.8038E+06
            1654               1     989.898E+06     1.15504E+09     1.15504E+09     431.777E+06     26.8808E+06     1.12816E+09    -537.900E+06     767.340E+06     185.755E+06     953.632E+06     474.312E+06    -21.8678E+06     231.886E+06    -349.202E+06
            1655               1     2.00358E+09     2.04571E+09     2.04571E+09     85.0428E+06     1.80644E+06     2.04390E+09    -710.852E+06     1.99968E+09     54.9149E+06     2.02502E+09     52.6239E+06     56.6593E+06     46.2083E+06     193.625E+06
            1656               1     1.68304E+09     1.71821E+09     1.71821E+09     249.834E+06    -118.483E+06     1.83669E+09    -616.520E+06     1.58852E+09     156.982E+06     1.39463E+09     297.947E+06     71.9210E+06     220.195E+06     656.876E+06
            1657               1     3.24221E+09     3.06659E+09     3.06659E+09     328.926E+06    -513.762E+06     3.58036E+09    -960.586E+06     2.98052E+09     302.673E+06     2.99608E+09    -416.990E+06     308.348E+06     258.037E+06     324.702E+06
            1658               1     4.58550E+09     4.28640E+09     4.28640E+09     555.114E+06    -832.700E+06     5.11910E+09    -1.33627E+09     4.07120E+09     504.565E+06     4.21813E+09    -713.878E+06     488.912E+06     398.106E+06     107.032E+06
            1659               1     2.18060E+09     2.20197E+09     2.20197E+09     87.0565E+06    -38.8467E+06     2.24082E+09    -750.061E+06     2.17240E+09     72.0604E+06     2.14729E+09     30.8338E+06     107.301E+06    -63.8125E+06    -323.737E+06
            1660               1     1.26983E+09     1.25619E+09     1.25619E+09     32.3035E+06    -55.0700E+06     1.31126E+09    -411.141E+06     1.26304E+09    -30.3988E+06     1.25417E+09     9.65247E+06     12.0191E+06      -39.76E+06    -48.3718E+06
            1661               1     1.23657E+09     1.23173E+09     1.23173E+09     44.4184E+06    -48.8209E+06     1.28055E+09    -409.109E+06     1.22862E+09    -32.0225E+06     1.22793E+09     31.4190E+06     4.50371E+06     36.1150E+06     67.2276E+06
            1662               1     1.55143E+09     1.54002E+09     1.54002E+09     15.2141E+06    -36.7327E+06     1.57675E+09    -506.166E+06     1.54947E+09    -14.3496E+06     1.51930E+09     13.5528E+06     29.7698E+06     29.2011E+06     174.797E+06
            1663               1     5.39713E+09     5.53331E+09     5.53331E+09     977.333E+06    -427.252E+06     5.96056E+09    -2.02780E+09     4.96031E+09     871.853E+06     5.37711E+09    -165.573E+06     794.893E+06    -466.789E+06     421.239E+06
            1664               1     4.84079E+09     5.06565E+09     5.06565E+09     288.593E+06     163.552E+06     4.90210E+09    -1.83927E+09     4.83716E+09     190.697E+06     5.01686E+09     310.238E+06     361.539E+06     18.8179E+06     321.878E+06
            1665               1     6.80648E+09     7.28303E+09     7.28303E+09     610.105E+06     350.417E+06     6.93261E+09    -2.74785E+09     6.79532E+09     358.644E+06     7.27477E+09     610.135E+06     237.016E+06     -4.3758E+06     31.1684E+06
            1666               1     5.90630E+09     6.74039E+09     6.74039E+09     1.22989E+09     505.178E+06     6.23521E+09    -2.82515E+09     5.80500E+09     1.09368E+09     6.47043E+09     911.353E+06     1.08560E+09     245.525E+06    -644.175E+06
            1667               1     3.66436E+09     3.86161E+09     3.86161E+09     388.461E+06     32.0763E+06     3.82953E+09    -1.42738E+09     3.62506E+09     104.923E+06     3.84849E+09     328.731E+06     106.941E+06    -146.937E+06    -184.301E+06
            1668               1     4.49237E+09     4.67105E+09     4.67105E+09     397.256E+06    -11.9027E+06     4.68295E+09    -1.68547E+09     4.45016E+09     371.890E+06     4.58663E+09     97.8815E+06     478.470E+06     119.298E+06    -390.674E+06
            1669               1     1.27929E+09     1.27955E+09     1.27955E+09     48.7251E+06    -43.2405E+06     1.32279E+09    -428.344E+06     1.27182E+09    -25.2272E+06     1.27449E+09     35.7649E+06    -10.1656E+06     37.1206E+06    -78.3315E+06
            1670               1     2.55322E+09     2.42457E+09     2.42457E+09     57.1502E+06    -280.796E+06     2.70537E+09    -733.641E+06     2.50216E+09     46.9593E+06     2.41430E+09    -260.335E+06    -140.384E+06    -72.4533E+06    -77.1894E+06
            1671               1     2.08315E+09     2.08289E+09     2.08289E+09     40.2944E+06    -38.5888E+06     2.12147E+09    -694.864E+06     2.07979E+09     32.7357E+06     2.08102E+09    -29.1645E+06    -61.6390E+06    -25.4055E+06    -5.87764E+06
            1672               1     2.04400E+09     2.06078E+09     2.06078E+09     64.6319E+06    -27.9257E+06     2.08871E+09    -699.163E+06     2.03928E+09     57.6741E+06     2.05158E+09    -11.7676E+06    -63.7114E+06    -31.3344E+06     120.924E+06
            1673               1     1.64927E+09     1.68487E+09     1.68487E+09     57.8937E+06     14.1696E+06     1.67070E+09    -585.643E+06     1.64796E+09     39.6136E+06     1.67399E+09     43.3230E+06    -48.1686E+06    -25.4746E+06     123.874E+06
            1674               1     1.64377E+09     1.68015E+09     1.68015E+09     58.1081E+06     15.4825E+06     1.66467E+09    -584.581E+06     1.64253E+09     31.5336E+06     1.67013E+09      52.074E+06     38.2910E+06    -23.3008E+06    -121.350E+06
            1675               1     2.36468E+09     2.26987E+09     2.26987E+09     230.646E+06    -322.282E+06     2.59216E+09    -726.079E+06     2.21211E+09     171.536E+06     2.10320E+09    -96.4988E+06     154.863E+06    -239.853E+06    -584.885E+06
            1676               1     2.14416E+09     2.16025E+09     2.16025E+09     70.8965E+06    -34.7974E+06     2.19505E+09    -732.116E+06     2.13828E+09     57.2384E+06     2.10610E+09     33.0150E+06     82.4932E+06     52.4581E+06     326.954E+06
            1677               1     5.33924E+09     5.64817E+09     5.64817E+09     399.329E+06     222.914E+06     5.42526E+09    -2.09014E+09     5.33267E+09     255.666E+06     5.59886E+09     415.888E+06    -418.978E+06     27.0900E+06    -294.005E+06
            1678               1     4.87269E+09     5.18984E+09     5.18984E+09     443.591E+06     199.872E+06     4.98997E+09    -1.94444E+09     4.85894E+09     243.004E+06     5.18525E+09     405.055E+06    -98.3042E+06     93.5653E+06    -110.560E+06
            1679               1     6.25050E+09     6.63946E+09     6.63946E+09     465.917E+06     314.742E+06     6.32472E+09    -2.47337E+09     6.24639E+09     369.441E+06     6.63226E+09     418.415E+06    -212.112E+06     69.7493E+06     14.0607E+06
            1680               1     6.36711E+09     6.88549E+09     6.88549E+09     624.463E+06     417.359E+06     6.46813E+09    -2.64244E+09     6.35952E+09     458.747E+06     6.87276E+09     595.806E+06    -242.059E+06    -80.7506E+06     147.723E+06
            1681               1     5.04684E+09     5.26087E+09     5.26087E+09     303.040E+06     129.485E+06     5.13138E+09    -1.89780E+09     5.04012E+09     147.337E+06     5.25700E+09     289.056E+06    -104.365E+06    -51.7096E+06     91.9200E+06
            1682               1     6.69110E+09     8.47279E+09     8.47279E+09     2.42647E+09     1.28401E+09     7.18878E+09    -4.06109E+09     6.46619E+09     1.92940E+09     7.98779E+09     2.26608E+09    -1.69106E+09     293.183E+06     620.807E+06
            1683               1     3.23886E+09     3.08447E+09     3.08447E+09     196.180E+06    -417.242E+06     3.50171E+09    -954.469E+06     3.10411E+09     173.480E+06     3.06136E+09    -371.435E+06    -257.904E+06     157.599E+06     43.7076E+06
            1684               1     2.10236E+09     2.07173E+09     2.07173E+09     40.3365E+06    -95.0512E+06     2.16678E+09    -672.340E+06     2.09252E+09     42.7527E+06     2.03230E+09    -58.0334E+06    -71.4331E+06    -5.57230E+06     280.211E+06
            1685               1     2.18420E+09     2.08885E+09     2.08885E+09    -24.5128E+06    -159.896E+06     2.24874E+09    -634.812E+06     2.17473E+09    -21.7882E+06     2.07150E+09    -145.271E+06    -80.9977E+06     530.561E+03     178.392E+06
            1686               1     1.29520E+09     1.29793E+09     1.29793E+09     58.3515E+06    -46.5168E+06     1.34445E+09    -436.589E+06      1.2856E+09    -23.7772E+06     1.29067E+09     42.8715E+06    -19.6486E+06    -44.5176E+06     92.7956E+06
            1687               1     6.50512E+09     8.41747E+09     8.41747E+09     2.52200E+09     1.43871E+09     6.97877E+09    -4.12606E+09     6.29738E+09     1.81343E+09     8.04342E+09     2.52134E+09     1.57150E+09     33.5074E+06     16.7599E+06
            1688               1     5.05277E+09     5.02132E+09     5.02132E+09     734.524E+06    -549.612E+06     5.57093E+09    -1.73541E+09     4.66396E+09     640.547E+06     4.91601E+09    -350.323E+06     665.767E+06     433.998E+06    -214.360E+06
            1689               1     1.77823E+09     1.77564E+09     1.77564E+09     94.7512E+06     -86.109E+06     1.86175E+09    -594.762E+06     1.75736E+09     40.6523E+06     1.68604E+09     57.5957E+06    -47.4180E+06     96.7578E+06    -386.257E+06
            1690               1     5.41432E+09     5.57341E+09     5.57341E+09     908.508E+06    -363.743E+06     5.93716E+09    -2.03939E+09     5.06135E+09     813.485E+06     5.40695E+09    -102.257E+06    -797.963E+06     413.725E+06     498.734E+06
            1691               1     6.87217E+09     7.64574E+09     7.64574E+09     1.05897E+09     519.935E+06     7.12581E+09    -3.07488E+09     6.82436E+09     585.830E+06     7.58303E+09     1.05578E+09    -665.008E+06     43.5651E+06    -17.2523E+06
            1692               1     4.32192E+09     4.09861E+09     4.09861E+09     562.154E+06    -719.062E+06     4.81767E+09    -1.31390E+09     3.85867E+09     523.671E+06     4.02316E+09    -605.132E+06    -494.552E+06    -376.122E+06     129.053E+06
            1693               1     982.535E+06     1.15223E+09     1.15223E+09     426.123E+06     34.2305E+06     1.11800E+09    -537.529E+06     774.899E+06     188.787E+06     956.101E+06     467.700E+06    -26.2339E+06    -226.153E+06     345.122E+06
            1694               1     1.99089E+09     2.03477E+09     2.03477E+09     94.5961E+06    -3.23578E+06     2.03801E+09    -708.711E+06     1.98548E+09     58.6317E+06     2.01519E+09     52.3119E+06     61.2768E+06    -53.6967E+06    -185.500E+06
            1695               1     3.21615E+09     3.00703E+09     3.00703E+09     320.171E+06    -556.574E+06     3.56361E+09    -923.543E+06     2.92866E+09     282.250E+06     2.93638E+09    -448.001E+06     275.469E+06    -271.212E+06    -355.630E+06
            1696               1     2.33975E+09     2.23052E+09     2.23052E+09     217.726E+06    -336.630E+06     2.56715E+09    -703.871E+06     2.18454E+09     157.395E+06     2.06412E+09    -109.907E+06     143.187E+06     236.862E+06     585.342E+06
            1697               1     2.13337E+09     2.10062E+09     2.10062E+09     42.1653E+06    -100.517E+06     2.20113E+09    -680.755E+06     2.12260E+09     31.5606E+06     2.09832E+09    -87.6115E+06     64.0915E+06     41.2671E+06     24.9742E+06
            1698               1     6.35792E+09     7.95491E+09     7.95491E+09     2.09300E+09     1.19621E+09     6.75870E+09    -3.74804E+09     6.21323E+09     1.58210E+09     7.58764E+09     2.07438E+09     1.42422E+09     113.113E+06    -561.868E+06
            1699               1     6.08549E+09     6.90389E+09     6.90389E+09     1.39827E+09     369.643E+06     6.53425E+09    -2.89060E+09     5.88511E+09     1.21885E+09     6.60594E+09     847.007E+06     1.14305E+09    -371.616E+06     715.773E+06
            1700               1     2.61332E+09     2.71681E+09     2.71681E+09     248.140E+06    -20.4171E+06     2.73722E+09    -981.510E+06     2.58200E+09     45.8307E+06     2.71328E+09     185.423E+06     21.6276E+06     116.481E+06     91.1296E+06
            1701               1     1.06784E+09     1.23914E+09     1.23914E+09     393.400E+06     39.1984E+06     1.19994E+09    -557.244E+06     921.050E+06     159.843E+06     1.10601E+09     405.884E+06     25.0256E+06     187.531E+06     321.424E+06
            1702               1     2.12177E+09     2.13216E+09     2.13216E+09     43.7293E+06    -21.4587E+06     2.15361E+09    -718.142E+06     2.11952E+09     39.2448E+06     2.13007E+09    -14.8905E+06    -64.7787E+06     19.1066E+06     13.5852E+06
            1703               1     6.41522E+09     7.92874E+09     7.92874E+09     2.01000E+09     1.11173E+09     6.81701E+09    -3.68349E+09     6.27139E+09     1.54941E+09     7.57165E+09     1.92942E+09     1.41307E+09    -192.792E+06     556.783E+06
            1704               1     1.51520E+09     1.57739E+09     1.57739E+09     146.773E+06    -10.1852E+06     1.58757E+09    -571.325E+06     1.49675E+09     89.1830E+06     1.51059E+09     114.201E+06    -37.7388E+06     85.8427E+06    -307.676E+06
            1705               1     1.68840E+09     1.71304E+09     1.71304E+09     243.876E+06    -131.443E+06     1.84448E+09    -608.490E+06     1.59043E+09     149.651E+06     1.39545E+09     280.371E+06     64.7871E+06    -218.367E+06    -655.442E+06
            1706               1     4.35806E+09     4.24937E+09     4.24937E+09     482.817E+06    -523.967E+06     4.77334E+09    -1.40274E+09     4.08392E+09     469.614E+06     4.17321E+09    -434.608E+06    -531.777E+06     270.771E+06     117.186E+06
            1707               1     1.93726E+09     1.88928E+09     1.88928E+09     2.36765E+06    -94.6846E+06     1.98396E+09    -598.987E+06     1.93178E+09     2.40495E+06     1.87742E+09    -82.8599E+06     46.7564E+06    -14.0464E+06    -144.936E+06
            1708               1     1.96330E+09     2.00976E+09     2.00976E+09     167.049E+06    -55.2072E+06     2.06497E+09    -707.201E+06     1.93469E+09     1.69604E+06     2.00007E+09     119.836E+06     27.0223E+06     98.8045E+06     131.267E+06
            1709               1     2.53508E+09     2.40516E+09     2.40516E+09    -2.81107E+06    -240.321E+06     2.64548E+09    -720.675E+06     2.50987E+09    -187.973E+03     2.38041E+09    -218.195E+06     119.196E+06    -16.9242E+06     223.164E+06
            1710               1     1.55015E+09     1.50402E+09     1.50402E+09    -18.4554E+06    -72.3948E+06     1.57642E+09    -471.058E+06     1.54804E+09    -27.8629E+06     1.49196E+09    -50.9220E+06    -21.4444E+06     22.7091E+06    -134.923E+06
            1711               1     3.40056E+09     3.11399E+09     3.11399E+09     364.097E+06    -688.373E+06     3.80236E+09    -929.905E+06     2.99991E+09     316.991E+06     2.97872E+09    -505.999E+06    -288.945E+06    -344.797E+06     578.494E+06
            1712               1     4.18202E+09     4.24337E+09     4.24337E+09     179.518E+06    -47.5570E+06     4.29093E+09    -1.45844E+09     4.16811E+09     4.15955E+06     4.19710E+09     174.075E+06    -268.226E+06    -103.656E+06     338.646E+06
            1713               1     5.80035E+09     6.44335E+09     6.44335E+09     1.23928E+09     189.978E+06     6.25337E+09    -2.62420E+09     5.58079E+09     1.04723E+09     6.21988E+09     605.498E+06    -973.924E+06     402.464E+06     598.933E+06
            1714               1     5.30850E+09     5.52318E+09     5.52318E+09     812.300E+06    -228.718E+06     5.75189E+09    -2.03559E+09     5.07116E+09     782.470E+06     5.34996E+09    -25.6716E+06    -810.960E+06    -307.110E+06    -489.225E+06
            1715               1     6.05368E+09     7.05986E+09     7.05986E+09     1.59096E+09     555.069E+06     6.50479E+09    -3.06863E+09     5.84927E+09     1.36648E+09     6.70966E+09     1.12976E+09    -1.23552E+09    -362.849E+06    -775.058E+06
            1716               1     5.76811E+09     6.66627E+09     6.66627E+09     1.15445E+09     672.146E+06     5.99412E+09    -2.83095E+09     5.72248E+09     845.871E+06     6.49839E+09     1.14860E+09    -872.660E+06     68.3047E+06     462.263E+06
            1717               1     6.23621E+09     6.88384E+09     6.88384E+09     948.127E+06     385.297E+06     6.49854E+09    -2.73909E+09     6.17868E+09     430.061E+06     6.84552E+09     941.684E+06    -473.315E+06    -84.9778E+06     140.187E+06
            1718               1     6.19876E+09     6.91249E+09     6.91249E+09     1.01090E+09     454.129E+06     6.45836E+09    -2.79251E+09     6.14212E+09     509.699E+06     6.85156E+09     1.01627E+09    -567.899E+06    -30.9675E+06    -252.289E+06
            1719               1     2.03638E+09     1.99382E+09     1.99382E+09     19.0234E+06    -99.0054E+06     2.09282E+09    -637.946E+06     2.02866E+09     20.9211E+06     1.94680E+09    -53.8804E+06    -64.5490E+06     15.7717E+06    -302.730E+06
            1720               1     2.44298E+09     2.42895E+09     2.42895E+09     54.9704E+06    -77.6188E+06     2.50657E+09    -802.102E+06     2.43486E+09     59.0669E+06     2.38002E+09    -32.7794E+06    -109.940E+06     27.6139E+06    -327.197E+06
            1721               1     2.75701E+09     2.88601E+09     2.88601E+09     261.895E+06     12.9956E+06     2.87302E+09    -1.05363E+09     2.73156E+09     91.1619E+06     2.87125E+09     198.496E+06    -116.381E+06    -120.362E+06     158.114E+06
            1722               1     986.585E+06     1.13798E+09     1.13798E+09     350.820E+06     31.2192E+06     1.10676E+09    -506.674E+06     857.962E+06     103.115E+06     1.12717E+09     289.734E+06    -12.9688E+06    -135.213E+06     92.3419E+06
            1723               1     1.94138E+09     1.97224E+09     1.97224E+09     140.063E+06    -62.4513E+06     2.03470E+09    -683.285E+06     1.91740E+09    -8.77831E+06     1.95913E+09     99.5012E+06    -3.55812E+06    -89.3905E+06    -156.649E+06
            1724               1     2.64758E+09     2.77761E+09     2.77761E+09     268.259E+06     10.6331E+06     2.76698E+09    -1.01883E+09     2.61916E+09     65.8055E+06     2.76861E+09     222.089E+06     73.1102E+06    -107.998E+06    -131.017E+06
            1725               1     2.79769E+09     2.75073E+09     2.75073E+09     23.8178E+06    -112.726E+06     2.86346E+09    -887.275E+06     2.79018E+09    -1.96492E+06     2.72191E+09    -58.1199E+06     74.0498E+06    -62.6781E+06    -272.771E+06
            1726               1     1.94228E+09     1.90287E+09     1.90287E+09     9.41047E+06    -84.8011E+06     1.98767E+09    -609.161E+06     1.93713E+09     9.89753E+06     1.89287E+09    -75.2901E+06     48.1220E+06    -4.98167E+06     131.876E+06
            1727               1     2.76416E+09     2.83544E+09     2.83544E+09     132.438E+06     13.9286E+06     2.82151E+09    -993.934E+06     2.75843E+09     62.8877E+06     2.80018E+09     118.732E+06     127.817E+06     70.3514E+06     279.088E+06
            1728               1     1.60906E+09     1.56344E+09     1.56344E+09    -18.7915E+06    -71.1688E+06     1.63461E+09    -491.161E+06     1.60714E+09    -18.7463E+06     1.54858E+09    -56.3521E+06    -31.5580E+06    -8.60581E+06     151.661E+06
            1729               1     2.62967E+09     2.57281E+09     2.57281E+09     28.4063E+06    -134.560E+06     2.70737E+09    -822.217E+06     2.61828E+09     6.50678E+06     2.51099E+09    -50.8407E+06    -130.238E+06    -82.3077E+06     376.225E+06
            1730               1     3.58753E+09     3.78067E+09     3.78067E+09     271.216E+06     119.849E+06     3.66082E+09    -1.39058E+09     3.58033E+09     214.798E+06     3.74866E+09     208.273E+06     198.496E+06     90.6152E+06     268.478E+06
            1731               1     1.89934E+09     1.90710E+09     1.90710E+09     26.7988E+06    -10.7278E+06     1.91782E+09    -641.056E+06     1.89850E+09     25.5841E+06     1.90417E+09    -6.58737E+06    -38.4352E+06     7.12547E+06     64.1481E+06
            1732               1     2.70800E+09     2.83649E+09     2.83649E+09     278.254E+06     177.549E+03     2.83631E+09    -1.03831E+09     2.67560E+09     65.6024E+06     2.82816E+09     221.154E+06    -39.8283E+06     119.794E+06    -140.533E+06
            1733               1     1.89567E+09     1.90813E+09     1.90813E+09     29.6870E+06    -4.30529E+06     1.91244E+09    -644.505E+06     1.89499E+09     27.8600E+06     1.90448E+09     1.17670E+06    -46.4239E+06    -7.90013E+06    -69.3624E+06
            1734               1     3.49645E+09     3.65513E+09     3.65513E+09     297.960E+06     34.3083E+06     3.62082E+09    -1.32913E+09     3.47398E+09     87.4408E+06     3.65120E+09     248.753E+06     59.0060E+06     106.714E+06     98.4303E+06
            1735               1     3.45040E+09     3.30091E+09     3.30091E+09     14.8024E+06    -293.151E+06     3.59406E+09    -1.00752E+09     3.41928E+09     31.9242E+06     3.24705E+09    -256.415E+06     240.726E+06    -42.2875E+06    -355.367E+06
            1736               1     3.65457E+09     3.86427E+09     3.86427E+09     365.268E+06     71.8228E+06     3.79244E+09    -1.43379E+09     3.62792E+09     141.303E+06     3.85816E+09     301.899E+06    -114.142E+06     125.447E+06    -92.5461E+06
            1737               1     2.97724E+09     2.80320E+09     2.80320E+09     3.01206E+06    -324.066E+06     3.12727E+09    -827.383E+06     2.93641E+09     7.26503E+06     2.78028E+09    -305.392E+06    -157.902E+06    -27.1924E+06    -210.215E+06
            1738               1     1.05936E+09     1.23360E+09     1.23360E+09     393.428E+06     43.5631E+06     1.19004E+09    -556.865E+06     915.150E+06     159.854E+06     1.10030E+09     410.441E+06     29.9429E+06    -185.859E+06    -318.516E+06
            1739               1     995.994E+06     1.14624E+09     1.14624E+09     344.889E+06     31.1532E+06     1.11509E+09    -507.427E+06     873.989E+06     98.4908E+06     1.13352E+09     290.276E+06    -8.91355E+06     130.423E+06    -101.948E+06
            1740               1     1.77874E+09     1.80238E+09     1.80238E+09     302.252E+06    -162.645E+06     1.96502E+09    -647.327E+06     1.63345E+09     226.724E+06     1.39684E+09     318.419E+06    -87.4312E+06     260.880E+06    -745.321E+06
            1741               1     2.44016E+09     2.28378E+09     2.28378E+09     278.240E+06    -432.971E+06     2.71675E+09    -709.684E+06     2.18811E+09     217.407E+06     1.99476E+09    -83.1166E+06    -137.502E+06     290.934E+06    -787.465E+06
            1742               1     1.76125E+09     1.76474E+09     1.76474E+09     290.079E+06    -185.453E+06     1.95019E+09    -623.121E+06     1.60703E+09     211.039E+06     1.36632E+09     292.009E+06    -81.9003E+06    -262.921E+06     736.391E+06
            1743               1     1.75961E+09     1.76682E+09     1.76682E+09     117.442E+06    -85.4315E+06     1.85225E+09    -599.610E+06     1.73300E+09     60.7464E+06     1.67942E+09     58.6644E+06    -55.3472E+06    -107.303E+06     378.159E+06
            1744               1     6.52340E+09     8.32359E+09     8.32359E+09     2.40255E+09     1.33061E+09     6.99298E+09    -4.01892E+09     6.32068E+09     1.91752E+09     7.82436E+09     2.31487E+09    -1.66966E+09    -206.362E+06    -673.816E+06
            1745               1     2.56074E+09     2.40522E+09     2.40522E+09     310.120E+06    -449.340E+06     2.85456E+09    -755.335E+06     2.28600E+09     257.396E+06     2.12271E+09    -114.101E+06    -170.734E+06    -304.777E+06     791.814E+06
            1746               1     1.48120E+09     1.59868E+09     1.59868E+09     243.538E+06     17.4312E+06     1.58125E+09    -619.884E+06     1.44160E+09     204.256E+06     1.58875E+09     66.6474E+06     70.5251E+06     93.7105E+06     93.8211E+06
            1747               1     1.66719E+09     1.65828E+09     1.65828E+09     39.3633E+06    -53.3249E+06     1.71160E+09    -548.105E+06     1.66138E+09    -33.6102E+06     1.64378E+09     34.1443E+06     99.7744E+06    -40.0054E+06    -115.872E+06
            1748               1     2.52709E+09     2.51330E+09     2.51330E+09     188.363E+06    -176.330E+06     2.68963E+09    -841.777E+06     2.46685E+09     195.920E+06     2.46804E+09    -138.625E+06     310.910E+06     92.6804E+06    -109.374E+06
            1749               1     5.51973E+09     6.55275E+09     6.55275E+09     1.17308E+09     902.892E+06     5.64986E+09    -2.87624E+09     5.50482E+09     971.994E+06     6.52876E+09     1.12797E+09     358.956E+06     105.846E+06     63.2495E+06
            1750               1     3.44628E+09     3.57165E+09     3.57165E+09     458.679E+06    -131.668E+06     3.70332E+09    -1.29955E+09     3.32966E+09     483.898E+06     3.47147E+09    -56.7061E+06     523.227E+06    -147.224E+06     229.186E+06
            1751               1     4.31926E+09     4.84188E+09     4.84188E+09     901.835E+06     223.635E+06     4.61824E+09    -1.98912E+09     4.19696E+09     942.046E+06     4.65808E+09     367.223E+06     792.393E+06    -193.131E+06     358.279E+06
            1752               1     2.09251E+09     2.06451E+09     2.06451E+09     312.325E+06    -252.401E+06     2.31691E+09    -708.146E+06     1.90946E+09     254.090E+06     2.01936E+09    -149.011E+06    -199.466E+06    -222.291E+06     200.619E+06
            1753               1     2.21100E+09     2.32338E+09     2.32338E+09     314.287E+06    -45.4083E+06     2.36879E+09    -864.087E+06     2.14368E+09     64.4875E+06     2.31180E+09     215.977E+06    -96.1819E+06     169.355E+06    -118.052E+06
            1754               1     5.02198E+09     8.18301E+09     8.18301E+09     3.23568E+09     3.08955E+09     5.09345E+09    -4.83608E+09     5.01720E+09     3.52376E+09     7.74913E+09     3.23534E+09    -1.42178E+09    -8.83542E+06     4.51115E+06
            1755               1     4.20156E+09     4.80555E+09     4.80555E+09     863.202E+06     385.594E+06     4.41996E+09    -2.01812E+09     4.13983E+09     467.222E+06     4.79470E+09     792.420E+06    -216.029E+06    -170.516E+06     10.4800E+06
            1756               1     3.28327E+09     3.60390E+09     3.60390E+09     384.164E+06     260.589E+06     3.34331E+09    -1.41622E+09     3.27803E+09     341.392E+06     3.52904E+09     378.226E+06    -429.518E+06    -80.1744E+06     232.455E+06
            1757               1     2.07913E+09     2.11626E+09     2.11626E+09     199.162E+06    -93.8077E+06     2.21007E+09    -740.540E+06     2.03191E+09     161.360E+06     2.09976E+09    -39.5053E+06     169.495E+06    -117.364E+06    -52.1013E+06
            1758               1     4.19292E+09     3.78402E+09     3.78402E+09     758.100E+06    -1.00208E+09     4.78610E+09    -1.18001E+09     3.18682E+09     770.379E+06     3.68451E+09    -914.848E+06     540.958E+06    -352.915E+06     169.235E+06
            1759               1     6.91335E+09     8.34092E+09     8.34092E+09     1.45716E+09     1.39836E+09     6.94256E+09    -3.73215E+09     6.91279E+09     1.48598E+09     8.26561E+09     1.44485E+09     716.185E+06     30.1308E+06     54.9477E+06
            1760               1     7.08152E+09     8.49954E+09     8.49954E+09     1.43061E+09     1.40549E+09     7.09405E+09    -3.77854E+09     7.08142E+09     1.48628E+09     8.42786E+09     1.42149E+09     700.496E+06    -23.2515E+06    -107.603E+06
            1761               1     5.63418E+09     6.64561E+09     6.64561E+09     1.18768E+09     850.330E+06     5.79528E+09    -2.89454E+09     5.61139E+09     937.700E+06     6.59421E+09     1.15171E+09     540.780E+06    -101.091E+06     39.1023E+06
            1762               1     1.48832E+09     1.60869E+09     1.60869E+09     209.221E+06     45.1105E+06     1.56358E+09    -621.006E+06     1.46776E+09     199.140E+06     1.59574E+09     68.1426E+06    -79.5724E+06     53.2450E+06    -111.074E+06
            1763               1     3.00179E+09     2.56526E+09     2.56526E+09     402.287E+06    -861.841E+06     3.42710E+09    -701.902E+06     2.27572E+09     395.327E+06     2.48254E+09    -772.159E+06    -320.793E+06     307.565E+06    -295.501E+06
            1764               1     2.14018E+09     2.07584E+09     2.07584E+09     278.569E+06    -291.720E+06     2.36756E+09    -687.564E+06     1.95800E+09     216.123E+06     2.03198E+09    -185.411E+06    -191.556E+06     224.732E+06    -209.045E+06
            1765               1     2.23562E+09     2.33710E+09     2.33710E+09     308.559E+06    -59.8404E+06     2.39694E+09    -861.938E+06     2.16575E+09     56.9122E+06     2.33101E+09     197.888E+06    -77.9545E+06    -173.275E+06     79.3061E+06
            1766               1     7.47241E+09     9.00823E+09     9.00823E+09     1.55799E+09     1.51384E+09     7.49439E+09    -4.02668E+09     7.47212E+09     1.56130E+09     8.99517E+09     1.52359E+09    -298.661E+06    -13.9173E+06    -90.6678E+06
            1767               1     3.33505E+09     3.69189E+09     3.69189E+09     382.700E+06     331.571E+06     3.36032E+09    -1.46872E+09     3.33417E+09     401.013E+06     3.62022E+09     384.923E+06    -411.423E+06     56.2311E+06    -251.579E+06
            1768               1     4.29623E+09     5.01576E+09     5.01576E+09     753.923E+06     685.946E+06     4.32982E+09    -2.15188E+09     4.29502E+09     791.258E+06     4.91318E+09     751.195E+06    -636.026E+06     1.93284E+06    -170.326E+06
            1769               1     3.96869E+09     3.98481E+09     3.98481E+09     682.713E+06    -418.082E+06     4.40289E+09    -1.41648E+09     3.60046E+09     708.286E+06     3.86566E+09    -324.508E+06    -595.706E+06    -248.459E+06    -260.841E+06
            1770               1     1.36482E+09     1.44979E+09     1.44979E+09     345.248E+06    -75.9947E+06     1.52579E+09    -573.015E+06     1.20500E+09     267.035E+06     1.39257E+09     59.4358E+06    -62.5845E+06    -185.183E+06     261.097E+06
            1771               1     1.28882E+09     1.36834E+09     1.36834E+09     189.993E+06    -8.03867E+06     1.37637E+09    -516.763E+06     1.25390E+09     156.009E+06     1.36831E+09     25.9698E+06     2.75884E+06    -74.6828E+06    -4.81211E+06
            1772               1     2.00844E+09     2.06085E+09     2.06085E+09     211.298E+06    -75.6173E+06     2.13647E+09    -732.177E+06     1.96154E+09     206.043E+06     2.04476E+09    -54.2660E+06    -140.963E+06     73.8223E+06    -101.019E+06
            1773               1     1.31025E+09     1.36889E+09     1.36889E+09     179.989E+06    -35.8896E+06     1.40478E+09    -504.330E+06     1.26931E+09     147.062E+06     1.36878E+09    -2.85601E+06     1.03283E+06     77.6294E+06     11.9302E+06
            1774               1     865.998E+06     894.243E+06     894.243E+06     316.373E+06    -101.447E+06     995.690E+06    -369.723E+06     562.517E+06     230.338E+06     769.408E+06     109.424E+06    -29.6315E+06     204.605E+06    -289.443E+06
            1775               1     1.88501E+09     1.98789E+09     1.98789E+09     271.969E+06    -29.8066E+06     2.01769E+09    -743.350E+06     1.82948E+09     233.877E+06     1.96394E+09     32.2348E+06     127.069E+06     122.267E+06     160.574E+06
            1776               1     1.52013E+09     1.44251E+09     1.44251E+09     323.540E+06    -288.185E+06     1.73069E+09    -492.621E+06     1.19183E+09     289.855E+06     1.21307E+09    -25.0565E+06     102.500E+06     237.111E+06     538.021E+06
            1777               1     3.09902E+09     2.74817E+09     2.74817E+09     479.665E+06    -782.815E+06     3.53098E+09    -815.006E+06     2.40920E+09     470.992E+06     2.68056E+09    -706.537E+06     344.228E+06     302.980E+06     184.759E+06
            1778               1     4.21291E+09     3.66832E+09     3.66832E+09     706.281E+06    -1.15461E+09     4.82293E+09    -1.07333E+09     3.05984E+09     711.272E+06     3.58080E+09    -1.07208E+09     508.450E+06     373.904E+06    -85.0231E+06
            1779               1     2.29904E+09     2.38476E+09     2.38476E+09     194.911E+06    -9.78920E+06     2.39455E+09    -856.627E+06     2.27840E+09     103.550E+06     2.34355E+09     122.778E+06     146.314E+06    -120.197E+06    -260.203E+06
            1780               1     1.46544E+09     1.42135E+09     1.42135E+09     70.7529E+06    -136.807E+06     1.55815E+09    -451.764E+06     1.43181E+09    -103.574E+06     1.41947E+09     39.3971E+06     33.9877E+06    -76.2900E+06    -37.5881E+06
            1781               1     1.44802E+09     1.40453E+09     1.40453E+09     75.5444E+06    -138.667E+06     1.54320E+09    -447.135E+06     1.41171E+09    -108.309E+06     1.40188E+09     47.8374E+06     34.3415E+06     75.0695E+06     48.6255E+06
            1782               1     1.68271E+09     1.67473E+09     1.67473E+09     45.4823E+06    -56.7750E+06     1.73151E+09    -554.479E+06     1.67570E+09    -29.3106E+06     1.65731E+09     35.4425E+06     104.807E+06     49.6153E+06     131.042E+06
            1783               1     4.94509E+09     4.97181E+09     4.97181E+09     1.27163E+09    -644.641E+06     5.61645E+09    -1.86627E+09     3.97055E+09     1.30051E+09     4.74435E+09    -446.060E+06     785.062E+06    -376.456E+06     646.616E+06
            1784               1     5.06645E+09     6.03495E+09     6.03495E+09     1.13917E+09     813.543E+06     5.22141E+09    -2.66256E+09     5.04283E+09     1.17059E+09     5.88824E+09     928.838E+06     815.975E+06    -113.902E+06     243.131E+06
            1785               1     7.60512E+09     9.25554E+09     9.25554E+09     1.68600E+09     1.61534E+09     7.64020E+09    -4.18563E+09     7.60438E+09     1.75956E+09     9.18116E+09     1.61617E+09     746.530E+06    -5.76415E+06     17.0406E+06
            1786               1     5.35585E+09     6.66818E+09     6.66818E+09     1.94932E+09     846.900E+06     5.82128E+09    -3.15480E+09     5.09110E+09     2.00654E+09     6.35317E+09     1.10469E+09     1.01443E+09     237.532E+06    -775.052E+06
            1787               1     4.13120E+09     4.81340E+09     4.81340E+09     939.894E+06     465.475E+06     4.34793E+09    -2.07292E+09     4.06924E+09     559.832E+06     4.79002E+09     868.914E+06     297.771E+06    -178.252E+06    -87.3655E+06
            1788               1     4.45296E+09     5.02378E+09     5.02378E+09     949.167E+06     270.411E+06     4.75337E+09    -2.08112E+09     4.33428E+09     998.438E+06     4.87011E+09     374.809E+06     709.723E+06     149.707E+06    -390.404E+06
            1789               1     1.47074E+09     1.43924E+09     1.43924E+09     84.1763E+06    -124.814E+06     1.56405E+09    -466.200E+06     1.43676E+09    -90.7559E+06     1.43584E+09     53.5162E+06    -35.6786E+06     77.8519E+06    -57.7302E+06
            1790               1     2.53767E+09     2.49799E+09     2.49799E+09     314.485E+06    -286.095E+06     2.78408E+09    -842.127E+06     2.36972E+09     277.004E+06     2.45319E+09    -203.817E+06    -314.145E+06    -199.783E+06    -59.4818E+06
            1791               1     2.05426E+09     2.09748E+09     2.09748E+09     155.012E+06    -52.7682E+06     2.15025E+09    -733.241E+06     2.03041E+09     147.471E+06     2.08523E+09    -32.9793E+06    -154.520E+06    -61.0245E+06    -1.94662E+06
            1792               1     1.93133E+09     2.00842E+09     2.00842E+09     216.581E+06    -37.2985E+06     2.04572E+09    -729.234E+06     1.89325E+09     209.524E+06     1.99223E+09    -14.0512E+06    -137.451E+06    -72.5540E+06     101.637E+06
            1793               1     1.49738E+09     1.59029E+09     1.59029E+09     197.784E+06     6.44660E+06     1.58385E+09    -598.175E+06     1.46949E+09     186.516E+06     1.57906E+09     28.9469E+06    -78.2166E+06    -58.2563E+06     100.277E+06
            1794               1     1.48585E+09     1.59483E+09     1.59483E+09     240.149E+06     5.68948E+06     1.58914E+09    -613.557E+06     1.44335E+09     202.364E+06     1.58461E+09     53.6954E+06     68.1284E+06    -94.3330E+06    -98.1963E+06
            1795               1     2.23809E+09     2.00244E+09     2.00244E+09     356.629E+06    -546.022E+06     2.54846E+09    -604.349E+06     1.75209E+09     330.578E+06     1.87900E+09    -396.533E+06     203.712E+06    -277.145E+06    -447.942E+06
            1796               1     2.30007E+09     2.37248E+09     2.37248E+09     176.141E+06    -18.9021E+06     2.39138E+09    -843.239E+06     2.28135E+09     74.5365E+06     2.33534E+09     119.842E+06     147.028E+06     113.053E+06     242.399E+06
            1797               1     5.56400E+09     6.74122E+09     6.74122E+09     1.27473E+09     1.08459E+09     5.65663E+09    -3.03351E+09     5.55668E+09     1.35997E+09     6.58388E+09     1.15669E+09    -896.673E+06    -54.6595E+06    -219.530E+06
            1798               1     5.52982E+09     6.51024E+09     6.51024E+09     1.14574E+09     828.754E+06     5.68149E+09    -2.82824E+09     5.50932E+09     894.814E+06     6.50255E+09     1.08737E+09    -201.550E+06     124.939E+06    -45.2099E+06
            1799               1     6.99965E+09     8.29736E+09     8.29736E+09     1.37148E+09     1.22621E+09     7.07115E+09    -3.63168E+09     6.99626E+09     1.33103E+09     8.28373E+09     1.28029E+09    -307.993E+06     69.7629E+06     11.8806E+06
            1800               1     7.09259E+09     8.54560E+09     8.54560E+09     1.55160E+09     1.35838E+09     7.18722E+09    -3.81853E+09     7.08666E+09     1.49888E+09     8.53223E+09     1.42448E+09    -290.203E+06    -95.2581E+06     96.8650E+06
            1801               1     5.71294E+09     6.65843E+09     6.65843E+09     1.02835E+09     866.100E+06     5.79233E+09    -2.85096E+09     5.70775E+09     911.234E+06     6.63049E+09     1.01116E+09    -394.995E+06    -55.3998E+06     63.1593E+06
            1802               1     5.39402E+09     7.82151E+09     7.82151E+09     2.91927E+09     2.04300E+09     5.77851E+09    -4.26126E+09     5.23028E+09     3.05260E+09     7.33631E+09     2.39487E+09    -1.36510E+09     197.611E+06     771.909E+06
            1803               1     3.16119E+09     3.06127E+09     3.06127E+09     436.103E+06    -447.780E+06     3.50905E+09    -1.01653E+09     2.86276E+09     445.292E+06     2.99268E+09    -388.375E+06    -423.356E+06     215.729E+06     51.4543E+06
            1804               1     2.24206E+09     2.24919E+09     2.24919E+09     63.5566E+06    -45.3328E+06     2.29452E+09    -755.803E+06     2.23610E+09     78.5754E+06     2.21331E+09    -24.4735E+06    -193.601E+06    -2.37632E+06     205.492E+06
            1805               1     2.14377E+09     2.19148E+09     2.19148E+09     261.894E+06    -116.181E+06     2.30766E+09    -779.063E+06     2.06676E+09     199.547E+06     2.16096E+09    -23.3205E+06    -231.344E+06     149.345E+06     106.969E+06
            1806               1     1.49304E+09     1.46857E+09     1.46857E+09     101.651E+06    -124.734E+06     1.59331E+09    -481.830E+06     1.45368E+09    -86.2654E+06     1.46418E+09     67.5801E+06    -42.7211E+06    -85.8753E+06     64.7275E+06
            1807               1     5.43690E+09     8.32935E+09     8.32935E+09     2.90206E+09     2.88287E+09     5.44648E+09    -4.70476E+09     5.43683E+09     3.22328E+09     7.99019E+09     2.90081E+09     1.31596E+09     4.00380E+06    -3.50606E+06
            1808               1     4.72908E+09     4.68012E+09     4.68012E+09     1.05390E+09    -668.818E+06     5.34894E+09    -1.68840E+09     3.92370E+09     1.09533E+09     4.49451E+09    -524.636E+06     751.291E+06     348.958E+06    -454.725E+06
            1809               1     1.65406E+09     1.69354E+09     1.69354E+09     341.383E+06    -150.723E+06     1.84427E+09    -628.069E+06     1.47537E+09     264.579E+06     1.61169E+09     7.93779E+06    -115.220E+06     220.837E+06    -328.375E+06
            1810               1     4.91579E+09     5.00159E+09     5.00159E+09     1.24534E+09    -562.039E+06     5.56363E+09    -1.89496E+09     4.06036E+09     1.25781E+09     4.76866E+09    -341.573E+06    -797.639E+06     386.765E+06     660.378E+06
            1811               1     7.05321E+09     9.14424E+09     9.14424E+09     2.13354E+09     2.04927E+09     7.09497E+09    -4.44235E+09     7.05208E+09     2.33653E+09     8.94111E+09     2.04940E+09    -1.17571E+09     6.12099E+06    -22.6994E+06
            1812               1     4.04714E+09     3.60234E+09     3.60234E+09     711.209E+06    -1.02291E+09     4.62524E+09    -1.09688E+09     3.02396E+09     720.088E+06     3.51103E+09    -940.474E+06    -512.758E+06    -359.630E+06    -84.1419E+06
            1813               1     852.709E+06     885.161E+06     885.161E+06     312.656E+06    -94.8430E+06     980.004E+06    -367.658E+06     562.230E+06     228.483E+06     762.763E+06     111.728E+06    -32.3027E+06    -201.442E+06     283.302E+06
            1814               1     1.87958E+09     1.97966E+09     1.97966E+09     267.825E+06    -31.6893E+06     2.01135E+09    -738.598E+06     1.82472E+09     228.795E+06     1.95594E+09     31.0633E+06     130.004E+06    -123.011E+06    -156.072E+06
            1815               1     3.08713E+09     2.69306E+09     2.69306E+09     447.716E+06    -827.363E+06     3.52042E+09    -771.137E+06     2.37602E+09     436.130E+06     2.62489E+09    -747.608E+06     330.510E+06    -306.624E+06    -214.308E+06
            1816               1     2.22547E+09     1.96937E+09     1.96937E+09     347.854E+06    -567.871E+06     2.53724E+09    -583.118E+06     1.71765E+09     318.535E+06     1.84586E+09    -415.039E+06     195.200E+06     280.646E+06     451.251E+06
            1817               1     2.09241E+09     2.12011E+09     2.12011E+09     196.839E+06    -107.982E+06     2.22810E+09    -736.324E+06     2.04155E+09     156.808E+06     2.10307E+09    -50.9018E+06     174.377E+06     122.368E+06     47.2481E+06
            1818               1     5.46545E+09     7.88080E+09     7.88080E+09     2.75707E+09     2.12806E+09     5.75274E+09    -4.25531E+09     5.38311E+09     2.87899E+09     7.50756E+09     2.37938E+09     1.23744E+09     137.956E+06    -641.481E+06
            1819               1     5.43484E+09     6.62793E+09     6.62793E+09     2.01809E+09     635.248E+06     5.99268E+09    -3.09376E+09     5.01561E+09     2.09059E+09     6.25895E+09     931.725E+06     1.06546E+09    -275.560E+06     886.065E+06
            1820               1     2.95523E+09     3.26423E+09     3.26423E+09     568.252E+06      104.57E+06     3.15966E+09    -1.31235E+09     2.87168E+09     231.560E+06     3.25900E+09     446.496E+06     117.867E+06     205.917E+06     34.7954E+06
            1821               1     949.564E+06     1.02275E+09     1.02275E+09     349.627E+06    -63.3829E+06     1.08613E+09    -436.330E+06     700.001E+06     257.636E+06     935.136E+06     116.219E+06     36.0775E+06     197.829E+06     261.753E+06
            1822               1     2.08069E+09     2.14515E+09     2.14515E+09     157.250E+06    -17.3299E+06     2.16248E+09    -761.689E+06     2.06411E+09     157.288E+06     2.13240E+09    -4.61851E+06    -158.935E+06     44.3940E+06     13.0436E+06
            1823               1     5.54317E+09     7.84793E+09     7.84793E+09     2.69153E+09     1.98563E+09     5.86231E+09    -4.17503E+09     5.44067E+09     2.81394E+09     7.48112E+09     2.23003E+09     1.22595E+09    -156.731E+06     657.120E+06
            1824               1     1.38862E+09     1.46610E+09     1.46610E+09     336.220E+06    -84.1299E+06     1.55023E+09    -572.730E+06     1.23281E+09     255.098E+06     1.41033E+09     52.7596E+06    -66.2724E+06     187.556E+06    -258.394E+06
            1825               1     1.53740E+09     1.44353E+09     1.44353E+09     321.574E+06    -308.878E+06     1.75241E+09    -485.409E+06     1.18954E+09     285.586E+06     1.21525E+09    -44.6060E+06     98.1099E+06    -239.812E+06    -542.196E+06
            1826               1     4.11949E+09     3.96567E+09     3.96567E+09     777.987E+06    -685.830E+06     4.65150E+09    -1.35261E+09     3.45717E+09     792.170E+06     3.84974E+09    -584.084E+06    -576.185E+06     308.090E+06     282.100E+06
            1827               1     1.95986E+09     1.97587E+09     1.97587E+09     65.5482E+06    -30.0304E+06     2.00590E+09    -670.464E+06     1.95461E+09     61.4778E+06     1.95960E+09    -9.68434E+06     156.000E+06     29.4771E+06    -86.5088E+06
            1828               1     2.19056E+09     2.31416E+09     2.31416E+09     333.962E+06    -38.9037E+06     2.35306E+09    -869.740E+06     2.11740E+09     72.4875E+06     2.30637E+09     230.363E+06     67.7694E+06     173.187E+06     103.815E+06
            1829               1     2.55100E+09     2.56727E+09     2.56727E+09     228.037E+06    -152.696E+06     2.71997E+09    -880.872E+06     2.48587E+09     227.135E+06     2.51608E+09    -100.603E+06     321.320E+06    -103.582E+06     151.448E+06
            1830               1     1.69394E+09     1.63666E+09     1.63666E+09    -20.1668E+06    -92.1031E+06     1.72877E+09    -508.131E+06     1.69050E+09    -62.7999E+06     1.62607E+09    -38.8793E+06    -98.3052E+06     39.0067E+06    -88.3688E+06
            1831               1     3.19976E+09     2.67339E+09     2.67339E+09     452.074E+06    -994.176E+06     3.66757E+09    -710.431E+06     2.26828E+09     445.237E+06     2.57177E+09    -885.711E+06    -321.509E+06    -339.333E+06     391.194E+06
            1832               1     4.34064E+09     5.09319E+09     5.09319E+09     860.167E+06     652.393E+06     4.44080E+09    -2.20192E+09     4.32944E+09     874.849E+06     4.95961E+09     771.290E+06    -736.181E+06     76.7451E+06     161.855E+06
            1833               1     5.36948E+09     6.34674E+09     6.34674E+09     1.78509E+09     429.312E+06     5.91742E+09    -2.85371E+09     4.96198E+09     1.84884E+09     6.02787E+09     684.431E+06    -1.00317E+09     277.633E+06     794.721E+06
            1834               1     4.88769E+09     5.19140E+09     5.19140E+09     1.27965E+09    -287.710E+06     5.47911E+09    -2.06111E+09     4.26474E+09     1.31961E+09     4.95272E+09    -88.9962E+06    -821.776E+06    -316.901E+06    -648.339E+06
            1835               1     5.34846E+09     6.65622E+09     6.65622E+09     2.16760E+09     738.331E+06     5.91789E+09    -3.18738E+09     4.89037E+09     2.21683E+09     6.23608E+09     1.10924E+09    -1.11089E+09    -308.662E+06    -963.536E+06
            1836               1     5.56048E+09     7.23835E+09     7.23835E+09     1.90419E+09     1.47627E+09     5.76208E+09    -3.53961E+09     5.52325E+09     1.99828E+09     6.99283E+09     1.62771E+09    -1.04642E+09     99.7703E+06     472.714E+06
            1837               1     6.60845E+09     8.54198E+09     8.54198E+09     1.95396E+09     1.91329E+09     6.62869E+09    -4.13641E+09     6.60817E+09     2.11622E+09     8.36276E+09     1.93026E+09    -1.06988E+09      5.8077E+06     85.9508E+06
            1838               1     6.46565E+09     8.35345E+09     8.35345E+09     1.98281E+09     1.79680E+09     6.55665E+09    -4.04435E+09     6.45963E+09     2.09078E+09     8.15349E+09     1.88878E+09    -1.09969E+09    -55.4367E+06    -220.260E+06
            1839               1     2.09475E+09     2.10876E+09     2.10876E+09     56.3118E+06    -25.8851E+06     2.13464E+09    -713.061E+06     2.09112E+09     68.6662E+06     2.07212E+09    -1.60257E+06    -159.027E+06     13.7722E+06    -225.099E+06
            1840               1     2.56527E+09     2.65257E+09     2.65257E+09     145.367E+06     32.9136E+06     2.61965E+09    -943.615E+06     2.55972E+09     155.343E+06     2.60952E+09     65.9845E+06    -222.537E+06     53.9463E+06    -240.189E+06
            1841               1     3.08757E+09     3.41078E+09     3.41078E+09     590.881E+06     111.585E+06     3.29919E+09    -1.37108E+09     3.00216E+09     250.448E+06     3.40206E+09     460.733E+06    -69.2871E+06    -220.099E+06     140.489E+06
            1842               1     891.477E+06     995.863E+06     995.863E+06     348.341E+06    -20.9118E+06     1.01677E+09    -441.097E+06     684.667E+06     228.585E+06     987.674E+06     107.032E+06    -9.61785E+06    -174.851E+06     80.5696E+06
            1843               1     2.16892E+09     2.27145E+09     2.27145E+09     299.759E+06    -51.7532E+06     2.32320E+09    -839.818E+06     2.10339E+09     52.4254E+06     2.26386E+09     203.173E+06     69.3919E+06    -162.957E+06    -100.500E+06
            1844               1     2.93988E+09     3.27817E+09     3.27817E+09     573.643E+06     149.102E+06     3.12907E+09    -1.33364E+09     2.86970E+09     250.905E+06     3.26895E+09     481.058E+06     111.107E+06    -183.132E+06    -112.943E+06
            1845               1     3.04876E+09     3.23313E+09     3.23313E+09     228.999E+06     141.620E+06     3.09151E+09    -1.20125E+09     3.04594E+09     193.710E+06     3.19659E+09     213.451E+06     299.666E+06    -52.2757E+06    -140.177E+06
            1846               1     1.98158E+09     1.98238E+09     1.98238E+09     63.9864E+06    -56.8500E+06     2.03923E+09    -663.172E+06     1.97326E+09     59.6994E+06     1.96702E+09    -37.2042E+06     152.721E+06    -34.9475E+06     83.5041E+06
            1847               1     2.96188E+09     3.26874E+09     3.26874E+09     390.208E+06     230.002E+06     3.03873E+09    -1.29632E+09     2.95211E+09     296.213E+06     3.22870E+09     364.034E+06     280.668E+06     87.5842E+06     189.936E+06
            1848               1     1.72496E+09     1.67013E+09     1.67013E+09    -34.1508E+06    -74.7895E+06     1.74492E+09    -520.396E+06     1.72388E+09    -50.5726E+06     1.65672E+09    -44.9557E+06    -102.806E+06    -26.8733E+06     110.041E+06
            1849               1     2.65232E+09     2.82950E+09     2.82950E+09     210.838E+06     144.763E+06     2.68474E+09    -1.06170E+09     2.65047E+09     242.440E+06     2.77062E+09     172.042E+06    -292.504E+06    -40.2545E+06     257.310E+06
            1850               1     3.95815E+09     4.48326E+09     4.48326E+09     692.090E+06     376.965E+06     4.10629E+09    -1.85077E+09     3.92978E+09     490.565E+06     4.44068E+09     621.065E+06     375.570E+06     151.260E+06     152.956E+06
            1851               1     1.94175E+09     1.96599E+09     1.96599E+09     62.6905E+06    -12.0479E+06     1.97804E+09    -672.212E+06     1.93851E+09     68.5703E+06     1.95581E+09    -7.74188E+06    -133.337E+06     12.9352E+06     41.0362E+06
            1852               1     3.05948E+09     3.40758E+09     3.40758E+09     612.001E+06     139.231E+06     3.26835E+09    -1.38627E+09     2.97563E+09     263.271E+06     3.40162E+09     493.923E+06    -105.019E+06     208.829E+06    -77.3934E+06
            1853               1     1.93002E+09     1.97494E+09     1.97494E+09     83.4692E+06     8.55882E+06     1.96639E+09    -688.991E+06     1.92675E+09     84.1048E+06     1.96286E+09     20.0100E+06    -145.790E+06    -22.9302E+06    -42.4301E+06
            1854               1     3.89790E+09     4.43801E+09     4.43801E+09     767.812E+06     346.617E+06     4.09140E+09    -1.85081E+09     3.84621E+09     418.335E+06     4.43381E+09     700.293E+06     95.1405E+06     158.322E+06     81.5010E+06
            1855               1     3.37749E+09     3.57413E+09     3.57413E+09     533.067E+06    -60.9558E+06     3.63509E+09    -1.34875E+09     3.25683E+09     536.938E+06     3.45722E+09     52.0818E+06     559.414E+06     179.243E+06    -253.714E+06
            1856               1     4.13865E+09     4.75430E+09     4.75430E+09     876.603E+06     396.564E+06     4.35774E+09    -2.00916E+09     4.07531E+09     495.731E+06     4.74841E+09     783.328E+06    -138.667E+06     193.323E+06    -67.5534E+06
            1857               1     2.99515E+09     3.05349E+09     3.05349E+09     374.026E+06    -179.997E+06     3.23349E+09    -1.08251E+09     2.87646E+09     377.073E+06     2.97731E+09    -106.864E+06    -439.512E+06    -162.924E+06    -139.083E+06
            1858               1     931.089E+06     1.01955E+09     1.01955E+09     354.603E+06    -44.5690E+06     1.06412E+09    -443.196E+06     695.364E+06     263.758E+06     934.262E+06     131.567E+06     39.3729E+06    -194.084E+06    -254.025E+06
            1859               1     881.553E+06     1.00693E+09     1.00693E+09     362.909E+06     2.23316E+06     1.00470E+09    -457.358E+06     683.222E+06     243.710E+06     995.851E+06     132.513E+06    -7.26666E+06     171.839E+06    -94.2935E+06
            1860               1     1.57977E+09     1.43070E+09     1.43070E+09     317.065E+06    -377.334E+06     1.80803E+09    -456.809E+06     1.15294E+09     292.042E+06     1.14490E+09    -66.5171E+06    -96.8907E+06     246.025E+06    -612.151E+06
            1861               1     2.27223E+09     1.90474E+09     1.90474E+09     326.509E+06    -699.574E+06     2.60431E+09    -510.557E+06     1.61240E+09     309.758E+06     1.69583E+09    -473.920E+06    -179.781E+06     292.323E+06    -629.320E+06
            1862               1     1.58418E+09     1.41302E+09     1.41302E+09     307.472E+06    -401.880E+06     1.81490E+09    -439.536E+06     1.13454E+09     282.404E+06     1.12987E+09    -93.6705E+06    -93.5528E+06    -244.645E+06     612.500E+06
            1863               1     1.65795E+09     1.67968E+09     1.67968E+09     326.671E+06    -169.773E+06     1.84946E+09    -612.194E+06     1.47630E+09     250.686E+06     1.60341E+09    -17.5163E+06    -119.065E+06    -220.812E+06     313.788E+06
            1864               1     5.31435E+09     7.76583E+09     7.76583E+09     2.92174E+09     2.08137E+09     5.68446E+09    -4.25632E+09     5.16168E+09     3.06036E+09     7.27723E+09     2.43136E+09    -1.34666E+09    -174.965E+06    -791.620E+06
            1865               1     2.37424E+09     1.99984E+09     1.99984E+09     354.839E+06    -722.003E+06     2.72184E+09    -544.226E+06     1.67654E+09     342.648E+06     1.79995E+09    -509.916E+06    -199.812E+06    -298.170E+06     621.160E+06
            1866               1     1.46062E+09     1.60490E+09     1.60490E+09     380.282E+06    -11.7208E+06     1.61662E+09    -657.820E+06     1.33436E+09     377.745E+06     1.59745E+09    -1.73990E+06     52.1662E+06     46.9064E+06     89.5891E+06
            1867               1     1.70897E+09     1.71484E+09     1.71484E+09     59.7946E+06    -43.3880E+06     1.75823E+09    -577.082E+06     1.70194E+09    -26.9087E+06     1.68885E+09     69.3031E+06     149.212E+06    -31.5634E+06    -144.680E+06
            1868               1     2.44468E+09     2.45652E+09     2.45652E+09     339.646E+06    -219.206E+06     2.67572E+09    -858.985E+06     2.29426E+09     340.979E+06     2.41295E+09    -176.976E+06     237.085E+06     92.6625E+06    -221.764E+06
            1869               1     5.08595E+09     6.65916E+09     6.65916E+09     1.80740E+09     1.36758E+09     5.29157E+09    -3.27805E+09     5.04290E+09     1.81525E+09     6.64637E+09     1.37252E+09     195.042E+06     8.56147E+06     161.159E+06
            1870               1     3.35134E+09     3.50633E+09     3.50633E+09     670.754E+06    -192.051E+06     3.69839E+09    -1.32835E+09     3.08627E+09     693.362E+06     3.42860E+09    -136.924E+06     330.513E+06    -74.8638E+06     385.162E+06
            1871               1     4.06877E+09     4.68921E+09     4.68921E+09     1.18034E+09     229.085E+06     4.46012E+09    -2.03288E+09     3.80632E+09     1.21038E+09     4.58084E+09     307.409E+06     402.284E+06    -66.9597E+06     528.248E+06
            1872               1     2.06238E+09     1.99647E+09     1.99647E+09     338.646E+06    -313.019E+06     2.30949E+09    -674.032E+06     1.80800E+09     333.041E+06     1.97194E+09    -282.882E+06    -166.204E+06    -131.462E+06     120.965E+06
            1873               1     2.22264E+09     2.44407E+09     2.44407E+09     362.869E+06     102.862E+06     2.34121E+09    -969.933E+06     2.18803E+09     177.528E+06     2.43152E+09     300.749E+06    -73.7138E+06     121.480E+06    -143.312E+06
            1874               1     5.22621E+09     8.84945E+09     8.84945E+09     3.63166E+09     3.61486E+09     5.23459E+09    -5.36532E+09     5.22615E+09     3.69471E+09     8.77563E+09     3.62563E+09    -616.849E+06    -8.36827E+06     2.06320E+06
            1875               1     3.96839E+09     5.00702E+09     5.00702E+09     1.10211E+09     978.055E+06     4.02896E+09    -2.36239E+09     3.96402E+09     1.08620E+09     4.99240E+09     1.00859E+09    -221.815E+06    -57.2292E+06     87.7212E+06
            1876               1     3.00976E+09     3.57067E+09     3.57067E+09     715.539E+06     427.051E+06     3.14362E+09    -1.57109E+09     2.97842E+09     740.749E+06     3.50214E+09     470.369E+06    -291.951E+06     3.16397E+06     345.404E+06
            1877               1     2.07769E+09     2.08784E+09     2.08784E+09     302.393E+06    -192.666E+06     2.28051E+09    -732.523E+06     1.93821E+09     304.968E+06     2.06820E+09    -175.603E+06     186.924E+06    -88.7301E+06     18.8312E+06
            1878               1     4.28143E+09     3.90751E+09     3.90751E+09     708.583E+06    -956.275E+06     4.86378E+09    -1.21994E+09     3.43062E+09     721.998E+06     3.86514E+09    -927.329E+06     349.806E+06    -186.572E+06     158.498E+06
            1879               1     6.21039E+09     8.28006E+09     8.28006E+09     2.56544E+09     1.67091E+09     6.60914E+09    -4.17213E+09     6.06291E+09     2.56863E+09     8.27403E+09     1.67375E+09     142.480E+06    -14.8572E+06     128.248E+06
            1880               1     6.34504E+09     8.41838E+09     8.41838E+09     2.60736E+09     1.64847E+09     6.76990E+09    -4.22474E+09     6.17886E+09     2.60957E+09     8.41116E+09     1.65347E+09     119.458E+06     11.6854E+06    -179.670E+06
            1881               1     5.03845E+09     6.63066E+09     6.63066E+09     1.84182E+09     1.37508E+09     5.25558E+09    -3.28252E+09     4.98946E+09     1.84577E+09     6.62575E+09     1.37604E+09     138.337E+06    -6.79512E+06    -68.8732E+06
            1882               1     1.45718E+09     1.64113E+09     1.64113E+09     379.470E+06     46.1664E+06     1.59496E+09    -688.921E+06     1.36742E+09     377.151E+06     1.62967E+09     59.9454E+06    -61.4246E+06     47.5240E+06    -113.387E+06
            1883               1     2.98713E+09     2.55095E+09     2.55095E+09     355.408E+06    -850.652E+06     3.40160E+09    -685.235E+06     2.33673E+09     355.060E+06     2.50166E+09    -801.018E+06    -220.671E+06     194.700E+06    -281.101E+06
            1884               1     2.10796E+09     2.01805E+09     2.01805E+09     344.821E+06    -349.484E+06     2.36753E+09    -671.128E+06     1.82273E+09     336.808E+06     1.99364E+09    -317.062E+06    -162.879E+06     139.900E+06    -128.042E+06
            1885               1     2.25001E+09     2.46789E+09     2.46789E+09     365.934E+06     94.4603E+06     2.37343E+09    -976.095E+06     2.21272E+09     176.890E+06     2.45880E+09     292.594E+06    -91.9842E+06    -127.576E+06     103.046E+06
            1886               1     6.93823E+09     9.20231E+09     9.20231E+09     2.79929E+09     1.83065E+09     7.37165E+09    -4.61075E+09     6.78361E+09     2.80828E+09     9.19150E+09     1.83246E+09    -243.404E+06    -12.2624E+06    -106.974E+06
            1887               1     3.20196E+09     3.75244E+09     3.75244E+09     716.642E+06     406.844E+06     3.34560E+09    -1.62531E+09     3.16798E+09     748.346E+06     3.67852E+09     449.068E+06    -313.500E+06     17.3482E+06    -367.154E+06
            1888               1     3.91211E+09     4.91389E+09     4.91389E+09     1.24938E+09     794.025E+06     4.11986E+09    -2.31910E+09     3.85181E+09     1.27783E+09     4.85598E+09     823.480E+06    -338.045E+06    -7.51822E+06    -329.774E+06
            1889               1     3.94537E+09     4.02479E+09     4.02479E+09     817.155E+06    -380.671E+06     4.40546E+09    -1.48709E+09     3.49980E+09     837.580E+06     3.95864E+09    -334.941E+06    -365.917E+06    -123.007E+06    -338.396E+06
            1890               1     1.32815E+09     1.40216E+09     1.40216E+09     324.060E+06    -81.4772E+06     1.48364E+09    -548.248E+06     1.17626E+09     313.620E+06     1.35361E+09    -22.4824E+06    -47.9077E+06    -83.7283E+06     252.968E+06
            1891               1     1.27750E+09     1.40070E+09     1.40070E+09     317.924E+06    -8.27903E+06     1.40897E+09    -570.114E+06     1.17821E+09     313.093E+06     1.40068E+09    -3.43486E+06    -351.338E+03    -39.4027E+06    -4.25163E+06
            1892               1     1.97544E+09     2.08466E+09     2.08466E+09     394.365E+06    -86.9573E+06     2.17162E+09    -797.356E+06     1.83642E+09     398.603E+06     2.06929E+09    -75.8244E+06    -136.814E+06     64.8231E+06    -90.7179E+06
            1893               1     1.30352E+09     1.40457E+09     1.40457E+09     306.555E+06    -36.0313E+06     1.44060E+09    -558.364E+06     1.19578E+09     301.853E+06     1.40444E+09    -31.1967E+06    -572.386E+03     39.8532E+06     13.8243E+06
            1894               1     791.086E+06     884.502E+06     884.502E+06     253.432E+06    -2.98579E+06     887.488E+06    -378.316E+06     687.818E+06     200.451E+06     758.665E+06     175.833E+06    -22.9788E+06     127.510E+06    -288.389E+06
            1895               1     1.84874E+09     1.96520E+09     1.96520E+09     412.165E+06    -79.7492E+06     2.04495E+09    -765.871E+06     1.69185E+09     413.778E+06     1.94575E+09    -61.9196E+06     122.977E+06     74.0632E+06     134.194E+06
            1896               1     1.43978E+09     1.39034E+09     1.39034E+09     261.495E+06    -231.090E+06     1.62143E+09    -473.580E+06     1.22752E+09     247.227E+06     1.17600E+09    -2.48628E+06     76.9941E+06     152.610E+06     525.488E+06
            1897               1     3.10207E+09     2.75721E+09     2.75721E+09     441.438E+06    -767.264E+06     3.52447E+09    -810.461E+06     2.48261E+09     444.633E+06     2.72305E+09    -736.305E+06     240.186E+06     178.952E+06     160.400E+06
            1898               1     4.35908E+09     3.88363E+09     3.88363E+09     669.664E+06    -1.07811E+09     4.96174E+09    -1.15839E+09     3.42604E+09     678.300E+06     3.84942E+09    -1.05254E+09     329.458E+06     203.170E+06    -62.3872E+06
            1899               1     2.32507E+09     2.51990E+09     2.51990E+09     219.350E+06     171.050E+06     2.34885E+09    -970.098E+06     2.32394E+09     234.399E+06     2.46595E+09     209.950E+06     209.735E+06    -40.2268E+06    -279.391E+06
            1900               1     1.55818E+09     1.49354E+09     1.49354E+09     70.7870E+06    -171.646E+06     1.66518E+09    -464.226E+06     1.51487E+09    -154.936E+06     1.49044E+09     57.1763E+06     51.6634E+06    -60.0128E+06    -44.2011E+06
            1901               1     1.53865E+09     1.47626E+09     1.47626E+09     83.0497E+06    -175.147E+06     1.65141E+09    -461.389E+06     1.48873E+09    -159.060E+06     1.47209E+09     71.1382E+06     51.4211E+06     61.2839E+06     57.9865E+06
            1902               1     1.73475E+09     1.73344E+09     1.73344E+09     48.0217E+06    -46.7567E+06     1.78019E+09    -578.233E+06     1.72891E+09    -29.7716E+06     1.70437E+09     60.0992E+06     153.019E+06     32.2168E+06     159.687E+06
            1903               1     5.09603E+09     5.29662E+09     5.29662E+09     1.29526E+09    -440.550E+06     5.73717E+09    -2.05044E+09     4.35222E+09     1.30474E+09     5.18126E+09    -334.672E+06     444.905E+06    -195.836E+06     629.911E+06
            1904               1     4.68694E+09     5.92417E+09     5.92417E+09     1.64441E+09     915.465E+06     5.00870E+09    -2.82801E+09     4.55678E+09     1.67952E+09     5.84616E+09     958.371E+06     404.418E+06    -10.2141E+06     443.733E+06
            1905               1     6.82388E+09     9.16623E+09     9.16623E+09     2.96546E+09     1.85536E+09     7.31087E+09    -4.66235E+09     6.61614E+09     2.96749E+09     9.16412E+09     1.85544E+09     112.246E+06     1.48300E+06     23.4125E+06
            1906               1     5.45972E+09     7.03167E+09     7.03167E+09     2.18724E+09     1.11558E+09     5.91609E+09    -3.44483E+09     5.21515E+09     2.21885E+09     6.84846E+09     1.26718E+09     560.772E+06     95.3624E+06    -835.263E+06
            1907               1     3.85339E+09     4.95131E+09     4.95131E+09     1.15687E+09     1.04156E+09     3.90975E+09    -2.38325E+09     3.84951E+09     1.13681E+09     4.93235E+09     1.08059E+09     185.510E+06    -59.6372E+06    -193.275E+06
            1908               1     4.36167E+09     5.11190E+09     5.11190E+09     1.26484E+09     373.367E+06     4.73853E+09    -2.25004E+09     4.14920E+09     1.29638E+09     5.01650E+09     437.222E+06     417.592E+06     60.9926E+06    -488.616E+06
            1909               1     1.55692E+09     1.51333E+09     1.51333E+09      95.636E+06    -152.920E+06     1.66625E+09    -485.349E+06     1.51132E+09    -135.133E+06     1.50798E+09     83.1949E+06    -56.1005E+06     63.1887E+06    -67.8964E+06
            1910               1     2.51574E+09     2.43784E+09     2.43784E+09     386.021E+06    -368.937E+06     2.80678E+09    -818.308E+06     2.23878E+09     386.517E+06     2.40143E+09    -333.020E+06    -234.286E+06    -119.571E+06    -177.018E+06
            1911               1     2.02407E+09     2.11416E+09     2.11416E+09     297.368E+06    -67.5449E+06     2.18171E+09    -781.328E+06     1.94799E+09     300.550E+06     2.09508E+09    -51.6498E+06    -184.370E+06    -70.6626E+06    -34.0607E+06
            1912               1     1.89316E+09     2.02348E+09     2.02348E+09     390.799E+06    -51.7601E+06     2.07524E+09    -787.506E+06     1.77108E+09     394.120E+06     2.00833E+09    -39.9301E+06    -132.770E+06    -64.7768E+06     89.2067E+06
            1913               1     1.47047E+09     1.62342E+09     1.62342E+09     360.856E+06     8.90509E+06     1.61451E+09    -664.394E+06     1.37082E+09     358.492E+06     1.61408E+09     20.6123E+06    -60.8249E+06    -47.8248E+06     99.0705E+06
            1914               1     1.47009E+09     1.60344E+09     1.60344E+09     373.195E+06    -24.6158E+06     1.62806E+09    -650.673E+06     1.34075E+09     370.975E+06     1.59510E+09    -14.0602E+06     52.2753E+06    -46.1263E+06    -97.4728E+06
            1915               1     2.17944E+09     1.95521E+09     1.95521E+09     310.608E+06    -516.769E+06     2.47197E+09    -583.015E+06     1.77048E+09     302.780E+06     1.85880E+09    -412.537E+06     147.937E+06    -176.588E+06    -426.152E+06
            1916               1     2.31394E+09     2.50559E+09     2.50559E+09     224.242E+06     160.379E+06     2.34521E+09    -963.402E+06     2.31195E+09     238.636E+06     2.45342E+09     198.152E+06     203.709E+06     41.1441E+06     275.783E+06
            1917               1      5.0352E+09     6.59109E+09     6.59109E+09     1.98414E+09     1.21593E+09     5.37516E+09    -3.26372E+09     4.90075E+09     2.01144E+09     6.53494E+09     1.24478E+09    -376.140E+06    -23.4583E+06    -369.381E+06
            1918               1     5.20103E+09     6.75273E+09     6.75273E+09     1.73777E+09     1.38372E+09     5.36901E+09    -3.29140E+09     5.17381E+09     1.74856E+09     6.73946E+09     1.38619E+09    -243.890E+06     23.8268E+06    -84.8928E+06
            1919               1     6.54259E+09     8.52655E+09     8.52655E+09     2.45387E+09     1.59825E+09     6.92831E+09    -4.19289E+09     6.41491E+09     2.46453E+09     8.51580E+09     1.59834E+09    -255.301E+06     -8.8417E+06    -2.95351E+06
            1920               1     6.65534E+09     8.79551E+09     8.79551E+09     2.63101E+09     1.73926E+09     7.05625E+09    -4.38859E+09     6.51890E+09     2.64086E+09     8.78320E+09     1.74172E+09    -246.225E+06    -5.08354E+06     131.574E+06
            1921               1     5.25023E+09     6.74877E+09     6.74877E+09     1.76580E+09     1.26691E+09     5.48187E+09    -3.26049E+09     5.19650E+09     1.77290E+09     6.73965E+09     1.26892E+09    -189.660E+06     4.10032E+06     101.978E+06
            1922               1     5.59758E+09     8.46998E+09     8.46998E+09     3.22670E+09     2.57512E+09     5.89486E+09    -4.75726E+09     5.51129E+09     3.25203E+09     8.29627E+09     2.72349E+09    -604.999E+06     77.7964E+06     780.363E+06
            1923               1     3.15434E+09     3.04741E+09     3.04741E+09     498.218E+06    -480.189E+06     3.52760E+09    -1.02181E+09     2.78090E+09     510.666E+06     3.01050E+09    -455.728E+06    -286.600E+06     123.592E+06     139.823E+06
            1924               1     2.21081E+09     2.27775E+09     2.27775E+09     232.357E+06    -67.8071E+06     2.34556E+09    -814.100E+06     2.16425E+09     242.615E+06     2.21834E+09    -18.6542E+06    -213.169E+06     29.3509E+06     294.864E+06
            1925               1     2.17405E+09     2.17341E+09     2.17341E+09     310.017E+06    -215.101E+06     2.38851E+09    -756.109E+06     2.02385E+09     309.099E+06     2.13045E+09    -171.225E+06    -209.112E+06      86.965E+06     223.410E+06
            1926               1     1.57017E+09     1.53705E+09     1.53705E+09     106.238E+06    -142.730E+06     1.67978E+09    -500.186E+06     1.52481E+09    -124.320E+06     1.53055E+09     94.3241E+06    -64.3011E+06    -63.8737E+06     73.4991E+06
            1927               1     5.53569E+09     8.85047E+09     8.85047E+09     3.42545E+09     3.21038E+09     5.64009E+09    -5.16210E+09     5.52628E+09     3.49245E+09     8.78339E+09     3.21047E+09     599.523E+06     4.56706E+06     2.34281E+06
            1928               1     4.76601E+09     4.84684E+09     4.84684E+09     1.13043E+09    -526.491E+06     5.37333E+09    -1.81693E+09     4.03723E+09     1.14265E+09     4.76850E+09    -460.364E+06     415.022E+06     190.887E+06    -432.097E+06
            1929               1     1.60573E+09     1.62351E+09     1.62351E+09     324.653E+06    -171.826E+06     1.79534E+09    -592.112E+06     1.41696E+09     317.720E+06     1.56043E+09    -101.814E+06    -100.316E+06     111.077E+06    -299.708E+06
            1930               1     5.10268E+09     5.36566E+09     5.36566E+09     1.30821E+09    -363.083E+06     5.72875E+09    -2.10360E+09     4.42085E+09     1.32126E+09     5.23642E+09    -246.895E+06    -459.318E+06     181.458E+06     677.859E+06
            1931               1     6.33055E+09     8.94288E+09     8.94288E+09     3.15786E+09     2.18048E+09     6.76240E+09    -4.76040E+09     6.15737E+09     3.17990E+09     8.92071E+09     2.18060E+09    -356.455E+06    -447.441E+03    -28.7673E+06
            1932               1     4.12035E+09     3.72786E+09     3.72786E+09     671.729E+06    -958.109E+06     4.68597E+09    -1.14716E+09     3.26705E+09     681.123E+06     3.69053E+09    -930.171E+06    -335.153E+06    -203.551E+06    -68.7994E+06
            1933               1     779.743E+06     875.921E+06     875.921E+06     251.017E+06     2.11177E+06     873.809E+06    -376.350E+06     681.367E+06     199.649E+06     753.536E+06     175.865E+06    -25.2968E+06    -125.053E+06     282.037E+06
            1934               1     1.83923E+09     1.95495E+09     1.95495E+09     410.434E+06    -79.7061E+06     2.03465E+09    -761.892E+06     1.68264E+09     411.392E+06     1.93671E+09    -62.4273E+06     122.866E+06    -75.7071E+06    -124.466E+06
            1935               1     3.09381E+09     2.70718E+09     2.70718E+09     409.888E+06    -810.742E+06     3.51792E+09    -768.776E+06     2.45709E+09     411.462E+06     2.67104E+09    -776.173E+06     230.316E+06    -182.045E+06    -194.400E+06
            1936               1     2.16636E+09     1.92009E+09     1.92009E+09     291.310E+06    -538.503E+06     2.45860E+09    -557.633E+06     1.75110E+09     282.534E+06     1.82324E+09    -432.872E+06     142.341E+06     176.122E+06     428.747E+06
            1937               1     2.09324E+09     2.09419E+09     2.09419E+09     302.334E+06    -206.582E+06     2.30077E+09    -729.981E+06     1.94661E+09     304.660E+06     2.07368E+09    -188.400E+06     190.869E+06     91.6072E+06    -28.2769E+06
            1938               1     5.58026E+09     8.36072E+09     8.36072E+09     3.07562E+09     2.52598E+09     5.83474E+09    -4.65411E+09     5.51887E+09     3.11168E+09     8.21283E+09     2.63781E+09     594.237E+06     52.2356E+06    -685.122E+06
            1939               1     5.55651E+09     7.03613E+09     7.03613E+09     2.24590E+09     944.386E+06     6.09174E+09    -3.40880E+09     5.19668E+09     2.26200E+09     6.84741E+09     1.11700E+09     529.709E+06    -139.017E+06     892.129E+06
            1940               1     2.89120E+09     3.42702E+09     3.42702E+09     690.173E+06     402.926E+06     3.02410E+09    -1.50671E+09     2.85883E+09     489.535E+06     3.42375E+09     606.841E+06     69.7217E+06     132.696E+06     64.4096E+06
            1941               1     889.726E+06     1.00849E+09     1.00849E+09     278.294E+06     17.5096E+06     990.977E+06    -434.763E+06     796.688E+06     234.080E+06     919.373E+06     150.838E+06     32.1022E+06     117.855E+06     266.615E+06
            1942               1     2.03454E+09     2.15889E+09     2.15889E+09     317.824E+06    -25.4462E+06     2.18434E+09    -817.091E+06     1.96780E+09     322.406E+06     2.13924E+09    -10.3706E+06    -187.494E+06     65.4685E+06     40.0988E+06
            1943               1     5.65237E+09     8.32842E+09     8.32842E+09     3.02459E+09     2.38237E+09     5.94605E+09    -4.57846E+09     5.56940E+09     3.06309E+09     8.18067E+09     2.49163E+09     597.424E+06    -58.6849E+06     689.810E+06
            1944               1     1.34133E+09     1.42226E+09     1.42226E+09     342.458E+06    -79.2395E+06     1.50150E+09    -561.826E+06     1.17772E+09     331.280E+06     1.37552E+09    -21.3231E+06    -48.5630E+06     87.2508E+06    -249.175E+06
            1945               1     1.45759E+09     1.39468E+09     1.39468E+09     256.860E+06    -248.282E+06     1.64296E+09    -467.752E+06     1.23630E+09     243.357E+06     1.18195E+09    -22.0475E+06     74.5999E+06    -149.249E+06    -529.321E+06
            1946               1     4.17765E+09     4.06037E+09     4.06037E+09     792.714E+06    -646.657E+06     4.70703E+09    -1.40214E+09     3.55181E+09     812.695E+06     3.99719E+09    -603.452E+06    -383.837E+06     155.789E+06     306.478E+06
            1947               1     1.99078E+09     1.99115E+09     1.99115E+09     139.345E+06    -114.286E+06     2.10544E+09    -672.070E+06     1.95393E+09     148.869E+06     1.95945E+09    -92.1056E+06     199.299E+06     38.3830E+06    -149.490E+06
            1948               1     2.21432E+09     2.44121E+09     2.44121E+09     383.149E+06     98.2082E+06     2.34300E+09    -974.188E+06     2.17250E+09     180.511E+06     2.43245E+09     309.607E+06     50.3116E+06     131.642E+06     124.462E+06
            1949               1     2.51047E+09     2.52568E+09     2.52568E+09     357.037E+06    -224.535E+06     2.75021E+09    -886.059E+06     2.35163E+09     362.749E+06     2.47218E+09    -176.752E+06     242.397E+06    -80.5338E+06     275.631E+06
            1950               1     1.75748E+09     1.69172E+09     1.69172E+09    -32.5066E+06    -97.2205E+06     1.78894E+09    -520.666E+06     1.75480E+09    -73.8475E+06     1.67145E+09    -35.6031E+06    -151.848E+06     33.1663E+06    -108.777E+06
            1951               1     3.19890E+09     2.68343E+09     2.68343E+09     371.947E+06    -967.459E+06     3.65089E+09    -695.972E+06     2.43634E+09     372.259E+06     2.61324E+09    -897.583E+06    -220.698E+06    -208.665E+06     398.342E+06
            1952               1     3.98178E+09     4.92492E+09     4.92492E+09     1.25822E+09     689.278E+06     4.23564E+09    -2.29080E+09     3.88875E+09     1.29366E+09     4.84766E+09     731.089E+06    -375.982E+06     5.38821E+06     401.492E+06
            1953               1     5.36507E+09     6.62403E+09     6.62403E+09     2.03747E+09     724.278E+06     5.89975E+09    -3.12859E+09     4.98386E+09     2.05470E+09     6.46576E+09     865.311E+06    -499.000E+06     137.462E+06     787.765E+06
            1954               1     5.00371E+09     5.44930E+09     5.44930E+09     1.37837E+09    -136.900E+06     5.58620E+09    -2.23026E+09     4.44178E+09     1.40025E+09     5.31464E+09    -24.1255E+06    -468.701E+06    -146.102E+06    -679.990E+06
            1955               1     5.50461E+09     7.10897E+09     7.10897E+09     2.31370E+09     1.09820E+09     6.01078E+09    -3.50696E+09     5.18962E+09     2.32960E+09     6.88295E+09     1.30832E+09    -557.588E+06    -132.060E+06    -981.411E+06
            1956               1     5.34861E+09     7.43224E+09     7.43224E+09     2.47961E+09     1.76043E+09     5.67181E+09    -3.89076E+09     5.23817E+09     2.51103E+09     7.32715E+09     1.83410E+09    -480.222E+06     50.3404E+06     575.819E+06
            1957               1     5.85907E+09     8.25884E+09     8.25884E+09     2.85690E+09     2.03041E+09     6.22843E+09    -4.38205E+09     5.72572E+09     2.87578E+09     8.23428E+09     2.03609E+09    -321.368E+06     5.45922E+06     183.170E+06
            1958               1     5.78527E+09     8.14616E+09     8.14616E+09     2.79202E+09     2.00943E+09     6.13673E+09    -4.31587E+09     5.66435E+09     2.81398E+09     8.10470E+09     2.02892E+09    -365.497E+06    -27.9835E+06    -318.651E+06
            1959               1     2.12091E+09     2.18425E+09     2.18425E+09     187.736E+06    -42.2916E+06     2.22655E+09    -776.566E+06     2.09257E+09     190.850E+06     2.12661E+09     12.2362E+06    -199.164E+06    -31.8552E+06    -289.471E+06
            1960               1     2.56964E+09     2.76536E+09     2.76536E+09     311.117E+06     94.0925E+06     2.67127E+09    -1.05686E+09     2.54890E+09     333.591E+06     2.70479E+09     132.189E+06    -246.508E+06     6.26368E+06    -305.456E+06
            1961               1     3.05127E+09     3.63810E+09     3.63810E+09     712.034E+06     475.401E+06     3.16269E+09    -1.60851E+09     3.03052E+09     547.379E+06     3.62269E+09     655.465E+06    -177.127E+06    -111.028E+06     118.776E+06
            1962               1     840.550E+06     987.841E+06     987.841E+06     287.618E+06     55.6736E+06     932.168E+06    -443.711E+06     763.421E+06     242.028E+06     980.203E+06     108.902E+06    -6.35269E+06    -93.3823E+06     80.3043E+06
            1963               1     2.19145E+09     2.39194E+09     2.39194E+09     350.178E+06     76.5186E+06     2.31542E+09    -939.547E+06     2.15250E+09     155.242E+06     2.38250E+09     280.896E+06     38.9131E+06    -126.153E+06    -133.594E+06
            1964               1     2.88173E+09     3.46008E+09     3.46008E+09     697.920E+06     472.069E+06     2.98801E+09    -1.54336E+09     2.86172E+09     529.003E+06     3.44912E+09     651.943E+06     116.153E+06    -100.607E+06    -129.511E+06
            1965               1     2.92808E+09     3.29700E+09     3.29700E+09     512.801E+06     243.633E+06     3.05337E+09    -1.35115E+09     2.90005E+09     542.056E+06     3.24368E+09     267.700E+06     295.933E+06    -161.143E+03    -255.381E+06
            1966               1     1.99668E+09     2.00543E+09     2.00543E+09     147.262E+06    -105.661E+06     2.11109E+09    -682.344E+06     1.96016E+09     152.938E+06     1.97613E+09    -82.0394E+06     197.692E+06    -46.6153E+06     135.779E+06
            1967               1     2.89424E+09     3.38004E+09     3.38004E+09     531.008E+06     442.611E+06     2.93743E+09    -1.45122E+09     2.89120E+09     556.130E+06     3.32704E+09     470.488E+06     284.864E+06     44.8050E+06     261.142E+06
            1968               1     1.78748E+09     1.74386E+09     1.74386E+09     -24.149E+06    -62.4716E+06     1.80633E+09    -552.412E+06     1.78655E+09    -49.2279E+06     1.72195E+09    -15.4813E+06    -153.579E+06    -11.5915E+06     123.129E+06
            1969               1     2.67303E+09     2.90930E+09     2.90930E+09     375.779E+06     115.768E+06     2.79354E+09    -1.13362E+09     2.64436E+09     399.690E+06     2.83690E+09     164.262E+06    -243.318E+06    -29.7209E+06     363.156E+06
            1970               1     3.72141E+09     4.64035E+09     4.64035E+09     1.04203E+09     807.000E+06     3.83335E+09    -2.16313E+09     3.70466E+09     1.07518E+09     4.58745E+09     826.750E+06     373.080E+06    -13.1638E+06     231.301E+06
            1971               1     1.94097E+09     2.00638E+09     2.00638E+09     144.809E+06    -5.28334E+06     2.01166E+09    -715.301E+06     1.92785E+09     148.528E+06     1.98281E+09     14.5649E+06    -202.482E+06     43.0283E+06     59.3179E+06
            1972               1     2.98611E+09     3.58792E+09     3.58792E+09     733.553E+06     485.546E+06     3.10238E+09    -1.60234E+09     2.96280E+09     563.472E+06     3.57874E+09     664.811E+06    -128.369E+06     117.186E+06    -99.4384E+06
            1973               1     1.92638E+09     2.00223E+09     2.00223E+09     156.649E+06     4.11784E+06     1.99811E+09    -720.998E+06     1.91272E+09     162.652E+06     1.97724E+09     23.0963E+06    -203.560E+06    -39.5534E+06    -74.0897E+06
            1974               1     3.77396E+09     4.69593E+09     4.69593E+09     973.760E+06     872.236E+06     3.82369E+09    -2.18064E+09     3.77088E+09     918.661E+06     4.68961E+09     933.656E+06     128.136E+06     52.9191E+06     84.3836E+06
            1975               1     3.32457E+09     3.48260E+09     3.48260E+09     696.734E+06    -197.680E+06     3.68028E+09    -1.32722E+09     3.03569E+09     722.120E+06     3.38367E+09    -124.134E+06     334.581E+06     63.0772E+06    -466.418E+06
            1976               1     3.96756E+09     5.00724E+09     5.00724E+09     1.11419E+09     969.140E+06     4.03810E+09    -2.36352E+09     3.96159E+09     1.06474E+09     4.99434E+09     1.03149E+09    -208.883E+06     75.9496E+06    -81.2859E+06
            1977               1     2.91287E+09     2.94569E+09     2.94569E+09     504.120E+06    -278.549E+06     3.22424E+09    -1.05709E+09     2.66045E+09     520.374E+06     2.88699E+09    -236.095E+06    -282.872E+06    -80.9498E+06    -295.367E+06
            1978               1     871.293E+06     999.827E+06     999.827E+06     281.293E+06     30.6974E+06     969.130E+06    -437.272E+06     783.856E+06     233.929E+06     914.235E+06     163.653E+06     32.8835E+06    -117.812E+06    -257.361E+06
            1979               1     838.664E+06     994.854E+06     994.854E+06     289.563E+06     67.5086E+06     927.346E+06    -450.642E+06     768.240E+06     242.344E+06     983.947E+06     125.635E+06    -6.92590E+06     92.4646E+06    -95.5957E+06
            1980               1     1.50829E+09     1.39927E+09     1.39927E+09     247.843E+06    -308.081E+06     1.70735E+09    -446.343E+06     1.24429E+09     237.776E+06     1.12334E+09    -22.0917E+06    -73.6301E+06     156.902E+06    -606.333E+06
            1981               1     2.21222E+09     1.85983E+09     1.85983E+09     243.909E+06    -661.464E+06     2.52130E+09    -480.760E+06     1.71415E+09     236.529E+06     1.67396E+09    -468.209E+06    -126.065E+06     189.706E+06    -622.471E+06
            1982               1     1.51493E+09     1.38358E+09     1.38358E+09     235.101E+06    -333.356E+06     1.71694E+09    -428.443E+06     1.23839E+09     224.069E+06     1.10981E+09    -48.5560E+06    -68.9165E+06    -155.663E+06     607.655E+06
            1983               1     1.60004E+09     1.61138E+09     1.61138E+09     333.363E+06    -183.107E+06     1.79449E+09    -587.212E+06     1.39311E+09     324.227E+06     1.55465E+09    -117.245E+06    -98.8021E+06    -116.754E+06     281.602E+06
            1984               1     5.50757E+09     8.37746E+09     8.37746E+09     3.19956E+09     2.59081E+09     5.78665E+09    -4.72261E+09     5.43111E+09     3.22417E+09     8.19035E+09     2.75331E+09    -609.036E+06    -70.3951E+06    -812.933E+06
            1985               1     2.31822E+09     1.96236E+09     1.96236E+09     273.708E+06    -680.721E+06     2.64308E+09    -518.448E+06     1.78849E+09     268.478E+06     1.78458E+09    -497.710E+06    -137.984E+06    -192.106E+06     621.589E+06
            1986               1     1.44235E+09     1.65748E+09     1.65748E+09     429.595E+06     69.0628E+06     1.58842E+09    -718.713E+06     1.33521E+09     430.667E+06     1.64998E+09     75.4896E+06     43.7216E+06     16.8251E+06     96.3353E+06
            1987               1     1.68822E+09     1.71904E+09     1.71904E+09     64.1501E+06    -646.814E+03     1.71968E+09    -594.180E+06     1.68542E+09     10.6720E+06     1.69092E+09     80.9478E+06     134.084E+06    -6.73232E+06    -169.230E+06
            1988               1     2.51069E+09     2.51843E+09     2.51843E+09     356.348E+06    -235.230E+06     2.75366E+09    -879.848E+06     2.34607E+09     361.837E+06     2.47809E+09    -200.387E+06     176.726E+06     51.4309E+06    -269.260E+06
            1989               1     4.94779E+09     6.74244E+09     6.74244E+09     2.21151E+09     1.46307E+09     5.27937E+09    -3.47234E+09     4.81796E+09     2.21312E+09     6.73694E+09     1.46696E+09     85.4006E+06     3.84684E+06     143.260E+06
            1990               1     3.40079E+09     3.62141E+09     3.62141E+09     739.243E+06    -129.478E+06     3.75089E+09    -1.41039E+09     3.13624E+09     748.583E+06     3.56144E+09    -78.8450E+06     233.207E+06    -60.5238E+06     394.541E+06
            1991               1     4.22394E+09     4.97580E+09     4.97580E+09     1.32123E+09     351.240E+06     4.62456E+09    -2.21609E+09     3.96156E+09     1.33394E+09     4.89207E+09     422.258E+06     300.851E+06    -66.9378E+06     523.249E+06
            1992               1     2.04765E+09     2.03113E+09     2.03113E+09     345.782E+06    -247.709E+06     2.27884E+09    -709.734E+06     1.83869E+09     342.955E+06     2.01381E+09    -227.558E+06    -132.512E+06    -97.4427E+06     117.239E+06
            1993               1     2.17008E+09     2.48056E+09     2.48056E+09     367.830E+06     257.361E+06     2.22320E+09    -1.03525E+09     2.16374E+09     309.798E+06     2.46414E+09     331.814E+06    -79.8515E+06     61.3572E+06    -167.887E+06
            1994               1     4.88792E+09     8.86139E+09     8.86139E+09     4.19298E+09     3.78015E+09     5.08124E+09    -5.61151E+09     4.84847E+09     4.23188E+09     8.82236E+09     3.78028E+09    -425.023E+06    -7.54027E+06     6.02421E+06
            1995               1     3.73160E+09     4.98093E+09     4.98093E+09     1.44931E+09     1.07721E+09     3.90371E+09    -2.50248E+09     3.68952E+09     1.44821E+09     4.97759E+09     1.08165E+09    -43.5655E+06    -25.9763E+06     104.150E+06
            1996               1     3.06760E+09     3.67371E+09     3.67371E+09     825.268E+06     426.037E+06     3.24767E+09    -1.64167E+09     3.00832E+09     837.997E+06     3.61187E+09     475.145E+06    -188.748E+06    -22.0307E+06     395.518E+06
            1997               1     2.05369E+09     2.14541E+09     2.14541E+09     369.701E+06    -103.615E+06     2.24902E+09    -803.832E+06     1.92515E+09     378.286E+06     2.13276E+09    -99.5509E+06     148.643E+06    -41.2267E+06     21.5805E+06
            1998               1     4.35870E+09     3.97327E+09     3.97327E+09     831.922E+06    -1.00287E+09     4.97615E+09    -1.26744E+09     3.30554E+09     835.638E+06     3.94282E+09    -976.137E+06     262.960E+06    -165.311E+06     217.741E+06
            1999               1     6.21086E+09     8.50005E+09     8.50005E+09     2.95158E+09     1.79065E+09     6.70941E+09    -4.41409E+09     5.95937E+09     2.95667E+09     8.49321E+09     1.79239E+09     170.226E+06    -9.21890E+06     104.368E+06
            2000               1     6.36012E+09     8.64965E+09     8.64965E+09     2.98744E+09     1.76816E+09     6.88149E+09    -4.46842E+09     6.08879E+09     2.99196E+09     8.64113E+09     1.77216E+09     163.626E+06     11.3762E+06    -161.712E+06
            2001               1     4.95635E+09     6.75312E+09     6.75312E+09     2.20675E+09     1.46942E+09     5.28371E+09    -3.47643E+09     4.83064E+09     2.21016E+09     6.74946E+09     1.46966E+09     124.770E+06    -4.33985E+06    -34.8731E+06
            2002               1     1.46963E+09     1.67641E+09     1.67641E+09     444.914E+06     49.5384E+06     1.62687E+09    -723.622E+06     1.34194E+09     446.961E+06     1.66605E+09     57.8543E+06    -50.1517E+06     7.03231E+06    -115.734E+06
            2003               1     3.01264E+09     2.56152E+09     2.56152E+09     390.146E+06    -877.862E+06     3.43938E+09    -691.267E+06     2.28495E+09     390.893E+06     2.52715E+09    -844.240E+06    -177.922E+06     153.808E+06    -246.557E+06
            2004               1     2.09934E+09     2.05253E+09     2.05253E+09     328.792E+06    -285.404E+06     2.33794E+09    -698.640E+06     1.88070E+09     327.487E+06     2.03373E+09    -265.293E+06    -133.944E+06     94.9201E+06    -132.041E+06
            2005               1     2.17879E+09     2.49143E+09     2.49143E+09     369.382E+06     260.006E+06     2.23142E+09    -1.04027E+09     2.17260E+09     313.071E+06     2.48143E+09     326.310E+06    -63.9997E+06    -58.5568E+06     130.767E+06
            2006               1     6.72691E+09     9.24685E+09     9.24685E+09     3.32284E+09     1.93388E+09     7.31297E+09    -4.83453E+09     6.39223E+09     3.32286E+09     9.24503E+09     1.93569E+09     16.3932E+06    -5.84197E+06    -114.074E+06
            2007               1     3.17519E+09     3.81940E+09     3.81940E+09     891.171E+06     444.542E+06     3.37486E+09    -1.71837E+09     3.10334E+09     902.560E+06     3.75682E+09     495.735E+06    -183.248E+06     14.0738E+06    -411.106E+06
            2008               1     3.96859E+09     5.11309E+09     5.11309E+09     1.45591E+09     893.170E+06     4.21992E+09    -2.48739E+09     3.87730E+09     1.46825E+09     5.07424E+09     919.681E+06    -220.992E+06    -5.65527E+06    -327.017E+06
            2009               1     4.00931E+09     4.13191E+09     4.13191E+09     934.844E+06    -366.391E+06     4.49830E+09    -1.56679E+09     3.48442E+09     941.515E+06     4.08143E+09    -322.583E+06    -260.860E+06    -108.876E+06    -369.091E+06
            2010               1     1.30764E+09     1.44945E+09     1.44945E+09     350.321E+06     3.29675E+06     1.44615E+09    -601.022E+06     1.19730E+09     345.063E+06     1.39703E+09     60.9695E+06    -41.5439E+06    -59.9973E+06     263.150E+06
            2011               1     1.26884E+09     1.43351E+09     1.43351E+09     367.621E+06     30.0107E+06     1.40350E+09    -610.381E+06     1.16117E+09     367.122E+06     1.43349E+09     30.5325E+06     1.28788E+06    -13.0054E+06    -5.36048E+06
            2012               1     1.98711E+09     2.12495E+09     2.12495E+09     487.096E+06    -85.6183E+06     2.21057E+09    -842.143E+06     1.78679E+09     493.520E+06     2.11456E+09    -81.6541E+06    -105.281E+06     20.5570E+06    -87.7286E+06
            2013               1     1.29308E+09     1.43589E+09     1.43589E+09     360.176E+06     1.26738E+06     1.43462E+09    -599.110E+06     1.17292E+09     359.509E+06     1.43577E+09     2.05332E+06    -106.762E+03     15.4493E+06     13.0985E+06
            2014               1     767.928E+06     893.571E+06     893.571E+06     276.165E+06     33.6680E+06     859.903E+06    -401.135E+06     673.341E+06     247.531E+06     772.964E+06     182.909E+06    -19.8769E+06     98.5361E+06    -285.885E+06
            2015               1     1.83737E+09     2.04034E+09     2.04034E+09     482.423E+06     14.1468E+06     2.02619E+09    -845.636E+06     1.69513E+09     487.310E+06     2.02302E+09     26.5786E+06     96.7087E+06     32.9310E+06     148.750E+06
            2016               1     1.41566E+09     1.38692E+09     1.38692E+09     281.245E+06    -208.611E+06     1.59553E+09    -486.516E+06     1.20149E+09     277.352E+06     1.17551E+09     6.68654E+06     70.8258E+06     115.935E+06     524.616E+06
            2017               1     3.14113E+09     2.78009E+09     2.78009E+09     484.426E+06    -799.646E+06     3.57973E+09    -821.623E+06     2.43592E+09     483.271E+06     2.75980E+09    -778.201E+06     187.775E+06     155.234E+06     119.667E+06
            2018               1     4.41146E+09     3.88851E+09     3.88851E+09     768.496E+06    -1.15863E+09     5.04714E+09    -1.16612E+09     3.23876E+09     770.980E+06     3.86626E+09    -1.13887E+09     251.424E+06     175.869E+06    -113.626E+06
            2019               1     2.29273E+09     2.52976E+09     2.52976E+09     366.762E+06     126.255E+06     2.40351E+09    -1.00759E+09     2.26409E+09     374.312E+06     2.46091E+09     187.561E+06     126.167E+06    -26.3438E+06    -377.873E+06
            2020               1     1.54277E+09     1.48661E+09     1.48661E+09     62.9939E+06    -152.627E+06     1.63923E+09    -465.658E+06     1.50831E+09    -145.894E+06     1.48326E+09     59.6091E+06     52.0839E+06    -34.2379E+06    -47.9595E+06
            2021               1     1.52071E+09     1.46923E+09     1.46923E+09     77.9319E+06    -154.210E+06     1.62344E+09    -464.317E+06     1.48006E+09    -148.453E+06     1.46468E+09     76.7249E+06     52.9103E+06     32.3540E+06     61.5804E+06
            2022               1     1.71453E+09     1.73869E+09     1.73869E+09     45.2574E+06     3.81189E+06     1.73488E+09    -595.919E+06     1.71340E+09     15.7861E+06     1.70706E+09     64.9122E+06     137.094E+06     8.73496E+06     185.531E+06
            2023               1     5.16218E+09     5.35285E+09     5.35285E+09     1.48518E+09    -508.954E+06     5.86181E+09    -2.10969E+09     4.15248E+09     1.49037E+09     5.24021E+09    -401.495E+06     340.232E+06    -163.730E+06     703.756E+06
            2024               1     4.74938E+09     6.20475E+09     6.20475E+09     1.93028E+09     1.09206E+09     5.11269E+09    -3.07570E+09     4.57851E+09     1.93636E+09     6.16100E+09     1.12974E+09     236.804E+06    -55.3142E+06     397.231E+06
            2025               1     6.87440E+09     9.44283E+09     9.44283E+09     3.35439E+09     1.98777E+09     7.45507E+09    -4.92833E+09     6.55824E+09     3.35950E+09     9.43766E+09     1.98783E+09     176.319E+06    -134.482E+03     22.3395E+06
            2026               1     5.43763E+09     7.19946E+09     7.19946E+09     2.57728E+09     1.20809E+09     5.99137E+09    -3.66161E+09     5.02738E+09     2.58156E+09     7.04410E+09     1.35917E+09     314.014E+06     94.9847E+06    -890.966E+06
            2027               1     3.68577E+09     4.98470E+09     4.98470E+09     1.47531E+09     1.14480E+09     3.83990E+09    -2.53493E+09     3.65221E+09     1.47622E+09     4.97234E+09     1.15624E+09     90.5969E+06    -26.8303E+06    -195.085E+06
            2028               1     4.38578E+09     5.25475E+09     5.25475E+09     1.49584E+09     436.251E+06     4.81850E+09    -2.39561E+09     4.08263E+09     1.50385E+09     5.17972E+09     503.271E+06     254.958E+06     64.8954E+06    -527.968E+06
            2029               1     1.54348E+09     1.51359E+09     1.51359E+09     90.8317E+06    -127.384E+06     1.64098E+09    -492.348E+06     1.50819E+09    -120.778E+06     1.50722E+09     90.6054E+06    -57.7085E+06     34.0220E+06    -77.3797E+06
            2030               1     2.54265E+09     2.49743E+09     2.49743E+09     391.126E+06    -327.070E+06     2.82450E+09    -853.829E+06     2.29729E+09     390.798E+06     2.46895E+09    -298.265E+06    -178.765E+06    -88.2830E+06    -200.244E+06
            2031               1     2.02744E+09     2.13276E+09     2.13276E+09       375.9E+06    -85.6610E+06     2.21842E+09    -807.666E+06     1.90376E+09     386.584E+06     2.11787E+09    -81.4547E+06    -153.036E+06    -30.3524E+06    -59.8645E+06
            2032               1     1.90411E+09     2.06196E+09     2.06196E+09     477.465E+06    -50.3966E+06     2.11235E+09    -829.675E+06     1.72764E+09     483.761E+06     2.05189E+09    -46.6307E+06    -101.964E+06    -18.2246E+06     84.4036E+06
            2033               1     1.48045E+09     1.65753E+09     1.65753E+09     427.762E+06     14.3145E+06     1.64322E+09    -699.870E+06     1.34104E+09     429.712E+06     1.64885E+09     21.0492E+06    -50.2139E+06    -11.1969E+06     103.705E+06
            2034               1     1.45050E+09     1.65479E+09     1.65479E+09     425.864E+06     54.8088E+06     1.59998E+09    -711.822E+06     1.33732E+09     426.778E+06     1.64677E+09     61.9189E+06     42.3746E+06    -17.9238E+06    -101.610E+06
            2035               1     2.16721E+09     1.94098E+09     1.94098E+09     313.326E+06    -519.007E+06     2.45999E+09    -578.433E+06     1.74916E+09     308.429E+06     1.85882E+09    -431.954E+06     127.162E+06    -147.262E+06    -401.429E+06
            2036               1     2.28576E+09     2.51013E+09     2.51013E+09     341.827E+06     122.689E+06     2.38744E+09    -991.548E+06     2.26195E+09     347.914E+06     2.44526E+09     181.470E+06     120.186E+06     34.1444E+06     366.162E+06
            2037               1     5.19022E+09     6.92850E+09     6.92850E+09     2.22545E+09     1.35993E+09     5.56857E+09    -3.50463E+09     5.02400E+09     2.23733E+09     6.89260E+09     1.38395E+09    -262.607E+06    -30.7276E+06    -344.563E+06
            2038               1     4.93463E+09     6.73690E+09     6.73690E+09     2.22810E+09     1.46527E+09     5.27163E+09    -3.47676E+09     4.79929E+09     2.22806E+09     6.73429E+09     1.46793E+09    -1.78848E+06     5.84678E+06    -117.341E+06
            2039               1     6.33558E+09     8.55985E+09     8.55985E+09     2.96757E+09     1.67907E+09     6.88078E+09    -4.40216E+09     6.03012E+09     2.96757E+09     8.55981E+09     1.67911E+09    -9.76261E+06    -3.22621E+06    -14.8196E+06
            2040               1     6.45680E+09     8.84138E+09     8.84138E+09     3.13174E+09     1.83441E+09     7.00697E+09    -4.60251E+09     6.15323E+09     3.13174E+09     8.83789E+09     1.83791E+09    -6.55858E+06    -4.49737E+06     156.092E+06
            2041               1     5.10368E+09     6.83072E+09     6.83072E+09     2.20609E+09     1.35499E+09     5.47573E+09    -3.46394E+09     4.94023E+09     2.20738E+09     6.82680E+09     1.35763E+09    -83.2873E+06     11.4475E+06     115.341E+06
            2042               1     5.39900E+09     8.52824E+09     8.52824E+09     3.70650E+09     2.69504E+09     5.83319E+09    -4.97659E+09     5.17936E+09     3.72267E+09     8.36661E+09     2.84049E+09    -429.528E+06     76.6744E+06     843.964E+06
            2043               1     3.18199E+09     3.10122E+09     3.10122E+09     561.731E+06    -468.162E+06     3.56938E+09    -1.06493E+09     2.76796E+09     567.019E+06     3.07522E+09    -447.457E+06    -214.927E+06     100.706E+06     174.452E+06
            2044               1     2.24777E+09     2.32229E+09     2.32229E+09     278.438E+06    -85.0868E+06     2.40738E+09    -838.547E+06     2.18016E+09     286.208E+06     2.26020E+09    -30.7714E+06    -144.196E+06     6.32561E+06     349.818E+06
            2045               1     2.16443E+09     2.20891E+09     2.20891E+09     336.966E+06    -161.153E+06     2.37007E+09    -794.909E+06     2.02937E+09     333.967E+06     2.16795E+09    -117.194E+06    -156.760E+06     67.5351E+06     260.054E+06
            2046               1     1.55491E+09     1.53735E+09     1.53735E+09     101.146E+06    -113.887E+06     1.65124E+09    -508.203E+06     1.52092E+09    -106.448E+06     1.52890E+09     102.158E+06    -57.3666E+06    -37.1430E+06     94.8773E+06
            2047               1     5.29964E+09     8.97456E+09     8.97456E+09     4.01047E+09     3.39339E+09     5.58117E+09    -5.45947E+09     5.21789E+09     4.03244E+09     8.95255E+09     3.39343E+09     329.814E+06     4.97840E+06     1.24857E+06
            2048               1     4.88373E+09     4.95224E+09     4.95224E+09     1.25211E+09    -583.279E+06     5.53552E+09    -1.87369E+09     3.98896E+09     1.26080E+09     4.88139E+09    -521.123E+06     319.865E+06     145.575E+06    -498.250E+06
            2049               1     1.57255E+09     1.65774E+09     1.65774E+09     348.909E+06    -86.6863E+06     1.74443E+09    -639.988E+06     1.42706E+09     344.070E+06     1.59372E+09    -17.8208E+06    -79.2995E+06     85.9419E+06    -309.340E+06
            2050               1     5.14300E+09     5.42232E+09     5.42232E+09     1.50253E+09    -401.116E+06     5.82343E+09    -2.17458E+09     4.23386E+09     1.50733E+09     5.30169E+09    -285.291E+06    -336.643E+06     154.550E+06     736.291E+06
            2051               1     6.60842E+09     9.46042E+09     9.46042E+09     3.46218E+09     2.37633E+09     7.08409E+09    -5.09965E+09     6.40308E+09     3.47646E+09     9.44603E+09     2.37645E+09    -292.259E+06     1.74714E+06    -29.1639E+06
            2052               1     4.18876E+09     3.76595E+09     3.76595E+09     766.424E+06    -1.01982E+09     4.78577E+09    -1.17085E+09     3.14269E+09     768.985E+06     3.74232E+09    -998.756E+06    -251.265E+06    -171.204E+06    -124.694E+06
            2053               1     756.805E+06     885.101E+06     885.101E+06     274.459E+06     38.4014E+06     846.700E+06    -399.321E+06     666.097E+06     245.712E+06     768.019E+06     184.232E+06    -20.3363E+06    -97.2718E+06     279.542E+06
            2054               1     1.82784E+09     2.02899E+09     2.02899E+09     477.230E+06     14.1438E+06     2.01484E+09    -840.121E+06     1.68812E+09     482.152E+06     2.01253E+09     25.6837E+06     97.0652E+06    -32.7444E+06    -142.056E+06
            2055               1     3.11512E+09     2.70770E+09     2.70770E+09     443.002E+06    -844.847E+06     3.55254E+09    -768.617E+06     2.39588E+09     441.814E+06     2.68457E+09    -820.535E+06     183.633E+06    -156.744E+06    -157.576E+06
            2056               1     2.14718E+09     1.89618E+09     1.89618E+09     292.939E+06    -543.306E+06     2.43948E+09    -548.603E+06     1.71889E+09     287.350E+06     1.81366E+09    -455.204E+06     124.854E+06     149.220E+06     401.009E+06
            2057               1     2.06902E+09     2.15403E+09     2.15403E+09     366.123E+06    -112.279E+06     2.26631E+09    -802.625E+06     1.93863E+09     374.785E+06     2.14096E+09    -107.866E+06     151.134E+06     42.3985E+06    -26.7695E+06
            2058               1     5.42150E+09     8.51474E+09     8.51474E+09     3.59598E+09     2.70170E+09     5.81304E+09    -4.93747E+09     5.25171E+09     3.60752E+09     8.40046E+09     2.80443E+09     329.156E+06     49.7119E+06    -728.894E+06
            2059               1     5.56672E+09     7.15142E+09     7.15142E+09     2.53877E+09     968.123E+06     6.18330E+09    -3.55277E+09     5.03081E+09     2.54589E+09     6.96518E+09     1.14725E+09     363.756E+06    -110.831E+06     981.018E+06
            2060               1     2.76796E+09     3.47075E+09     3.47075E+09     760.516E+06     648.465E+06     2.82228E+09    -1.62658E+09     2.76285E+09     737.977E+06     3.46646E+09     675.291E+06     81.6542E+06     48.7781E+06     70.3710E+06
            2061               1     871.258E+06     1.02999E+09     1.02999E+09     301.675E+06     64.7906E+06     965.203E+06    -465.486E+06     793.818E+06     278.585E+06     942.805E+06     175.069E+06     23.5742E+06     85.4015E+06     267.633E+06
            2062               1     2.04979E+09     2.18556E+09     2.18556E+09     408.002E+06    -56.6827E+06     2.24224E+09    -845.627E+06     1.92586E+09     420.513E+06     2.16985E+09    -53.4842E+06    -156.969E+06     20.4075E+06     64.4075E+06
            2063               1     5.51363E+09     8.47574E+09     8.47574E+09     3.52307E+09     2.53481E+09     5.94093E+09    -4.84454E+09     5.30885E+09     3.53265E+09     8.36172E+09     2.63925E+09     332.593E+06    -64.4202E+06     735.631E+06
            2064               1     1.33003E+09     1.46786E+09     1.46786E+09     343.798E+06    -444.718E+03     1.46830E+09    -603.737E+06     1.22363E+09     339.140E+06     1.41597E+09     56.1021E+06    -46.3672E+06     59.8091E+06    -262.886E+06
            2065               1     1.43077E+09     1.38473E+09     1.38473E+09     273.522E+06    -229.654E+06     1.61438E+09    -476.199E+06     1.20614E+09     268.660E+06     1.17540E+09    -15.4598E+06     69.0323E+06    -118.034E+06    -526.146E+06
            2066               1     4.25591E+09     4.16239E+09     4.16239E+09     943.563E+06    -662.931E+06     4.82533E+09    -1.48101E+09     3.46801E+09     946.999E+06     4.11423E+09    -618.203E+06    -263.252E+06     141.364E+06     368.015E+06
            2067               1     1.96386E+09     2.02490E+09     2.02490E+09     202.264E+06    -54.8529E+06     2.07976E+09    -724.105E+06     1.92545E+09     212.458E+06     1.99507E+09    -35.2135E+06     166.087E+06     20.1185E+06    -175.342E+06
            2068               1     2.16593E+09     2.48038E+09     2.48038E+09     388.484E+06     247.327E+06     2.23306E+09    -1.03873E+09     2.15555E+09     303.481E+06     2.46889E+09     343.821E+06     63.0860E+06     72.9803E+06     141.493E+06
            2069               1     2.56075E+09     2.59490E+09     2.59490E+09     383.758E+06    -210.834E+06     2.80574E+09    -922.609E+06     2.39794E+09     389.263E+06     2.54465E+09    -166.090E+06     180.605E+06    -49.1386E+06     316.862E+06
            2070               1     1.74079E+09     1.69863E+09     1.69863E+09    -33.4024E+06     -50.793E+06     1.74942E+09    -538.145E+06     1.74060E+09    -37.0804E+06     1.67720E+09    -25.6815E+06    -142.320E+06     5.10957E+06    -129.334E+06
            2071               1     3.21989E+09     2.68419E+09     2.68419E+09     423.365E+06    -1.00243E+09     3.68662E+09    -701.710E+06     2.33280E+09     423.844E+06     2.63054E+09    -949.249E+06    -178.947E+06    -171.338E+06     364.559E+06
            2072               1     4.05571E+09     5.19019E+09     5.19019E+09     1.47183E+09     865.425E+06     4.32477E+09    -2.50915E+09     3.95178E+09     1.48404E+09     5.14477E+09     898.639E+06    -248.188E+06     28.7167E+06     353.518E+06
            2073               1     5.44085E+09     6.78054E+09     6.78054E+09     2.28668E+09     731.412E+06     6.04913E+09    -3.26621E+09     4.90207E+09     2.29369E+09     6.62623E+09     878.722E+06    -351.317E+06     113.527E+06     873.777E+06
            2074               1     5.06024E+09     5.56733E+09     5.56733E+09     1.61114E+09    -134.672E+06     5.70200E+09    -2.34793E+09     4.29985E+09     1.61789E+09     5.44356E+09    -17.6483E+06    -329.608E+06    -131.727E+06    -743.937E+06
            2075               1     5.47525E+09     7.22732E+09     7.22732E+09     2.67883E+09     1.15021E+09     6.07710E+09    -3.68545E+09     4.96003E+09     2.68416E+09     7.00388E+09     1.36832E+09    -388.976E+06    -120.129E+06    -1.06546E+09
            2076               1     5.34512E+09     7.63589E+09     7.63589E+09     2.81758E+09     1.88635E+09     5.74954E+09    -4.11327E+09     5.15785E+09     2.82981E+09     7.55855E+09     1.95146E+09    -300.316E+06     43.0388E+06     579.702E+06
            2077               1     6.10172E+09     8.75312E+09     8.75312E+09     3.17680E+09     2.23543E+09     6.51769E+09    -4.72178E+09     5.93504E+09     3.18920E+09     8.73641E+09     2.23974E+09    -266.548E+06     11.1840E+06     160.754E+06
            2078               1     5.99713E+09     8.60715E+09     8.60715E+09     3.12467E+09     2.20224E+09     6.40490E+09    -4.64469E+09     5.83432E+09     3.13705E+09     8.57872E+09     2.21829E+09    -283.457E+06    -31.0998E+06    -297.863E+06
            2079               1     2.13157E+09     2.19507E+09     2.19507E+09     249.095E+06    -83.0891E+06     2.27816E+09    -787.026E+06     2.07213E+09     256.114E+06     2.12369E+09    -18.7309E+06    -141.975E+06    -7.76691E+06    -367.988E+06
            2080               1     2.54734E+09     2.77966E+09     2.77966E+09     446.748E+06     61.7327E+06     2.71793E+09    -1.09605E+09     2.48061E+09     455.197E+06     2.71568E+09     117.265E+06    -143.285E+06     8.80182E+06    -382.641E+06
            2081               1     2.88041E+09     3.63305E+09     3.63305E+09     852.499E+06     662.215E+06     2.97083E+09    -1.71592E+09     2.86622E+09     839.678E+06     3.61871E+09     689.369E+06    -45.0135E+06    -52.2884E+06     199.271E+06
            2082               1     821.378E+06     1.01384E+09     1.01384E+09     301.237E+06     115.503E+06     898.342E+06    -476.862E+06     771.981E+06     277.300E+06     1.00608E+09     147.200E+06    -8.56185E+06    -63.6195E+06     80.4819E+06
            2083               1     2.14453E+09     2.43442E+09     2.43442E+09     349.182E+06     235.159E+06     2.19926E+09    -1.00625E+09     2.13769E+09     279.245E+06     2.42214E+09     317.382E+06     66.7599E+06    -59.6772E+06    -145.171E+06
            2084               1     2.74936E+09     3.48351E+09     3.48351E+09     797.804E+06     674.627E+06     2.80888E+09    -1.65198E+09     2.74315E+09     785.220E+06     3.47159E+09     699.133E+06     78.8474E+06    -45.0110E+06    -162.313E+06
            2085               1     2.86451E+09     3.30933E+09     3.30933E+09     666.927E+06     265.135E+06     3.04419E+09    -1.41380E+09     2.80006E+09     674.855E+06     3.26916E+09     297.375E+06     145.871E+06    -7.35124E+06    -310.490E+06
            2086               1     1.98557E+09     2.03153E+09     2.03153E+09     204.744E+06    -81.7109E+06     2.11324E+09    -718.187E+06     1.93826E+09     214.387E+06     2.00334E+09    -63.1627E+06     164.425E+06    -23.6448E+06     169.122E+06
            2087               1     2.79282E+09     3.39622E+09     3.39622E+09     760.031E+06     469.486E+06     2.92674E+09    -1.54191E+09     2.75851E+09     768.224E+06     3.35052E+09     506.993E+06     146.956E+06     12.1139E+06     328.397E+06
            2088               1     1.78316E+09     1.73741E+09     1.73741E+09    -16.4174E+06    -73.7057E+06     1.81111E+09    -549.095E+06     1.78109E+09    -7.74686E+06     1.71041E+09    -55.3759E+06    -141.905E+06    -851.034E+03     166.422E+06
            2089               1     2.63732E+09     2.95115E+09     2.95115E+09     512.883E+06     151.940E+06     2.79921E+09    -1.20532E+09     2.58088E+09     523.987E+06     2.87816E+09     213.822E+06    -170.629E+06    -8.33102E+06     408.008E+06
            2090               1     3.60083E+09     4.61382E+09     4.61382E+09     1.28811E+09     789.785E+06     3.82404E+09    -2.23057E+09     3.52200E+09     1.29239E+09     4.58162E+09     817.710E+06     134.007E+06     37.1204E+06     317.449E+06
            2091               1     1.93804E+09     2.00649E+09     2.00649E+09     213.300E+06    -49.5674E+06     2.05606E+09    -723.408E+06     1.89731E+09     226.773E+06     1.98477E+09    -41.3145E+06    -173.409E+06     20.2705E+06     101.420E+06
            2092               1     2.83590E+09     3.60335E+09     3.60335E+09     845.366E+06     695.484E+06     2.90786E+09    -1.71473E+09     2.82696E+09     827.717E+06     3.59520E+09     721.279E+06    -58.8242E+06     52.7986E+06    -139.877E+06
            2093               1     1.91983E+09     2.01934E+09     2.01934E+09     219.883E+06    -1.64317E+06     2.02099E+09    -745.861E+06     1.89076E+09     232.489E+06     1.99734E+09     7.75078E+06    -175.841E+06    -22.4567E+06    -99.3950E+06
            2094               1     3.54879E+09     4.68916E+09     4.68916E+09     1.31286E+09     989.953E+06     3.69921E+09    -2.33066E+09     3.51551E+09     1.31346E+09     4.68371E+09     994.810E+06     60.8326E+06     14.9752E+06     126.651E+06
            2095               1     3.37034E+09     3.63883E+09     3.63883E+09     771.044E+06    -73.4482E+06     3.71228E+09    -1.44548E+09     3.11869E+09     778.316E+06     3.56372E+09    -5.60990E+06     241.934E+06     68.6915E+06    -451.986E+06
            2096               1     3.72215E+09     4.97914E+09     4.97914E+09     1.45508E+09     1.08634E+09     3.89279E+09    -2.50686E+09     3.68072E+09     1.45287E+09     4.97430E+09     1.09339E+09    -32.8881E+06     31.6358E+06    -132.358E+06
            2097               1     2.96173E+09     3.05401E+09     3.05401E+09     548.868E+06    -214.769E+06     3.26877E+09    -1.12937E+09     2.72673E+09     555.395E+06     3.00719E+09    -174.485E+06    -212.394E+06    -68.1313E+06    -310.403E+06
            2098               1     852.825E+06     1.02644E+09     1.02644E+09     309.112E+06     83.4825E+06     942.953E+06    -473.010E+06     781.330E+06     286.964E+06     941.484E+06     190.582E+06     25.3724E+06    -82.8327E+06    -260.785E+06
            2099               1     814.088E+06     1.02607E+09     1.02607E+09     317.525E+06     136.813E+06     889.259E+06    -493.470E+06     766.987E+06     294.371E+06     1.01579E+09     170.247E+06    -6.23228E+06     61.6898E+06    -92.7426E+06
            2100               1     1.48295E+09     1.39771E+09     1.39771E+09     290.151E+06    -287.045E+06     1.68476E+09    -466.940E+06     1.18759E+09     286.549E+06     1.13344E+09    -19.1684E+06    -63.5533E+06     123.472E+06    -597.685E+06
            2101               1     2.18925E+09     1.83813E+09     1.83813E+09     278.741E+06    -664.655E+06     2.50278E+09    -484.071E+06     1.62760E+09     276.330E+06     1.66806E+09    -492.178E+06    -108.127E+06     152.659E+06    -602.975E+06
            2102               1     1.48787E+09     1.37731E+09     1.37731E+09     277.002E+06    -315.539E+06     1.69285E+09    -446.258E+06     1.17462E+09     273.241E+06     1.11535E+09    -49.8163E+06    -61.9143E+06    -123.327E+06     597.516E+06
            2103               1     1.57601E+09     1.64229E+09     1.64229E+09     331.457E+06    -106.339E+06     1.74863E+09    -622.468E+06     1.42931E+09     327.175E+06     1.58378E+09    -43.5564E+06    -83.1508E+06    -85.4667E+06     293.702E+06
            2104               1     5.31454E+09     8.44254E+09     8.44254E+09     3.67589E+09     2.71203E+09     5.73051E+09    -4.94349E+09     5.11231E+09     3.69380E+09     8.26743E+09     2.86923E+09    -426.049E+06    -63.6548E+06    -879.066E+06
            2105               1     2.30320E+09     1.94577E+09     1.94577E+09     310.796E+06    -688.267E+06     2.63404E+09    -522.767E+06     1.70212E+09     309.441E+06     1.78515E+09    -526.287E+06    -117.854E+06    -155.927E+06     600.186E+06
            2106               1     1.47254E+09     1.66009E+09     1.66009E+09     456.566E+06     18.1315E+06     1.64196E+09    -711.596E+06     1.31319E+09     456.640E+06     1.65383E+09     24.3139E+06     30.8391E+06     20.2150E+06     94.0335E+06
            2107               1     1.66070E+09     1.70436E+09     1.70436E+09     49.4482E+06     37.9285E+06     1.66643E+09    -597.245E+06     1.66061E+09     51.8579E+06     1.67705E+09     62.8242E+06     92.0631E+06    -5.77986E+06    -190.474E+06
            2108               1     2.49076E+09     2.53570E+09     2.53570E+09     436.319E+06    -216.440E+06     2.75214E+09    -918.527E+06     2.28614E+09     437.259E+06     2.49461E+09    -176.290E+06     114.732E+06     42.7078E+06    -309.573E+06
            2109               1     4.90073E+09     6.80897E+09     6.80897E+09     2.44641E+09     1.50628E+09     5.30269E+09    -3.58722E+09     4.69137E+09     2.44720E+09     6.80268E+09     1.51178E+09     68.5172E+06    -14.0028E+06     166.343E+06
            2110               1     3.40948E+09     3.62907E+09     3.62907E+09     866.578E+06    -181.372E+06     3.81044E+09    -1.43809E+09     3.01386E+09     868.589E+06     3.56586E+09    -120.175E+06     135.326E+06    -48.1280E+06     462.867E+06
            2111               1     4.13854E+09     4.89905E+09     4.89905E+09     1.51635E+09     284.421E+06     4.61463E+09    -2.23327E+09     3.69093E+09     1.51870E+09     4.81272E+09     368.403E+06     147.111E+06    -45.8957E+06     603.730E+06
            2112               1     2.05850E+09     2.03041E+09     2.03041E+09     377.897E+06    -275.486E+06     2.30590E+09    -710.941E+06     1.80205E+09     379.187E+06     2.02100E+09    -267.366E+06    -93.6349E+06    -56.6536E+06     93.8119E+06
            2113               1     2.11788E+09     2.47635E+09     2.47635E+09     410.775E+06     309.776E+06     2.16657E+09    -1.06563E+09     2.11245E+09     404.131E+06     2.45842E+09     334.347E+06    -28.5881E+06     28.5252E+06    -193.375E+06
            2114               1     5.02509E+09     9.01333E+09     9.01333E+09     4.17606E+09     3.81942E+09     5.19391E+09    -5.66960E+09     4.99650E+09     4.18121E+09     9.00816E+09     3.81944E+09    -157.781E+06    -1.12761E+06     9.16384E+06
            2115               1     3.70445E+09     5.04838E+09     5.04838E+09     1.63056E+09     1.11195E+09     3.93643E+09    -2.59697E+09     3.62143E+09     1.63235E+09     5.04375E+09     1.11480E+09    -78.1849E+06    -1.14229E+06     105.808E+06
            2116               1     2.99020E+09     3.68741E+09     3.68741E+09     1.00360E+09     464.248E+06     3.22316E+09    -1.71842E+09     2.87769E+09     1.00544E+09     3.62582E+09     524.002E+06    -105.553E+06     19.1606E+06     427.023E+06
            2117               1     2.08076E+09     2.14982E+09     2.14982E+09     404.544E+06    -152.878E+06     2.30270E+09    -800.497E+06     1.90160E+09     408.886E+06     2.14290E+09    -150.299E+06     105.890E+06    -32.0811E+06     35.1576E+06
            2118               1     4.42027E+09     4.00908E+09     4.00908E+09     820.642E+06    -1.03683E+09     5.04591E+09    -1.26430E+09     3.35694E+09     822.382E+06     3.99222E+09    -1.02170E+09     146.860E+06    -86.3725E+06     229.261E+06
            2119               1     6.12950E+09     8.55258E+09     8.55258E+09     3.23786E+09     1.84724E+09     6.70534E+09    -4.54589E+09     5.75831E+09     3.23837E+09     8.54924E+09     1.85007E+09     62.4418E+06    -15.9419E+06     132.457E+06
            2120               1     6.28315E+09     8.70979E+09     8.70979E+09     3.28576E+09     1.82490E+09     6.88490E+09    -4.60682E+09     5.88255E+09     3.28618E+09     8.70380E+09     1.83047E+09     57.8826E+06     15.0979E+06    -192.354E+06
            2121               1     4.88951E+09     6.80817E+09     6.80817E+09     2.45924E+09     1.51563E+09     5.29254E+09    -3.59434E+09     4.67802E+09     2.45986E+09     6.80645E+09     1.51673E+09     63.5299E+06     16.2282E+06    -64.9083E+06
            2122               1     1.47203E+09     1.70284E+09     1.70284E+09     467.793E+06     73.9516E+06     1.62889E+09    -748.195E+06     1.34563E+09     468.296E+06     1.69309E+09     83.1968E+06    -34.3744E+06     16.8423E+06    -118.852E+06
            2123               1     3.02803E+09     2.57745E+09     2.57745E+09     399.794E+06    -880.417E+06     3.45786E+09    -698.941E+06     2.28825E+09     400.059E+06     2.55572E+09    -858.957E+06    -106.693E+06     91.7975E+06    -233.464E+06
            2124               1     2.10786E+09     2.05561E+09     2.05561E+09     380.771E+06    -311.281E+06     2.36689E+09    -708.365E+06     1.82469E+09     382.009E+06     2.04518E+09    -302.092E+06    -93.0599E+06     58.3384E+06    -107.992E+06
            2125               1     2.13256E+09     2.49131E+09     2.49131E+09     414.313E+06     307.216E+06     2.18409E+09    -1.07095E+09     2.12650E+09     407.460E+06     2.48031E+09     325.072E+06    -35.8731E+06    -29.9453E+06     149.454E+06
            2126               1     6.78956E+09     9.42951E+09     9.42951E+09     3.52914E+09     2.00860E+09     7.42090E+09    -4.98908E+09     6.38940E+09     3.53121E+09     9.42566E+09     2.01038E+09    -110.868E+06    -2.19713E+06    -114.404E+06
            2127               1     3.15139E+09     3.84959E+09     3.84959E+09     1.03636E+09     444.084E+06     3.40551E+09    -1.77668E+09     3.02235E+09     1.03949E+09     3.78535E+09     505.200E+06    -112.637E+06    -11.6161E+06    -447.411E+06
            2128               1     3.86176E+09     5.09250E+09     5.09250E+09     1.69425E+09     892.960E+06     4.19954E+09    -2.55990E+09     3.66766E+09     1.69619E+09     5.05429E+09     929.228E+06    -113.394E+06    -26.2114E+06    -379.439E+06
            2129               1     4.03450E+09     4.15739E+09     4.15739E+09     1.02399E+09    -394.866E+06     4.55226E+09    -1.59551E+09     3.40109E+09     1.02641E+09     4.11384E+09    -353.737E+06    -146.638E+06    -61.2055E+06    -409.588E+06
            2130               1     1.32792E+09     1.45636E+09     1.45636E+09     386.317E+06    -29.7843E+06     1.48615E+09    -604.298E+06     1.16714E+09     385.898E+06     1.40715E+09     19.8512E+06    -27.9877E+06    -29.9117E+06     263.051E+06
            2131               1     1.28899E+09     1.44549E+09     1.44549E+09     388.021E+06     9.66090E+06     1.43583E+09    -614.389E+06     1.15377E+09     387.357E+06     1.44548E+09     10.3321E+06    -506.467E+03    -15.8310E+06    -3.28347E+06
            2132               1     2.00336E+09     2.16710E+09     2.16710E+09     513.891E+06    -60.7929E+06     2.22789E+09    -873.400E+06     1.80345E+09     516.920E+06     2.15932E+09    -56.0364E+06    -75.9792E+06     21.0647E+06    -96.6577E+06
            2133               1     1.31658E+09     1.44929E+09     1.44929E+09     376.756E+06    -20.0552E+06     1.46934E+09    -601.996E+06     1.17025E+09     376.119E+06     1.44919E+09    -19.3173E+06    -633.366E+03     15.8821E+06     12.1674E+06
            2134               1     758.470E+06     908.668E+06     908.668E+06     251.309E+06     78.8035E+06     829.865E+06    -412.927E+06     712.298E+06     243.676E+06     787.786E+06     207.319E+06    -13.8342E+06     47.4131E+06    -289.136E+06
            2135               1     1.87024E+09     2.04295E+09     2.04295E+09     511.368E+06    -41.3607E+06     2.08431E+09    -837.651E+06     1.67111E+09     513.702E+06     2.02951E+09    -30.2548E+06     69.5682E+06     28.4042E+06     144.644E+06
            2136               1     1.40621E+09     1.41355E+09     1.41355E+09     310.507E+06    -169.910E+06     1.58346E+09    -518.051E+06     1.19957E+09     310.817E+06     1.20605E+09     37.2840E+06     42.1518E+06     56.2676E+06     529.612E+06
            2137               1     3.15555E+09     2.79721E+09     2.79721E+09     489.858E+06    -798.718E+06     3.59593E+09    -829.451E+06     2.44899E+09     490.498E+06     2.78819E+09    -790.333E+06     113.630E+06     85.2622E+06     106.628E+06
            2138               1     4.50201E+09     3.96792E+09     3.96792E+09     758.527E+06    -1.17838E+09     5.14629E+09    -1.18269E+09     3.35180E+09     760.127E+06     3.95904E+09    -1.17110E+09     141.665E+06     89.7326E+06    -120.031E+06
            2139               1     2.29406E+09     2.56549E+09     2.56549E+09     413.031E+06     152.131E+06     2.41336E+09    -1.04355E+09     2.26032E+09     416.743E+06     2.49845E+09     215.460E+06     91.3191E+06    -8.08738E+06    -384.917E+06
            2140               1     1.49301E+09     1.46397E+09     1.46397E+09     64.7268E+06    -107.827E+06     1.57179E+09    -473.622E+06     1.47033E+09    -106.230E+06     1.46072E+09     66.3775E+06     34.2291E+06    -13.3754E+06    -58.8337E+06
            2141               1     1.46940E+09     1.44222E+09     1.44222E+09     73.5229E+06    -110.556E+06     1.55277E+09    -468.394E+06     1.44312E+09    -108.627E+06     1.43710E+09     76.7126E+06     33.7155E+06     16.4780E+06     77.0203E+06
            2142               1     1.69141E+09     1.72716E+09     1.72716E+09     46.3127E+06     25.3831E+06     1.70177E+09    -599.617E+06     1.69111E+09     51.0288E+06     1.69581E+09     52.0117E+06     92.4218E+06     8.61846E+06     209.212E+06
            2143               1     5.26699E+09     5.48270E+09     5.48270E+09     1.50140E+09    -489.549E+06     5.97225E+09    -2.16485E+09     4.28867E+09     1.50269E+09     5.38943E+09    -397.567E+06     160.641E+06    -74.5586E+06     717.315E+06
            2144               1     4.64543E+09     6.13939E+09     6.13939E+09     2.16379E+09     1.03294E+09     5.10645E+09    -3.11204E+09     4.31915E+09     2.16709E+09     6.08970E+09     1.07933E+09     140.039E+06    -27.0370E+06     476.774E+06
            2145               1     6.78224E+09     9.49728E+09     9.49728E+09     3.66445E+09     2.05512E+09     7.44216E+09    -5.07228E+09     6.33090E+09     3.66494E+09     9.49670E+09     2.05521E+09     53.2331E+06     230.267E+03     25.8453E+06
            2146               1     5.45287E+09     7.25215E+09     7.25215E+09     2.68457E+09     1.21513E+09     6.03701E+09    -3.71728E+09     4.97737E+09     2.68786E+09     7.10140E+09     1.36259E+09     177.909E+06     39.5376E+06    -921.832E+06
            2147               1     3.62800E+09     5.02391E+09     5.02391E+09     1.66415E+09     1.17692E+09     3.84699E+09    -2.62166E+09     3.55327E+09     1.66526E+09     5.01071E+09     1.18901E+09     61.1667E+06    -2.37038E+06    -215.288E+06
            2148               1     4.37073E+09     5.27799E+09     5.27799E+09     1.64799E+09     426.441E+06     4.85155E+09    -2.45081E+09     3.95850E+09     1.65059E+09     5.20810E+09     493.736E+06     144.654E+06     41.2098E+06    -555.508E+06
            2149               1     1.49554E+09     1.49159E+09     1.49159E+09     86.4867E+06    -80.3952E+06     1.57199E+09    -499.228E+06     1.47438E+09    -78.3903E+06     1.48491E+09     91.1648E+06    -37.7632E+06     15.6530E+06    -89.5460E+06
            2150               1     2.55724E+09     2.50188E+09     2.50188E+09     451.500E+06    -363.535E+06     2.86542E+09    -863.283E+06     2.23573E+09     451.628E+06     2.47416E+09    -335.941E+06    -115.222E+06    -58.3920E+06    -248.754E+06
            2151               1     2.02705E+09     2.17282E+09     2.17282E+09     412.351E+06    -43.2594E+06     2.21608E+09    -847.303E+06     1.90667E+09     417.516E+06     2.16490E+09    -40.5096E+06    -107.430E+06    -21.9900E+06    -55.7990E+06
            2152               1     1.91406E+09     2.10164E+09     2.10164E+09     507.811E+06    -21.3296E+06     2.12297E+09    -862.706E+06     1.73773E+09     510.715E+06     2.09406E+09    -16.6570E+06    -73.5140E+06    -20.6434E+06     93.1336E+06
            2153               1     1.48743E+09     1.68406E+09     1.68406E+09     447.233E+06     33.5801E+06     1.65048E+09    -721.624E+06     1.34864E+09     447.705E+06     1.67629E+09     40.8789E+06    -34.0612E+06    -16.9282E+06     105.481E+06
            2154               1     1.48194E+09     1.65775E+09     1.65775E+09     449.537E+06     4.21385E+06     1.65354E+09    -703.835E+06     1.31831E+09     449.661E+06     1.65067E+09     11.1744E+06     30.7179E+06    -19.7814E+06    -101.369E+06
            2155               1     2.15458E+09     1.95919E+09     1.95919E+09     339.389E+06    -486.076E+06     2.44526E+09    -604.166E+06     1.74138E+09     340.207E+06     1.88673E+09    -414.442E+06     80.1383E+06    -74.1149E+06    -399.227E+06
            2156               1     2.27776E+09     2.54629E+09     2.54629E+09     404.475E+06     153.387E+06     2.39290E+09    -1.03472E+09     2.24631E+09     407.983E+06     2.48246E+09     213.711E+06     90.9215E+06     5.33841E+06     373.770E+06
            2157               1     5.00947E+09     6.86134E+09     6.86134E+09     2.55883E+09     1.36179E+09     5.49955E+09    -3.59399E+09     4.67114E+09     2.56091E+09     6.82787E+09     1.39318E+09    -120.084E+06    -28.0832E+06    -406.588E+06
            2158               1     4.95019E+09     6.85421E+09     6.85421E+09     2.41588E+09     1.51570E+09     5.33851E+09    -3.59526E+09     4.76079E+09     2.41773E+09     6.85054E+09     1.51752E+09    -92.6112E+06    -6.99255E+06    -96.3502E+06
            2159               1     6.38087E+09     8.72674E+09     8.72674E+09     3.18639E+09     1.75014E+09     6.97659E+09    -4.55442E+09     6.00080E+09     3.18826E+09     8.72477E+09     1.75024E+09    -104.386E+06    -11.7223E+06    -34.7466E+03
            2160               1     6.49441E+09     9.00584E+09     9.00584E+09     3.35360E+09     1.91164E+09     7.09420E+09    -4.75703E+09     6.11849E+09     3.35532E+09     9.00136E+09     1.91440E+09    -99.1034E+06     3.03910E+06     139.363E+06
            2161               1     5.06372E+09     6.90206E+09     6.90206E+09     2.43319E+09     1.40217E+09     5.49989E+09    -3.57914E+09     4.81900E+09     2.43400E+09     6.89861E+09     1.40481E+09    -71.5634E+06     16.8711E+06     112.838E+06
            2162               1     5.51568E+09     8.67328E+09     8.67328E+09     3.69229E+09     2.74549E+09     5.92779E+09    -5.03702E+09     5.32824E+09     3.69521E+09     8.54414E+09     2.87172E+09    -163.603E+06     21.5692E+06     848.076E+06
            2163               1     3.21096E+09     3.12559E+09     3.12559E+09     622.602E+06    -494.785E+06     3.62037E+09    -1.08447E+09     2.71888E+09     624.426E+06     3.10681E+09    -477.829E+06    -126.833E+06     61.2182E+06     214.002E+06
            2164               1     2.23469E+09     2.32709E+09     2.32709E+09     336.665E+06    -90.2650E+06     2.41736E+09    -857.831E+06     2.14003E+09     337.730E+06     2.25723E+09    -21.4681E+06    -105.417E+06     24.0377E+06     389.781E+06
            2165               1     2.19558E+09     2.22302E+09     2.22302E+09     368.355E+06    -201.230E+06     2.42425E+09    -796.714E+06     2.01908E+09     368.913E+06     2.18021E+09    -158.981E+06    -112.601E+06     42.5275E+06     295.228E+06
            2166               1     1.50525E+09     1.51750E+09     1.51750E+09     106.971E+06    -67.3044E+06     1.58481E+09    -519.056E+06     1.48230E+09    -65.2995E+06     1.50963E+09     112.837E+06    -39.7664E+06    -15.6748E+06     97.8478E+06
            2167               1     5.30445E+09     9.02492E+09     9.02492E+09     4.07932E+09     3.42275E+09     5.60217E+09    -5.50899E+09     5.21185E+09     4.08569E+09     9.01854E+09     3.42275E+09     177.458E+06     491.588E+03     3.50263E+06
            2168               1     4.91930E+09     5.01328E+09     5.01328E+09     1.32496E+09    -572.101E+06     5.58538E+09    -1.92205E+09     3.96103E+09     1.32653E+09     4.95893E+09    -519.315E+06     154.660E+06     76.0665E+06    -517.711E+06
            2169               1     1.58992E+09     1.66594E+09     1.66594E+09     384.736E+06    -113.417E+06     1.77935E+09    -645.752E+06     1.39746E+09     386.196E+06     1.60713E+09    -56.0762E+06    -58.6920E+06     41.3682E+06    -308.820E+06
            2170               1     5.25654E+09     5.54713E+09     5.54713E+09     1.54080E+09    -404.856E+06     5.95199E+09    -2.22769E+09     4.32735E+09     1.54261E+09     5.44006E+09    -299.595E+06    -168.343E+06     71.1203E+06     767.522E+06
            2171               1     6.28225E+09     9.30145E+09     9.30145E+09     3.87975E+09     2.41681E+09     6.88464E+09    -5.19934E+09     5.88039E+09     3.88200E+09     9.29907E+09     2.41693E+09    -110.555E+06    -1.42025E+06    -29.1430E+06
            2172               1     4.24505E+09     3.81331E+09     3.81331E+09     762.661E+06    -1.03475E+09     4.84806E+09    -1.18041E+09     3.20402E+09     764.137E+06     3.80309E+09    -1.02600E+09    -142.635E+06    -90.4057E+06    -135.304E+06
            2173               1     747.813E+06     899.109E+06     899.109E+06     249.498E+06     81.6286E+06     817.480E+06    -410.078E+06     703.521E+06     242.379E+06     781.835E+06     206.021E+06    -14.9723E+06    -46.1931E+06     282.962E+06
            2174               1     1.85877E+09     2.03075E+09     2.03075E+09     509.089E+06    -40.9620E+06     2.07172E+09    -832.960E+06     1.66030E+09     511.309E+06     2.01860E+09    -31.0260E+06     69.0703E+06    -28.9656E+06    -135.008E+06
            2175               1     3.14142E+09     2.73783E+09     2.73783E+09     451.485E+06    -844.188E+06     3.58202E+09    -781.710E+06     2.42035E+09     452.301E+06     2.72619E+09    -833.358E+06     111.935E+06    -85.0112E+06    -144.139E+06
            2176               1     2.14033E+09     1.92294E+09     1.92294E+09     319.182E+06    -507.426E+06     2.43037E+09    -578.232E+06     1.72192E+09     319.822E+06     1.84957E+09    -434.698E+06     78.1387E+06     74.1108E+06     401.059E+06
            2177               1     2.09853E+09     2.15672E+09     2.15672E+09     403.551E+06    -168.521E+06     2.32525E+09    -797.251E+06     1.91095E+09     407.918E+06     2.14937E+09    -165.534E+06     107.263E+06     32.8751E+06    -44.4398E+06
            2178               1     5.42732E+09     8.56587E+09     8.56587E+09     3.68029E+09     2.72395E+09     5.84192E+09    -4.99003E+09     5.23269E+09     3.68473E+09     8.46200E+09     2.82337E+09     178.482E+06     18.5500E+06    -748.309E+06
            2179               1     5.60153E+09     7.25294E+09     7.25294E+09     2.64083E+09     1.01962E+09     6.23332E+09    -3.63780E+09     5.03168E+09     2.64233E+09     7.08821E+09     1.18286E+09     162.533E+06    -50.3451E+06     984.156E+06
            2180               1     2.68045E+09     3.46145E+09     3.46145E+09     906.546E+06     670.992E+06     2.79045E+09    -1.67966E+09     2.65702E+09     903.275E+06     3.45718E+09     678.525E+06     16.1769E+06     28.6899E+06     107.409E+06
            2181               1     870.721E+06     1.05568E+09     1.05568E+09     312.869E+06     97.4828E+06     958.200E+06    -488.678E+06     807.455E+06     308.720E+06     967.796E+06     189.519E+06     16.0696E+06     39.6211E+06     274.177E+06
            2182               1     2.04259E+09     2.23156E+09     2.23156E+09     447.787E+06     3.34264E+06     2.22822E+09    -894.231E+06     1.92925E+09     453.239E+06     2.22364E+09     5.81829E+06    -107.850E+06     18.6252E+06     56.6958E+06
            2183               1     5.52307E+09     8.53433E+09     8.53433E+09     3.61119E+09     2.56186E+09     5.97247E+09    -4.90246E+09     5.29179E+09     3.61570E+09     8.43169E+09     2.65999E+09     179.991E+06    -20.5134E+06     751.913E+06
            2184               1     1.34236E+09     1.47933E+09     1.47933E+09     403.148E+06    -24.8400E+06     1.50417E+09    -619.212E+06     1.17345E+09     402.527E+06     1.43254E+09     22.5695E+06    -27.6487E+06     31.5758E+06    -258.193E+06
            2185               1     1.42672E+09     1.41899E+09     1.41899E+09     307.530E+06    -189.833E+06     1.60883E+09    -512.230E+06     1.20718E+09     307.930E+06     1.21254E+09     16.2165E+06     41.3032E+06    -54.3509E+06    -533.613E+06
            2186               1     4.29936E+09     4.19243E+09     4.19243E+09     967.483E+06    -688.726E+06     4.88116E+09    -1.49040E+09     3.46400E+09     970.041E+06     4.15432E+09    -653.171E+06    -156.585E+06     73.4924E+06     387.963E+06
            2187               1     1.97940E+09     2.02419E+09     2.02419E+09     242.461E+06    -106.466E+06     2.13066E+09    -720.062E+06     1.90836E+09     247.398E+06     1.99806E+09    -85.2684E+06     115.364E+06     17.3278E+06    -199.435E+06
            2188               1     2.11025E+09     2.47820E+09     2.47820E+09     409.479E+06     328.735E+06     2.14946E+09    -1.07214E+09     2.10677E+09     399.041E+06     2.46558E+09     351.794E+06     21.5232E+06     29.1058E+06     162.051E+06
            2189               1     2.55954E+09     2.60753E+09     2.60753E+09     457.737E+06    -223.795E+06     2.83132E+09    -947.156E+06     2.34200E+09     458.675E+06     2.55336E+09    -170.562E+06     115.890E+06    -41.2604E+06     367.037E+06
            2190               1     1.71500E+09     1.67355E+09     1.67355E+09    -5.43280E+06    -75.3247E+06     1.74888E+09    -530.932E+06     1.71179E+09     54.3494E+03     1.65435E+09    -61.6087E+06    -95.4562E+06     9.28778E+06    -153.977E+06
            2191               1     3.24360E+09     2.70455E+09     2.70455E+09     414.365E+06    -1.00711E+09     3.71166E+09    -703.932E+06     2.37412E+09     414.848E+06     2.66278E+09    -965.830E+06    -105.973E+06    -97.6788E+06     363.096E+06
            2192               1     3.95406E+09     5.12244E+09     5.12244E+09     1.70436E+09     791.920E+06     4.33052E+09    -2.53957E+09     3.70592E+09     1.70690E+09     5.07175E+09     840.071E+06    -126.988E+06     28.7505E+06     444.762E+06
            2193               1     5.43443E+09     6.84355E+09     6.84355E+09     2.40640E+09     782.219E+06     6.06133E+09    -3.34406E+09     4.84148E+09     2.40823E+09     6.70792E+09     916.032E+06    -157.396E+06     48.8892E+06     879.690E+06
            2194               1     5.13338E+09     5.63978E+09     5.63978E+09     1.65382E+09    -152.624E+06     5.79241E+09    -2.38033E+09     4.32628E+09     1.65627E+09     5.52793E+09    -43.2246E+06    -168.872E+06    -61.6287E+06    -773.882E+06
            2195               1     5.55842E+09     7.33330E+09     7.33330E+09     2.69605E+09     1.17176E+09     6.16154E+09    -3.73370E+09     5.05518E+09     2.69804E+09     7.13067E+09     1.37239E+09    -173.875E+06    -45.0703E+06    -1.08284E+09
            2196               1     5.28484E+09     7.67399E+09     7.67399E+09     3.05067E+09     1.91296E+09     5.76103E+09    -4.21254E+09     4.99804E+09     3.05337E+09     7.59947E+09     1.98477E+09    -146.148E+06     27.6288E+06     631.454E+06
            2197               1     5.79781E+09     8.58345E+09     8.58345E+09     3.53968E+09     2.24909E+09     6.33435E+09    -4.79074E+09     5.46041E+09     3.54136E+09     8.57543E+09     2.25542E+09    -99.5905E+06     15.3486E+06     195.919E+06
            2198               1     5.72248E+09     8.46784E+09     8.46784E+09     3.47814E+09     2.22147E+09     6.24637E+09    -4.72249E+09     5.39876E+09     3.48017E+09     8.44613E+09     2.24115E+09    -113.077E+06    -18.4081E+06    -345.668E+06
            2199               1     2.13750E+09     2.22935E+09     2.22935E+09     290.105E+06    -62.5375E+06     2.29189E+09    -818.973E+06     2.07053E+09     291.544E+06     2.15730E+09     8.07576E+06    -103.666E+06    -18.1134E+06    -385.309E+06
            2200               1     2.55188E+09     2.82195E+09     2.82195E+09     514.947E+06     80.8607E+06     2.74109E+09    -1.13925E+09     2.46676E+09     518.167E+06     2.75721E+09     142.376E+06    -103.738E+06    -7.92448E+06    -401.534E+06
            2201               1     2.82595E+09     3.65508E+09     3.65508E+09     969.254E+06     707.257E+06     2.94783E+09    -1.77720E+09     2.79843E+09     968.587E+06     3.64418E+09     718.824E+06    -52.6458E+06    -24.4374E+06     169.733E+06
            2202               1     825.847E+06     1.03517E+09     1.03517E+09     320.860E+06     130.899E+06     904.276E+06    -495.645E+06     774.368E+06     315.518E+06     1.02730E+09     144.117E+06    -4.45647E+06    -32.1808E+06     83.3558E+06
            2203               1     2.08907E+09     2.42606E+09     2.42606E+09     387.073E+06     290.272E+06     2.13578E+09    -1.03447E+09     2.08401E+09     379.149E+06     2.41122E+09     313.027E+06     18.3463E+06    -28.4721E+06    -175.773E+06
            2204               1     2.68342E+09     3.49481E+09     3.49481E+09     927.832E+06     708.424E+06     2.78638E+09    -1.71035E+09     2.66312E+09     926.934E+06     3.48320E+09     720.934E+06     32.6851E+06     -19.226E+06    -175.986E+06
            2205               1     2.86382E+09     3.35643E+09     3.35643E+09     787.801E+06     268.483E+06     3.08794E+09    -1.47090E+09     2.75488E+09     790.700E+06     3.31518E+09     306.825E+06     111.931E+06     18.0905E+06    -333.764E+06
            2206               1     1.98754E+09     2.04000E+09     2.04000E+09     246.427E+06    -96.7945E+06     2.13680E+09    -729.879E+06     1.91916E+09     251.302E+06     2.01662E+09    -78.2808E+06     114.987E+06    -17.8494E+06     185.217E+06
            2207               1     2.80068E+09     3.44324E+09     3.44324E+09     851.857E+06     472.023E+06     2.97122E+09    -1.58904E+09     2.74184E+09     855.672E+06     3.39765E+09     513.802E+06     101.076E+06     5.11886E+06     349.082E+06
            2208               1     1.75250E+09     1.74014E+09     1.74014E+09     25.8065E+06    -48.1674E+06     1.78831E+09    -572.595E+06     1.74898E+09     30.5076E+06     1.71743E+09    -30.1531E+06    -93.8720E+06    -3.62949E+06     176.120E+06
            2209               1     2.66945E+09     2.99163E+09     2.99163E+09     596.107E+06     113.971E+06     2.87766E+09    -1.23390E+09     2.56874E+09     599.503E+06     2.91326E+09     188.943E+06    -101.515E+06     2.88727E+06     455.720E+06
            2210               1     3.59244E+09     4.72601E+09     4.72601E+09     1.45141E+09     883.405E+06     3.84261E+09    -2.35361E+09     3.48926E+09     1.45383E+09     4.69998E+09     907.023E+06     125.576E+06    -26.2221E+06     285.639E+06
            2211               1     1.91867E+09     2.04118E+09     2.04118E+09     258.108E+06     10.8772E+06     2.03030E+09    -770.054E+06     1.88233E+09     265.063E+06     2.02838E+09     16.7173E+06    -120.273E+06     10.6839E+06     97.7529E+06
            2212               1     2.77414E+09     3.61778E+09     3.61778E+09     973.778E+06     729.649E+06     2.88813E+09    -1.77374E+09     2.74981E+09     971.978E+06     3.61019E+09     739.039E+06    -39.4209E+06     26.1814E+06    -141.585E+06
            2213               1     1.90604E+09     2.03654E+09     2.03654E+09     264.965E+06     19.7715E+06     2.01677E+09    -773.759E+06     1.87006E+09     271.591E+06     2.02224E+09     27.4483E+06    -120.956E+06    -12.7609E+06    -110.785E+06
            2214               1     3.49170E+09     4.72368E+09     4.72368E+09     1.48171E+09     1.02684E+09     3.69685E+09    -2.41074E+09     3.42409E+09     1.48192E+09     4.71976E+09     1.03055E+09     26.0426E+06     951.276E+03     117.167E+06
            2215               1     3.39374E+09     3.61660E+09     3.61660E+09     887.585E+06    -183.432E+06     3.80004E+09    -1.44025E+09     2.97630E+09     888.824E+06     3.53029E+09    -98.3588E+06     135.298E+06     51.0893E+06    -546.262E+06
            2216               1     3.68852E+09     5.04202E+09     5.04202E+09     1.62369E+09     1.13253E+09     3.90949E+09    -2.59941E+09     3.61385E+09     1.62495E+09     5.03774E+09     1.13555E+09    -68.1809E+06     9.13899E+06    -106.698E+06
            2217               1     2.96996E+09     3.04810E+09     3.04810E+09     645.884E+06    -272.604E+06     3.32071E+09    -1.14046E+09     2.62065E+09     647.091E+06     2.99860E+09    -224.313E+06    -123.996E+06    -50.5042E+06    -378.077E+06
            2218               1     849.644E+06     1.04481E+09     1.04481E+09     312.033E+06     113.466E+06     931.343E+06    -490.102E+06     794.883E+06     307.348E+06     960.538E+06     202.421E+06     16.1496E+06    -39.8643E+06    -264.663E+06
            2219               1     823.995E+06     1.04219E+09     1.04219E+09     321.736E+06     143.744E+06     898.445E+06    -502.556E+06     778.961E+06     316.314E+06     1.03089E+09     160.464E+06    -5.21765E+06     31.6603E+06    -99.3369E+06
            2220               1     1.47935E+09     1.41223E+09     1.41223E+09     283.609E+06    -262.544E+06     1.67477E+09    -477.765E+06     1.21942E+09     283.073E+06     1.14740E+09     2.82274E+06    -39.1666E+06     67.8912E+06    -606.138E+06
            2221               1     2.18306E+09     1.84728E+09     1.84728E+09     270.466E+06    -644.356E+06     2.49163E+09    -491.129E+06     1.66157E+09     270.272E+06     1.68488E+09    -481.766E+06    -68.3443E+06     88.6755E+06    -604.874E+06
            2222               1     1.48350E+09     1.39103E+09     1.39103E+09     267.133E+06    -290.488E+06     1.68151E+09    -455.890E+06     1.21159E+09     266.417E+06     1.12901E+09    -27.7592E+06    -37.8325E+06    -67.9106E+06     605.058E+06
            2223               1     1.58412E+09     1.65093E+09     1.65093E+09     383.127E+06    -124.876E+06     1.77580E+09    -636.392E+06     1.38220E+09     384.139E+06     1.59956E+09    -74.5219E+06    -57.7776E+06    -43.8514E+06     287.842E+06
            2224               1     5.42709E+09     8.58518E+09     8.58518E+09     3.66868E+09     2.76176E+09     5.82341E+09    -5.00521E+09     5.25253E+09     3.67142E+09     8.44111E+09     2.90309E+09    -164.346E+06    -21.5297E+06    -888.055E+06
            2225               1     2.30070E+09     1.95843E+09     1.95843E+09     304.794E+06    -669.034E+06     2.62747E+09    -531.398E+06     1.73696E+09     304.686E+06     1.80628E+09    -516.772E+06    -71.3966E+06    -89.7144E+06     602.968E+06
            2226               1     1.47118E+09     1.69281E+09     1.69281E+09     472.292E+06     59.2656E+06     1.63354E+09    -741.456E+06     1.33107E+09     472.449E+06     1.68694E+09     64.9732E+06     15.7545E+06     5.67804E+06     95.9234E+06
            2227               1     1.63247E+09     1.70392E+09     1.70392E+09     80.0109E+06     63.0197E+06     1.64090E+09    -615.650E+06     1.63227E+09     79.3250E+06     1.67935E+09     88.2727E+06     45.4162E+06    -16.3793E+03    -194.011E+06
            2228               1     2.52382E+09     2.54314E+09     2.54314E+09     447.598E+06    -258.531E+06     2.80167E+09    -910.736E+06     2.28522E+09     448.014E+06     2.50330E+09    -219.105E+06     56.2390E+06     19.4738E+06    -325.911E+06
            2229               1     4.85325E+09     6.80884E+09     6.80884E+09     2.56522E+09     1.51720E+09     5.29164E+09    -3.63042E+09     4.58818E+09     2.56525E+09     6.80339E+09     1.52261E+09     19.1353E+06    -6.63567E+06     168.409E+06
            2230               1     3.42411E+09     3.66019E+09     3.66019E+09     879.130E+06    -164.228E+06     3.82442E+09    -1.45836E+09     3.03431E+09     879.588E+06     3.60170E+09    -106.191E+06     63.6539E+06    -22.2645E+06     463.992E+06
            2231               1     4.21799E+09     5.01271E+09     5.01271E+09     1.52249E+09     325.629E+06     4.68708E+09    -2.28694E+09     3.80692E+09     1.52319E+09     4.93750E+09     400.151E+06     75.8886E+06    -21.8303E+06     582.991E+06
            2232               1     2.06107E+09     2.05855E+09     2.05855E+09     396.917E+06    -247.816E+06     2.30636E+09    -735.882E+06     1.81245E+09     397.152E+06     2.05302E+09    -242.528E+06    -45.2078E+06    -28.0841E+06     98.6162E+06
            2233               1     2.09473E+09     2.47924E+09     2.47924E+09     452.665E+06     322.419E+06     2.15682E+09    -1.08477E+09     2.08559E+09     452.505E+06     2.46198E+09     339.833E+06    -23.8927E+06     9.88865E+06    -190.436E+06
            2234               1     4.88968E+09     9.02061E+09     9.02061E+09     4.41383E+09     3.89019E+09     5.13042E+09    -5.77488E+09     4.82599E+09     4.41584E+09     9.01858E+09     3.89020E+09    -96.4619E+06    -1.92237E+06     7.18650E+06
            2235               1     3.64003E+09     5.03299E+09     5.03299E+09     1.75428E+09     1.11606E+09     3.91693E+09    -2.63444E+09     3.51082E+09     1.75430E+09     5.02882E+09     1.12020E+09    -10.8265E+06     2.67555E+06     127.129E+06
            2236               1     3.00732E+09     3.69255E+09     3.69255E+09     1.04962E+09     420.411E+06     3.27214E+09    -1.72086E+09     2.85352E+09     1.05043E+09     3.62874E+09     483.411E+06    -51.6423E+06     2.92437E+06     448.999E+06
            2237               1     2.07888E+09     2.17579E+09     2.17579E+09     428.591E+06    -123.370E+06     2.29916E+09    -827.003E+06     1.90327E+09     429.787E+06      2.1736E+09    -122.378E+06     52.7433E+06    -13.6911E+06     37.3990E+06
            2238               1     4.45297E+09     4.04412E+09     4.04412E+09     874.690E+06    -1.04702E+09     5.09114E+09    -1.29060E+09     3.30621E+09     874.872E+06     4.03005E+09    -1.03313E+09     74.5082E+06    -49.2161E+06     251.221E+06
            2239               1     6.09970E+09     8.56757E+09     8.56757E+09     3.34829E+09     1.86213E+09     6.70544E+09    -4.59266E+09     5.67048E+09     3.34845E+09     8.56497E+09     1.86457E+09     31.3545E+06    -5.78897E+06     127.305E+06
            2240               1     6.25032E+09     8.72216E+09     8.72216E+09     3.39612E+09     1.84114E+09     6.88102E+09    -4.65314E+09     5.79065E+09     3.39625E+09     8.71699E+09     1.84617E+09     28.7420E+06     5.56337E+06    -185.610E+06
            2241               1     4.84873E+09     6.81076E+09     6.81076E+09     2.57441E+09     1.52237E+09     5.28839E+09    -3.63585E+09     4.58127E+09     2.57451E+09     6.80990E+09     1.52314E+09     24.2650E+06     6.34687E+06    -61.8715E+06
            2242               1     1.49657E+09     1.71257E+09     1.71257E+09     486.119E+06     45.0211E+06     1.66754E+09    -747.902E+06     1.33817E+09     486.395E+06     1.70387E+09     53.4433E+06    -18.4947E+06     3.29367E+06    -118.137E+06
            2243               1     3.04264E+09     2.58040E+09     2.58040E+09     404.605E+06    -896.450E+06     3.47685E+09    -696.186E+06     2.27744E+09     404.749E+06     2.56449E+09    -880.677E+06    -55.6491E+06     46.8069E+06    -222.742E+06
            2244               1     2.11850E+09     2.08510E+09     2.08510E+09     386.918E+06    -288.851E+06     2.37395E+09    -727.721E+06     1.85165E+09     387.347E+06     2.07779E+09    -281.970E+06    -45.8832E+06     26.7354E+06    -119.139E+06
            2245               1     2.10327E+09     2.49257E+09     2.49257E+09     459.561E+06     325.463E+06     2.16711E+09    -1.09253E+09     2.09362E+09     459.332E+06     2.48180E+09     336.468E+06    -20.0401E+06    -9.07801E+06     150.930E+06
            2246               1     6.64686E+09     9.36351E+09     9.36351E+09     3.73390E+09     2.03081E+09     7.33270E+09    -5.04274E+09     6.12646E+09     3.73394E+09     9.36153E+09     2.03275E+09     16.2722E+06    -1.64361E+06    -119.156E+06
            2247               1     3.13732E+09     3.85395E+09     3.85395E+09     1.10798E+09     434.617E+06     3.41933E+09    -1.79885E+09     2.96813E+09     1.10863E+09     3.78861E+09     499.306E+06    -49.2761E+06    -4.74466E+06    -465.078E+06
            2248               1     3.88029E+09     5.13088E+09     5.13088E+09     1.74113E+09     898.519E+06     4.23236E+09    -2.59018E+09     3.66588E+09     1.74188E+09     5.09636E+09     932.291E+06    -57.2437E+06    -7.41593E+06    -375.484E+06
            2249               1     4.06157E+09     4.19117E+09     4.19117E+09     1.05392E+09    -396.496E+06     4.58766E+09    -1.61620E+09     3.40103E+09     1.05421E+09     4.15086E+09    -356.479E+06    -70.2845E+06    -34.1821E+06    -420.450E+06
            2250               1     1.32787E+09     1.47885E+09     1.47885E+09     388.365E+06     135.009E+03     1.47872E+09    -622.451E+06     1.18978E+09     388.013E+06     1.42863E+09     50.7067E+06    -14.3838E+06    -18.6532E+06     267.025E+06
            2251               1     1.29675E+09     1.46655E+09     1.46655E+09     402.506E+06     22.1606E+06     1.44439E+09    -630.406E+06     1.16095E+09     402.453E+06     1.46653E+09     22.2375E+06     37.0799E+03    -4.51376E+06    -5.80315E+06
            2252               1     2.02821E+09     2.17350E+09     2.17350E+09     539.134E+06    -96.3533E+06     2.26986E+09    -872.095E+06     1.78268E+09     539.980E+06     2.16909E+09    -92.7848E+06    -38.0810E+06     7.34882E+06    -89.2316E+06
            2253               1     1.32282E+09     1.47007E+09     1.47007E+09     394.641E+06    -7.03373E+06     1.47710E+09    -619.224E+06     1.17338E+09     394.574E+06     1.46992E+09    -6.82552E+06    -243.805E+03     5.18970E+06     14.4354E+06
            2254               1     760.224E+06     914.884E+06     914.884E+06     269.562E+06     76.8493E+06     838.035E+06    -420.432E+06     702.044E+06     267.285E+06     795.593E+06     198.418E+06    -6.66573E+06     27.1491E+06    -291.754E+06
            2255               1     1.86976E+09     2.08063E+09     2.08063E+09     533.853E+06     2.77823E+06     2.07785E+09    -872.420E+06     1.68715E+09     534.563E+06     2.06911E+09     13.5904E+06     35.3588E+06     10.9149E+06     148.556E+06
            2256               1     1.41553E+09     1.40601E+09     1.40601E+09     306.129E+06    -191.033E+06     1.59704E+09    -507.034E+06     1.19396E+09     305.991E+06     1.20199E+09     13.1242E+06     23.1877E+06     34.9489E+06     531.493E+06
            2257               1     3.17948E+09     2.81366E+09     2.81366E+09     514.961E+06    -814.815E+06     3.62848E+09    -837.935E+06     2.42370E+09     514.963E+06     2.80955E+09    -810.703E+06     57.6598E+06     46.2956E+06     97.1694E+06
            2258               1     4.51466E+09     3.97155E+09     3.97155E+09     807.706E+06    -1.19851E+09     5.17006E+09    -1.19358E+09     3.25908E+09     807.862E+06     3.96599E+09    -1.19311E+09     72.1518E+06     51.4589E+06    -143.261E+06
            2259               1     2.28179E+09     2.56072E+09     2.56072E+09     481.788E+06     119.426E+06     2.44129E+09    -1.05398E+09     2.21567E+09     482.319E+06     2.48495E+09     194.668E+06     39.9063E+06     1.56468E+06    -421.301E+06
            2260               1     1.45608E+09     1.44219E+09     1.44219E+09     55.0967E+06    -74.2382E+06     1.51643E+09    -474.350E+06     1.44307E+09    -73.8166E+06     1.43952E+09     57.3455E+06     17.0453E+06    -6.10850E+06    -58.5195E+06
            2261               1     1.43156E+09     1.42459E+09     1.42459E+09     78.3136E+06    -79.2126E+06     1.50381E+09    -474.565E+06     1.41186E+09    -78.8691E+06     1.42062E+09     81.9401E+06     17.4486E+06     5.53499E+06     71.0578E+06
            2262               1     1.66053E+09     1.72506E+09     1.72506E+09     81.4371E+06     48.1183E+06     1.67694E+09    -618.205E+06     1.65978E+09     81.6101E+06     1.69712E+09     75.8872E+06     46.2903E+06    -139.742E+03     209.600E+06
            2263               1     5.27210E+09     5.47393E+09     5.47393E+09     1.58086E+09    -525.756E+06     5.99969E+09    -2.17634E+09     4.15306E+09     1.58113E+09     5.37828E+09    -430.376E+06     89.5812E+06    -45.4100E+06     744.388E+06
            2264               1     4.68908E+09     6.24642E+09     6.24642E+09     2.22027E+09     1.09806E+09     5.14836E+09    -3.18825E+09     4.37135E+09     2.22058E+09     6.20571E+09     1.13847E+09     56.2092E+06    -17.1631E+06     451.869E+06
            2265               1     6.75186E+09     9.51346E+09     9.51346E+09     3.77011E+09     2.07583E+09     7.43764E+09    -5.11980E+09     6.24615E+09     3.77026E+09     9.51322E+09     2.07591E+09     29.9955E+06    -100.087E+03     25.2976E+06
            2266               1     5.47909E+09     7.31242E+09     7.31242E+09     2.76128E+09     1.23084E+09     6.08159E+09    -3.76818E+09     4.96296E+09     2.76152E+09     7.16325E+09     1.37977E+09     74.7855E+06     24.4008E+06    -937.239E+06
            2267               1     3.58705E+09     5.02862E+09     5.02862E+09     1.77246E+09     1.18356E+09     3.84506E+09    -2.66155E+09     3.47578E+09     1.77260E+09     5.01554E+09     1.19650E+09     23.2475E+06     2.81849E+06    -222.458E+06
            2268               1     4.38778E+09     5.31202E+09     5.31202E+09     1.70532E+09     427.035E+06     4.88498E+09    -2.48146E+09     3.93500E+09     1.70578E+09     5.24230E+09     496.303E+06     64.8300E+06     20.4075E+06    -574.944E+06
            2269               1     1.45929E+09     1.47525E+09     1.47525E+09     88.4253E+06    -47.0431E+06     1.52230E+09    -505.545E+06     1.44504E+09    -46.5892E+06     1.46917E+09     94.0533E+06    -19.2923E+06     6.46145E+06    -89.7091E+06
            2270               1     2.56768E+09     2.52638E+09     2.52638E+09     458.145E+06    -347.514E+06     2.87389E+09    -879.003E+06     2.25586E+09     458.262E+06     2.50279E+09    -324.044E+06    -56.6811E+06    -27.4162E+06    -251.344E+06
            2271               1     2.04643E+09     2.16971E+09     2.16971E+09     437.675E+06    -88.3916E+06     2.25810E+09    -839.665E+06     1.88508E+09     439.084E+06     2.16584E+09    -85.9282E+06    -54.6089E+06    -10.7094E+06    -69.9552E+06
            2272               1     1.94100E+09     2.10573E+09     2.10573E+09     528.102E+06    -61.7751E+06     2.16750E+09    -857.352E+06     1.72131E+09     528.947E+06     2.10152E+09    -58.4136E+06    -37.2582E+06    -6.70319E+06     84.6822E+06
            2273               1     1.50793E+09     1.69386E+09     1.69386E+09     468.672E+06     9.79401E+06     1.68406E+09    -724.107E+06     1.33676E+09     468.930E+06     1.68695E+09     16.4410E+06    -18.2993E+06    -4.33286E+06     105.409E+06
            2274               1     1.47967E+09     1.68998E+09     1.68998E+09     468.157E+06     44.7594E+06     1.64522E+09    -734.298E+06     1.33282E+09     468.300E+06     1.68341E+09     51.1825E+06     15.4005E+06    -6.04588E+06    -102.103E+06
            2275               1     2.16889E+09     1.96074E+09     1.96074E+09     343.826E+06    -504.006E+06     2.46474E+09    -600.185E+06     1.73240E+09     343.689E+06     1.89435E+09    -437.481E+06     41.4165E+06    -43.6438E+06    -394.600E+06
            2276               1     2.27100E+09     2.54005E+09     2.54005E+09     463.364E+06     115.006E+06     2.42505E+09    -1.03947E+09     2.20968E+09     464.001E+06     2.46678E+09     187.642E+06     37.8303E+06     2.53214E+06     413.168E+06
            2277               1     5.09187E+09     6.95815E+09     6.95815E+09     2.55684E+09     1.38134E+09     5.57681E+09    -3.63211E+09     4.77203E+09     2.55755E+09     6.93006E+09     1.40872E+09    -63.9757E+06    -10.8299E+06    -388.360E+06
            2278               1     4.85924E+09     6.82786E+09     6.82786E+09     2.58552E+09     1.52641E+09     5.30145E+09    -3.64660E+09     4.58864E+09     2.58549E+09     6.82450E+09     1.52980E+09     3.03970E+06    -6.40947E+06    -133.419E+06
            2279               1     6.26927E+09     8.67650E+09     8.67650E+09     3.36715E+09     1.76015E+09     6.91635E+09    -4.60127E+09     5.77799E+09     3.36714E+09     8.67641E+09     1.76024E+09     6.33123E+06    -4.94844E+06    -23.3072E+06
            2280               1     6.38646E+09     8.96075E+09     8.96075E+09     3.53108E+09     1.92434E+09     7.03640E+09    -4.80539E+09     5.90549E+09     3.53108E+09     8.95671E+09     1.92837E+09     7.53339E+06     3.38441E+06     168.178E+06
            2281               1     5.01339E+09     6.89964E+09     6.89964E+09     2.56457E+09     1.40954E+09     5.49010E+09    -3.62458E+09     4.69983E+09     2.56456E+09     6.89640E+09     1.41278E+09    -17.0763E+06     9.02722E+06     131.886E+06
            2282               1     5.43091E+09     8.69331E+09     8.69331E+09     3.90623E+09     2.79154E+09     5.90177E+09    -5.13036E+09     5.16403E+09     3.90714E+09     8.55931E+09     2.92463E+09    -99.1112E+06     18.5906E+06     872.808E+06
            2283               1     3.22276E+09     3.13941E+09     3.13941E+09     639.596E+06    -497.828E+06     3.63724E+09    -1.09373E+09     2.71264E+09     639.856E+06     3.12406E+09    -482.730E+06    -62.7789E+06     33.2582E+06     224.243E+06
            2284               1     2.25139E+09     2.35033E+09     2.35033E+09     371.739E+06    -99.3220E+06     2.44965E+09    -874.249E+06     2.13625E+09     372.374E+06     2.28012E+09    -29.7406E+06    -47.3933E+06     6.19315E+06     405.629E+06
            2285               1     2.18248E+09     2.23920E+09     2.23920E+09     399.387E+06    -172.202E+06     2.41140E+09    -822.126E+06     2.00344E+09     399.501E+06     2.19805E+09    -131.171E+06    -52.8691E+06     19.9481E+06     307.037E+06
            2286               1     1.47354E+09     1.50005E+09     1.50005E+09     94.6628E+06    -33.3052E+06     1.53335E+09    -520.468E+06     1.46096E+09    -32.8511E+06     1.49124E+09     103.017E+06    -19.2200E+06    -6.59445E+06     109.317E+06
            2287               1     5.30478E+09     9.10577E+09     9.10577E+09     4.20595E+09     3.47238E+09     5.63339E+09    -5.59470E+09     5.18883E+09     4.20689E+09     9.10483E+09     3.47238E+09     67.7754E+06     1.34972E+06     3.41016E+06
            2288               1     4.96777E+09     5.03412E+09     5.03412E+09     1.34508E+09    -614.599E+06     5.64872E+09    -1.92153E+09     3.94576E+09     1.34562E+09     4.98125E+09    -562.273E+06     84.4678E+06     40.6671E+06    -534.810E+06
            2289               1     1.58761E+09     1.68640E+09     1.68640E+09     391.813E+06    -84.9715E+06     1.77137E+09    -664.414E+06     1.41255E+09     391.797E+06     1.62840E+09    -26.9571E+06    -28.3717E+06     25.4060E+06    -312.936E+06
            2290               1     5.25787E+09     5.55272E+09     5.55272E+09     1.61511E+09    -418.158E+06     5.97088E+09    -2.24989E+09     4.22681E+09     1.61538E+09     5.44587E+09    -311.576E+06    -86.7894E+06     41.6642E+06     785.369E+06
            2291               1     6.48475E+09     9.50216E+09     9.50216E+09     3.81135E+09     2.44214E+09     7.06002E+09    -5.25189E+09     6.14677E+09     3.81206E+09     9.50133E+09     2.44228E+09    -63.2796E+06     311.621E+03    -30.6934E+06
            2292               1     4.27164E+09     3.83041E+09     3.83041E+09     804.530E+06    -1.05595E+09     4.88635E+09    -1.19300E+09     3.14495E+09     804.667E+06     3.82393E+09    -1.04961E+09    -71.7205E+06    -50.3453E+06    -153.817E+06
            2293               1     748.138E+06     905.905E+06     905.905E+06     267.752E+06     82.5652E+06     823.340E+06    -418.741E+06     693.703E+06     265.395E+06     790.646E+06     200.180E+06    -6.56583E+06    -26.8670E+06     284.617E+06
            2294               1     1.85845E+09     2.06754E+09     2.06754E+09     528.910E+06     2.73030E+06     2.06481E+09    -866.392E+06     1.67819E+09     529.624E+06     2.05705E+09     12.5059E+06     35.3482E+06    -10.6645E+06    -140.773E+06
            2295               1     3.15230E+09     2.74017E+09     2.74017E+09     470.244E+06    -859.046E+06     3.59922E+09    -783.790E+06     2.38723E+09     470.269E+06     2.73355E+09    -852.448E+06     57.0130E+06    -46.7380E+06    -135.377E+06
            2296               1     2.14884E+09     1.91372E+09     1.91372E+09     320.730E+06    -530.295E+06     2.44401E+09    -568.051E+06     1.70251E+09     320.552E+06     1.84698E+09    -463.379E+06     41.0605E+06     44.3093E+06     393.883E+06
            2297               1     2.09480E+09     2.18559E+09     2.18559E+09     425.778E+06    -131.493E+06     2.31709E+09    -826.626E+06     1.91711E+09     426.966E+06     2.18318E+09    -130.271E+06     53.2152E+06     14.0375E+06    -43.4607E+06
            2298               1     5.43838E+09     8.64107E+09     8.64107E+09     3.78252E+09     2.76624E+09     5.87483E+09    -5.06328E+09     5.21829E+09     3.78305E+09     8.54002E+09     2.86675E+09     71.1057E+06     12.0829E+06    -760.090E+06
            2299               1     5.62381E+09     7.27423E+09     7.27423E+09     2.70104E+09     994.928E+06     6.27930E+09    -3.65673E+09     4.98975E+09     2.70148E+09     7.10249E+09     1.16623E+09     88.5217E+06    -28.1727E+06     1.01962E+09
            2300               1     2.66262E+09     3.48087E+09     3.48087E+09     963.865E+06     693.307E+06     2.78756E+09    -1.71268E+09     2.63142E+09     964.035E+06     3.47819E+09     695.824E+06     23.5870E+06     4.51978E+06     82.8115E+06
            2301               1     875.809E+06     1.05310E+09     1.05310E+09     301.968E+06     91.1178E+06     961.986E+06    -482.063E+06     815.718E+06     299.930E+06     967.825E+06     178.435E+06     8.09100E+06     25.7216E+06     272.561E+06
            2302               1     2.07370E+09     2.22699E+09     2.22699E+09     473.504E+06    -61.9099E+06     2.28890E+09    -879.529E+06     1.90868E+09     475.071E+06     2.22298E+09    -59.4671E+06    -55.5846E+06     8.02777E+06     71.9286E+06
            2303               1     5.53417E+09     8.60596E+09     8.60596E+09     3.71129E+09     2.60072E+09     6.00524E+09    -4.97266E+09     5.27464E+09     3.71172E+09     8.50568E+09     2.70057E+09     72.6879E+06    -16.0005E+06     765.617E+06
            2304               1     1.35005E+09     1.49836E+09     1.49836E+09     385.765E+06    -3.57494E+06     1.50194E+09    -626.851E+06     1.21377E+09     385.490E+06     1.44891E+09     46.1503E+06    -15.9385E+06     18.4735E+06    -267.064E+06
            2305               1     1.43064E+09     1.40334E+09     1.40334E+09     296.030E+06    -211.981E+06     1.61532E+09    -495.795E+06     1.20099E+09     295.819E+06     1.20115E+09    -9.58802E+06     22.8661E+06    -35.5605E+06    -532.905E+06
            2306               1     4.33833E+09     4.23531E+09     4.23531E+09     1.02375E+09    -699.969E+06     4.93527E+09    -1.51970E+09     3.43010E+09     1.02382E+09     4.19939E+09    -664.119E+06    -71.7953E+06     42.8113E+06     410.926E+06
            2307               1     1.95875E+09     2.04039E+09     2.04039E+09     273.517E+06    -65.8874E+06     2.10628E+09    -749.339E+06     1.89089E+09     274.811E+06     2.01917E+09    -45.9625E+06     57.7201E+06     7.85251E+06    -201.090E+06
            2308               1     2.08668E+09     2.47835E+09     2.47835E+09     451.766E+06     336.353E+06     2.14199E+09    -1.08882E+09     2.07948E+09     450.670E+06     2.46563E+09     350.162E+06     18.7341E+06     13.5945E+06     163.236E+06
            2309               1     2.57962E+09     2.62418E+09     2.62418E+09     476.960E+06    -237.317E+06     2.86149E+09    -954.607E+06     2.34116E+09     477.453E+06     2.57220E+09    -185.829E+06     56.8656E+06    -17.4706E+06     377.060E+06
            2310               1     1.68737E+09     1.68125E+09     1.68125E+09     26.1400E+06    -36.6307E+06     1.71788E+09    -556.919E+06     1.68474E+09     27.2313E+06     1.66703E+09    -23.5059E+06    -47.9779E+06    -105.551E+03    -147.863E+06
            2311               1     3.25815E+09     2.71101E+09     2.71101E+09     432.556E+06    -1.02091E+09     3.73191E+09    -707.552E+06     2.34261E+09     432.675E+06     2.67587E+09    -985.888E+06    -55.1318E+06    -51.3214E+06     352.218E+06
            2312               1     3.98480E+09     5.20849E+09     5.20849E+09     1.74409E+09     853.875E+06     4.35462E+09    -2.60215E+09     3.75115E+09     1.74481E+09     5.16727E+09     894.373E+06    -63.1207E+06     12.3143E+06     415.984E+06
            2313               1     5.47783E+09     6.88550E+09     6.88550E+09     2.46364E+09     757.681E+06     6.12782E+09    -3.36894E+09     4.82353E+09     2.46406E+09     6.74504E+09     897.721E+06    -85.9920E+06     29.6230E+06     912.173E+06
            2314               1     5.15614E+09     5.68065E+09     5.68065E+09     1.73677E+09    -153.956E+06     5.83460E+09    -2.42115E+09     4.26441E+09     1.73707E+09     5.56895E+09    -42.5641E+06    -83.5618E+06    -37.1032E+06    -793.919E+06
            2315               1     5.54589E+09     7.37479E+09     7.37479E+09     2.83995E+09     1.19159E+09     6.18320E+09    -3.80211E+09     4.94805E+09     2.84023E+09     7.16641E+09     1.39970E+09    -92.6732E+06    -30.4473E+06    -1.11137E+09
            2316               1     5.30563E+09     7.72704E+09     7.72704E+09     3.09947E+09     1.93635E+09     5.79069E+09    -4.25429E+09     5.00658E+09     3.10012E+09     7.65899E+09     2.00374E+09    -69.6867E+06     12.5217E+06     619.435E+06
            2317               1     5.97116E+09     8.77660E+09     8.77660E+09     3.51221E+09     2.28833E+09     6.48827E+09    -4.85905E+09     5.67858E+09     3.51285E+09     8.77066E+09     2.29363E+09    -59.2168E+06     3.67356E+06     185.012E+06
            2318               1     5.87470E+09     8.64271E+09     8.64271E+09     3.46224E+09     2.25982E+09     6.38288E+09    -4.78825E+09     5.58769E+09     3.46290E+09     8.62516E+09     2.27669E+09    -64.0640E+06    -8.36544E+06    -326.636E+06
            2319               1     2.13727E+09     2.22286E+09     2.22286E+09     329.866E+06    -94.8935E+06     2.31775E+09    -819.278E+06     2.03904E+09     330.474E+06     2.14386E+09    -16.5028E+06    -48.9337E+06    -6.49189E+06    -417.386E+06
            2320               1     2.54729E+09     2.81836E+09     2.81836E+09     576.908E+06     48.2092E+06     2.77015E+09    -1.14783E+09     2.41918E+09     577.389E+06     2.74741E+09     118.677E+06    -43.2547E+06    -5.74040E+06    -435.180E+06
            2321               1     2.79872E+09     3.66244E+09     3.66244E+09     1.06085E+09     701.321E+06     2.96112E+09    -1.80820E+09     2.74605E+09     1.06092E+09     3.64778E+09     715.913E+06    -15.2702E+06    -4.45687E+06     207.129E+06
            2322               1     831.458E+06     1.03857E+09     1.03857E+09     306.648E+06     134.523E+06     904.050E+06    -493.248E+06     789.867E+06     304.572E+06     1.03085E+09     144.318E+06    -2.24225E+06    -19.1759E+06     82.9654E+06
            2323               1     2.06659E+09     2.43072E+09     2.43072E+09     423.799E+06     309.225E+06     2.12149E+09    -1.05458E+09     2.05943E+09     423.516E+06     2.41719E+09     323.036E+06     19.8349E+06    -9.09075E+06    -167.543E+06
            2324               1     2.65812E+09     3.50315E+09     3.50315E+09     1.00497E+09     709.740E+06     2.79341E+09    -1.73928E+09     2.62085E+09     1.00519E+09     3.49172E+09     720.942E+06     24.2307E+06    -3.27733E+06    -176.445E+06
            2325               1     2.83364E+09     3.34477E+09     3.34477E+09     867.537E+06     254.936E+06     3.08983E+09    -1.48908E+09     2.67850E+09     867.941E+06     3.30061E+09     298.691E+06     41.0562E+06     7.27646E+06    -364.041E+06
            2326               1     1.97963E+09     2.04875E+09     2.04875E+09     273.997E+06    -86.2692E+06     2.13502E+09    -745.493E+06     1.90377E+09     275.237E+06     2.02922E+09    -67.9768E+06     57.2393E+06    -8.77318E+06     193.760E+06
            2327               1     2.75331E+09     3.43591E+09     3.43591E+09     954.387E+06     474.024E+06     2.96188E+09    -1.62144E+09     2.65657E+09     954.731E+06     3.38727E+09     522.316E+06     40.9177E+06    -6.69109E+06     373.928E+06
            2328               1     1.73744E+09     1.72564E+09     1.72564E+09     57.0572E+06    -73.3128E+06     1.79896E+09    -569.796E+06     1.72639E+09     58.0653E+06     1.70451E+09    -53.1823E+06    -48.5271E+06     1.92541E+06     187.379E+06
            2329               1     2.63419E+09     2.98700E+09     2.98700E+09     655.837E+06     129.306E+06     2.85769E+09    -1.25738E+09     2.51167E+09      656.48E+06     2.90742E+09     208.245E+06    -49.4706E+06     5.28766E+06     467.249E+06
            2330               1     3.52445E+09     4.65598E+09     4.65598E+09     1.57272E+09     813.946E+06     3.84204E+09    -2.34755E+09     3.33317E+09     1.57310E+09     4.62291E+09     846.631E+06     35.0647E+06     280.132E+03     352.778E+06
            2331               1     1.92486E+09     2.02552E+09     2.02552E+09     286.729E+06    -42.8463E+06     2.06836E+09    -756.467E+06     1.85978E+09     288.420E+06     2.01725E+09    -36.2702E+06    -60.6663E+06     8.04807E+06     112.867E+06
            2332               1     2.74091E+09     3.62498E+09     3.62498E+09     1.05549E+09     739.969E+06     2.88501E+09    -1.80681E+09     2.69959E+09     1.05556E+09     3.61665E+09     748.228E+06    -17.8565E+06     5.13835E+06    -153.621E+06
            2333               1     1.90409E+09     2.03820E+09     2.03820E+09     292.758E+06     7.61143E+06     2.03058E+09    -779.522E+06     1.85514E+09     294.435E+06     2.02985E+09     14.2761E+06    -61.2626E+06    -7.80966E+06    -112.188E+06
            2334               1     3.45918E+09     4.73696E+09     4.73696E+09     1.59851E+09     1.02798E+09     3.70898E+09    -2.45448E+09     3.35087E+09     1.59858E+09     4.73226E+09     1.03261E+09     21.6512E+06    -5.84183E+06     129.938E+06
            2335               1     3.40433E+09     3.67767E+09     3.67767E+09     904.006E+06    -121.531E+06     3.79921E+09    -1.48672E+09     3.02639E+09     904.335E+06     3.60118E+09    -45.3624E+06     65.5212E+06     23.6107E+06    -528.790E+06
            2336               1     3.63326E+09     5.03491E+09     5.03491E+09     1.75035E+09     1.13224E+09     3.90267E+09    -2.63916E+09     3.51204E+09     1.75037E+09     5.02974E+09     1.13738E+09    -9.87762E+06    -1.17891E+06    -141.561E+06
            2337               1     2.98335E+09     3.07903E+09     3.07903E+09     658.355E+06    -253.959E+06     3.33299E+09    -1.16114E+09     2.64104E+09     658.679E+06     3.03387E+09    -209.121E+06    -61.5810E+06    -24.5324E+06    -379.219E+06
            2338               1     856.973E+06     1.04903E+09     1.04903E+09     310.626E+06     109.320E+06     939.705E+06    -489.657E+06     801.142E+06     308.685E+06     966.231E+06     194.055E+06     8.50299E+06    -24.8812E+06    -265.484E+06
            2339               1     826.203E+06     1.05216E+09     1.05216E+09     323.194E+06     154.698E+06     897.463E+06    -510.018E+06     786.140E+06     321.124E+06     1.04187E+09     167.054E+06    -1.48600E+06     18.9015E+06    -95.3385E+06
            2340               1     1.47962E+09     1.41771E+09     1.41771E+09     301.719E+06    -260.649E+06     1.67835E+09    -486.258E+06     1.20120E+09     301.684E+06     1.15836E+09    -1.26450E+06    -20.8961E+06     34.7235E+06    -605.299E+06
            2341               1     2.18615E+09     1.84413E+09     1.84413E+09     279.262E+06    -653.724E+06     2.49785E+09    -489.888E+06     1.63910E+09     279.361E+06     1.68759E+09    -497.284E+06    -36.1379E+06     44.7253E+06    -602.598E+06
            2342               1     1.48471E+09     1.39534E+09     1.39534E+09     284.475E+06    -290.944E+06     1.68629E+09    -462.958E+06     1.19201E+09     284.435E+06     1.13807E+09    -33.6333E+06    -20.6320E+06    -34.6826E+06     605.003E+06
            2343               1     1.58990E+09     1.67029E+09     1.67029E+09     376.008E+06    -104.421E+06     1.77471E+09    -647.292E+06     1.41219E+09     376.074E+06     1.61859E+09    -52.7857E+06    -29.4438E+06    -24.7766E+06     295.925E+06
            2344               1     5.34226E+09     8.60159E+09     8.60159E+09     3.87473E+09     2.80562E+09     5.79597E+09    -5.09398E+09     5.09316E+09     3.87573E+09     8.45316E+09     2.95305E+09    -98.4054E+06    -15.5432E+06    -909.618E+06
            2345               1     2.30401E+09     1.95484E+09     1.95484E+09     312.010E+06    -678.842E+06     2.63368E+09    -529.334E+06     1.71598E+09     312.118E+06     1.80893E+09    -533.042E+06    -38.2321E+06    -46.0054E+06     599.431E+06
            2346               1     1.48780E+09     1.68589E+09     1.68589E+09     475.241E+06     24.9536E+06     1.66093E+09    -728.694E+06     1.32093E+09     475.241E+06     1.68039E+09     30.4488E+06    -551.000E-09    -413.250E-09     95.3775E+06
            2347               1     1.62768E+09     1.69196E+09     1.69196E+09     91.8877E+06     38.0182E+06     1.65394E+09    -607.289E+06     1.62567E+09     91.8877E+06     1.66740E+09     62.5828E+06     688.749E-09    -688.749E-09    -200.062E+06
            2348               1     2.50318E+09     2.55278E+09     2.55278E+09     475.813E+06    -226.555E+06     2.77933E+09    -934.012E+06     2.26507E+09     475.813E+06     2.51270E+09    -186.472E+06     1.92850E-06     551.000E-09    -331.355E+06
            2349               1     4.85730E+09     6.82648E+09     6.82648E+09     2.59661E+09     1.52180E+09     5.30468E+09    -3.64830E+09     4.57813E+09     2.59661E+09     6.82101E+09     1.52728E+09     3.71925E-06    -1.44637E-06     170.363E+06
            2350               1     3.42744E+09     3.65463E+09     3.65463E+09     924.974E+06    -191.940E+06     3.84657E+09    -1.46256E+09     2.97463E+09     924.974E+06     3.59240E+09    -129.706E+06     413.250E-09    -895.374E-09     485.299E+06
            2351               1     4.16379E+09     4.94501E+09     4.94501E+09     1.59771E+09     282.414E+06     4.66260E+09    -2.27504E+09     3.65054E+09     1.59771E+09     4.85957E+09     367.853E+06     964.249E-09    -1.05034E-06     625.356E+06
            2352               1     2.06715E+09     2.04371E+09     2.04371E+09     394.050E+06    -275.127E+06     2.31884E+09    -720.878E+06     1.79807E+09     394.050E+06     2.04032E+09    -271.731E+06    -929.812E-09     921.202E-09     88.6707E+06
            2353               1     2.08458E+09     2.47603E+09     2.47603E+09     475.051E+06     316.869E+06     2.15917E+09    -1.08932E+09     2.07101E+09     475.051E+06     2.45649E+09     336.416E+06     2.47950E-06     1.30862E-06    -204.507E+06
            2354               1     4.99834E+09     9.05202E+09     9.05202E+09     4.27853E+09     3.85570E+09     5.19633E+09    -5.72875E+09     4.95786E+09     4.27853E+09     9.05200E+09     3.85572E+09    -1.77353E-06    -413.250E-09     10.7167E+06
            2355               1     3.64899E+09     5.04997E+09     5.04997E+09     1.77181E+09     1.11842E+09     3.93154E+09    -2.64673E+09     3.51374E+09     1.77181E+09     5.04665E+09     1.12174E+09    -3.58150E-06     275.500E-09     114.095E+06
            2356               1     2.98760E+09     3.70732E+09     3.70732E+09     1.08385E+09     455.537E+06     3.25179E+09    -1.74891E+09     2.83317E+09     1.08385E+09     3.64354E+09     519.321E+06    -688.749E-09    -413.250E-09     450.935E+06
            2357               1     2.08970E+09     2.17038E+09     2.17038E+09     434.955E+06    -149.249E+06     2.31963E+09    -818.696E+06     1.89249E+09     434.955E+06     2.16968E+09    -148.551E+06    -275.500E-09     1.25697E-06     40.2418E+06
            2358               1     4.46346E+09     4.03760E+09     4.03760E+09     852.958E+06    -1.06414E+09     5.10174E+09    -1.27547E+09     3.32804E+09     852.958E+06     4.02546E+09    -1.05200E+09    -3.30600E-06    -826.499E-09     248.604E+06
            2359               1     6.10027E+09     8.58644E+09     8.58644E+09     3.38306E+09     1.87294E+09     6.71350E+09    -4.61415E+09     5.65633E+09     3.38306E+09     8.58380E+09     1.87559E+09     1.44637E-06     1.57121E-06     133.147E+06
            2360               1     6.25494E+09     8.74448E+09     8.74448E+09     3.43218E+09     1.85054E+09     6.89394E+09    -4.67573E+09     5.77877E+09     3.43218E+09     8.73904E+09     1.85598E+09     826.499E-09     1.23975E-06    -193.625E+06
            2361               1     4.84825E+09     6.82617E+09     6.82617E+09     2.60586E+09     1.53054E+09     5.29563E+09    -3.65419E+09     4.56823E+09     2.60586E+09     6.82535E+09     1.53136E+09    -275.500E-09    -2.47950E-06    -65.9591E+06
            2362               1     1.48789E+09     1.72835E+09     1.72835E+09     488.289E+06     78.5225E+06     1.64983E+09    -765.055E+06     1.35194E+09     488.289E+06     1.71962E+09     87.2529E+06    -1.26558E-06    -792.062E-09    -119.698E+06
            2363               1     3.04725E+09     2.59112E+09     2.59112E+09     417.369E+06    -891.965E+06     3.48308E+09    -705.508E+06     2.27130E+09     417.369E+06     2.57678E+09    -877.625E+06     2.89275E-06     137.750E-09    -223.027E+06
            2364               1     2.11882E+09     2.07031E+09     2.07031E+09     395.335E+06    -311.595E+06     2.38190E+09    -718.016E+06     1.82369E+09     395.335E+06     2.06571E+09    -306.992E+06     998.687E-09    -1.44637E-06    -104.604E+06
            2365               1     2.09653E+09     2.48823E+09     2.48823E+09     478.553E+06     314.486E+06     2.17374E+09    -1.09376E+09     2.08201E+09     478.553E+06     2.47633E+09     326.382E+06    -413.250E-09     137.750E-09     160.371E+06
            2366               1     6.73267E+09     9.44501E+09     9.44501E+09     3.69782E+09     2.03752E+09     7.40749E+09    -5.06012E+09     6.24667E+09     3.69782E+09     9.44320E+09     2.03933E+09    -1.51525E-06    -413.250E-09    -115.851E+06
            2367               1     3.14241E+09     3.86557E+09     3.86557E+09     1.12426E+09     436.123E+06     3.42945E+09    -1.80865E+09     2.96569E+09     1.12426E+09     3.79971E+09     501.984E+06     2.20400E-06     1.44637E-06    -470.667E+06
            2368               1     3.85994E+09     5.12823E+09     5.12823E+09     1.79835E+09     897.531E+06     4.23069E+09    -2.60804E+09     3.61190E+09     1.79835E+09     5.09095E+09     934.806E+06     1.10200E-06     2.85831E-06    -395.361E+06
            2369               1     4.06274E+09     4.18646E+09     4.18646E+09     1.08054E+09    -411.309E+06     4.59777E+09    -1.61856E+09     3.35784E+09     1.08054E+09     4.14580E+09    -370.655E+06    -206.625E-09     2.96162E-06    -430.422E+06
            2370               1     1.33791E+09     1.47480E+09     1.47480E+09     395.043E+06    -21.9420E+06     1.49674E+09    -615.966E+06     1.17783E+09     395.043E+06     1.42640E+09     26.4593E+06     1.10200E-06     1.51525E-06     264.767E+06
            2371               1     1.30352E+09     1.46815E+09     1.46815E+09     405.406E+06     13.6894E+06     1.45446E+09    -629.082E+06     1.15958E+09     405.406E+06     1.46814E+09     13.7001E+06     912.593E-09    -671.531E-09    -3.93843E+06
            2372               1     2.02261E+09     2.19719E+09     2.19719E+09     541.922E+06    -57.3363E+06     2.25453E+09    -893.926E+06     1.80608E+09     541.922E+06     2.19294E+09    -53.0885E+06     1.44637E-06    -2.34175E-06    -97.7686E+06
            2373               1     1.33144E+09     1.47216E+09     1.47216E+09     394.255E+06    -16.1774E+06     1.48834E+09    -616.745E+06     1.17595E+09     394.255E+06     1.47205E+09    -16.0742E+06    -279.804E-09     275.500E-09     12.3930E+06
            2374               1     761.002E+06     916.785E+06     916.785E+06     248.661E+06     88.4251E+06     828.360E+06    -417.957E+06     721.567E+06     248.661E+06     797.131E+06     208.079E+06    -312.090E-09              0.    -291.204E+06
            2375               1     1.88680E+09     2.07189E+09     2.07189E+09     536.647E+06    -34.4995E+06     2.10639E+09    -858.012E+06     1.67510E+09     536.647E+06     2.06172E+09    -24.3263E+06    -275.500E-09    -309.937E-09     146.031E+06
            2376               1     1.41143E+09     1.42188E+09     1.42188E+09     315.707E+06    -167.754E+06     1.58963E+09    -523.276E+06     1.20278E+09     315.707E+06     1.21694E+09     37.1866E+06    -464.906E-09    -1.03312E-06     532.709E+06
            2377               1     3.17975E+09     2.81264E+09     2.81264E+09     507.479E+06    -814.906E+06     3.62755E+09    -835.072E+06     2.43459E+09     507.479E+06     2.81014E+09    -812.404E+06    -77.4843E-09     1.37750E-06     95.2447E+06
            2378               1     4.54385E+09     3.99003E+09     3.99003E+09     785.685E+06    -1.21015E+09     5.20018E+09    -1.18852E+09     3.31850E+09     785.685E+06     3.98645E+09    -1.20657E+09     1.21392E-06     1.89406E-06    -136.375E+06
            2379               1     2.27757E+09     2.56934E+09     2.56934E+09     483.083E+06     139.499E+06     2.42984E+09    -1.06397E+09     2.21814E+09     483.083E+06     2.49805E+09     210.786E+06    -1.92850E-06    -2.75500E-06    -410.043E+06
            2380               1     1.44338E+09     1.43998E+09     1.43998E+09     64.4237E+06    -62.7967E+06     1.50278E+09    -480.536E+06     1.43068E+09    -62.7967E+06     1.43727E+09     67.1340E+06    -413.250E-09    -3.30600E-06    -60.9987E+06
            2381               1     1.41901E+09     1.41602E+09     1.41602E+09     69.9508E+06    -66.1328E+06     1.48215E+09    -473.279E+06     1.40422E+09    -66.1328E+06     1.41118E+09     74.7915E+06    -1.51525E-06    -964.249E-09     80.5766E+06
            2382               1     1.66083E+09     1.71439E+09     1.71439E+09     90.3934E+06     19.0278E+06     1.69536E+09    -607.936E+06     1.65737E+09     90.3934E+06     1.68528E+09     48.1315E+06     688.749E-09    -688.749E-09     220.214E+06
            2383               1     5.31454E+09     5.52166E+09     5.52166E+09     1.54850E+09    -515.200E+06     6.03686E+09    -2.18499E+09     4.26197E+09     1.54850E+09     5.42939E+09    -422.924E+06    -2.61725E-06    -292.719E-09     740.636E+06
            2384               1     4.64587E+09     6.18321E+09     6.18321E+09     2.27577E+09     1.04625E+09     5.13696E+09    -3.16841E+09     4.25613E+09     2.27577E+09     6.13636E+09     1.09310E+09    -1.23975E-06     499.343E-09     488.321E+06
            2385               1     6.75772E+09     9.53974E+09     9.53974E+09     3.81073E+09     2.08714E+09     7.45260E+09    -5.14587E+09     6.23375E+09     3.81073E+09     9.53965E+09     2.08723E+09    -1.65300E-06     275.500E-09     26.1599E+06
            2386               1     5.47096E+09     7.30653E+09     7.30653E+09     2.78405E+09     1.22537E+09     6.08116E+09    -3.77198E+09     4.93309E+09     2.78405E+09     7.15643E+09     1.37547E+09    -3.71925E-06     860.937E-09    -943.535E+06
            2387               1     3.58054E+09     5.03212E+09     5.03212E+09     1.80073E+09     1.18285E+09     3.84927E+09    -2.67190E+09     3.45753E+09     1.80073E+09     5.01896E+09     1.19601E+09              0.    -619.875E-09    -224.675E+06
            2388               1     4.38365E+09     5.31328E+09     5.31328E+09     1.73518E+09     423.543E+06     4.88974E+09    -2.49067E+09     3.90415E+09     1.73518E+09     5.24429E+09     492.531E+06     2.61725E-06    -1.03312E-06    -576.695E+06
            2389               1     1.44815E+09     1.46949E+09     1.46949E+09     84.8207E+06    -34.7332E+06     1.50422E+09    -506.526E+06     1.43699E+09    -34.7332E+06     1.46320E+09     91.1162E+06     1.23975E-06     1.23975E-06    -93.1531E+06
            2390               1     2.57279E+09     2.51930E+09     2.51930E+09     477.082E+06    -370.300E+06     2.88960E+09    -875.362E+06     2.22469E+09     477.082E+06     2.49463E+09    -345.627E+06     413.250E-09    -3.06494E-06    -265.871E+06
            2391               1     2.03684E+09     2.19244E+09     2.19244E+09     444.830E+06    -44.4776E+06     2.23692E+09    -864.265E+06     1.89772E+09     444.830E+06     2.19077E+09    -42.8000E+06    -137.750E-09     688.749E-09    -61.2353E+06
            2392               1     1.93206E+09     2.12993E+09     2.12993E+09     533.976E+06    -18.0589E+06     2.14799E+09    -881.951E+06     1.74092E+09     533.976E+06     2.12589E+09    -14.0131E+06     68.8749E-09    -86.0937E-09     93.1337E+06
            2393               1     1.50292E+09     1.70890E+09     1.70890E+09     467.504E+06     37.9798E+06     1.67092E+09    -738.127E+06     1.35415E+09     467.504E+06     1.70205E+09     44.8293E+06    -1.34306E-06     333.613E-09     106.761E+06
            2394               1     1.49684E+09     1.68298E+09     1.68298E+09     468.353E+06     10.7500E+06     1.67223E+09    -720.693E+06     1.32520E+09     468.353E+06     1.67669E+09     17.0401E+06    -1.54969E-06     516.562E-09    -102.367E+06
            2395               1     2.16330E+09     1.96531E+09     1.96531E+09     347.711E+06    -491.941E+06     2.45725E+09    -607.028E+06     1.73532E+09     347.711E+06     1.90004E+09    -426.671E+06    -1.51525E-06    -2.69904E-06    -395.128E+06
            2396               1     2.25879E+09     2.54849E+09     2.54849E+09     471.937E+06     143.431E+06     2.40506E+09    -1.05462E+09     2.20409E+09     471.937E+06     2.48084E+09     211.078E+06     1.23975E-06    -2.47950E-06     397.641E+06
            2397               1     5.01876E+09     6.91943E+09     6.91943E+09     2.67522E+09     1.38001E+09     5.53941E+09    -3.65822E+09     4.61976E+09     2.67522E+09     6.88762E+09     1.41182E+09    -1.10200E-06    -1.13644E-06    -418.550E+06
            2398               1     4.88980E+09     6.86039E+09     6.86039E+09     2.58189E+09     1.53038E+09     5.33001E+09    -3.65755E+09     4.62505E+09     2.58189E+09     6.85842E+09     1.53235E+09    -1.51525E-06    -1.23975E-06    -102.479E+06
            2399               1     6.32842E+09     8.74292E+09     8.74292E+09     3.35666E+09     1.77310E+09     6.96982E+09    -4.62423E+09     5.85724E+09     3.35666E+09     8.74292E+09     1.77310E+09     1.79075E-06     3.26779E-06    -1.27730E+06
            2400               1     6.44127E+09     9.02353E+09     9.02353E+09     3.51984E+09     1.93901E+09     7.08452E+09    -4.82746E+09     5.98101E+09     3.51984E+09     9.02066E+09     1.94189E+09    -413.250E-09     275.500E-09     142.683E+06
            2401               1     5.01889E+09     6.92009E+09     6.92009E+09     2.59052E+09     1.41908E+09     5.50101E+09    -3.64323E+09     4.69629E+09     2.59052E+09     6.91754E+09     1.42162E+09     3.44375E-06    -895.374E-09     118.255E+06
            2402               1     5.51254E+09     8.71890E+09     8.71890E+09     3.78473E+09     2.76922E+09     5.94968E+09    -5.09095E+09     5.29592E+09     3.78473E+09     8.59072E+09     2.89740E+09    -3.34043E-06     17.2187E-09     863.828E+06
            2403               1     3.22979E+09     3.14481E+09     3.14481E+09     661.747E+06    -506.564E+06     3.65138E+09    -1.10000E+09     2.68866E+09     661.747E+06     3.12972E+09    -491.474E+06    -2.34175E-06    -757.624E-09     234.253E+06
            2404               1     2.23515E+09     2.33625E+09     2.33625E+09     381.886E+06    -100.815E+06     2.43706E+09    -872.440E+06     2.11305E+09     381.886E+06     2.26442E+09    -28.9838E+06    -275.500E-09     688.749E-09     412.185E+06
            2405               1     2.20452E+09     2.23662E+09     2.23662E+09     395.270E+06    -206.227E+06     2.44285E+09    -808.553E+06     2.00709E+09     395.270E+06     2.19599E+09    -165.601E+06    -206.625E-09    -1.03312E-06     312.398E+06
            2406               1     1.45773E+09     1.49683E+09     1.49683E+09     107.243E+06    -20.6149E+06     1.51744E+09    -527.819E+06     1.44503E+09    -20.6149E+06     1.48918E+09     114.896E+06    -2.20400E-06     1.10200E-06     102.836E+06
            2407               1     5.27469E+09     9.07493E+09     9.07493E+09     4.21102E+09     3.46821E+09     5.60673E+09    -5.58472E+09     5.15505E+09     4.21102E+09     9.07493E+09     3.46821E+09     413.250E-09     1.40333E-06     4.10644E+06
            2408               1     4.96399E+09     5.05062E+09     5.05062E+09     1.37038E+09    -595.171E+06     5.64579E+09    -1.94194E+09     3.93342E+09     1.37038E+09     4.99831E+09    -542.868E+06     1.68744E-06    -998.687E-09    -540.884E+06
            2409               1     1.59799E+09     1.68226E+09     1.68226E+09     397.889E+06    -107.257E+06     1.78952E+09    -657.632E+06     1.40071E+09     397.889E+06     1.62631E+09    -51.3035E+06    -723.187E-09    -895.374E-09    -311.448E+06
            2410               1     5.29916E+09     5.58566E+09     5.58566E+09     1.59905E+09    -427.747E+06     6.01341E+09    -2.25232E+09     4.28697E+09     1.59905E+09     5.47940E+09    -321.486E+06    -1.58412E-06     137.750E-09     792.273E+06
            2411               1     6.28869E+09     9.37945E+09     9.37945E+09     4.01258E+09     2.45983E+09     6.91961E+09    -5.28395E+09     5.83353E+09     4.01258E+09     9.37932E+09     2.45996E+09    -5.64775E-06     68.8749E-09    -29.0674E+06
            2412               1     4.28471E+09     3.83776E+09     3.83776E+09     789.079E+06    -1.06117E+09     4.89893E+09    -1.18856E+09     3.17948E+09     789.079E+06     3.83296E+09    -1.05637E+09    -800.671E-09    -51.6562E-09    -153.333E+06
            2413               1     750.740E+06     907.259E+06     907.259E+06     247.469E+06     90.4162E+06     816.843E+06    -415.048E+06     712.359E+06     247.469E+06     791.398E+06     206.277E+06     736.101E-09    -1.58412E-06     284.985E+06
            2414               1     1.87475E+09     2.05919E+09     2.05919E+09     533.906E+06    -33.7942E+06     2.09298E+09    -853.100E+06     1.66423E+09     533.906E+06     2.05024E+09    -24.8494E+06    -482.125E-09     365.898E-09    -136.533E+06
            2415               1     3.16363E+09     2.75078E+09     2.75078E+09     469.535E+06    -860.777E+06     3.61156E+09    -786.512E+06     2.40129E+09     469.535E+06     2.74586E+09    -855.861E+06     2.16956E-06    -327.156E-09    -133.149E+06
            2416               1     2.14846E+09     1.92842E+09     1.92842E+09     326.667E+06    -513.086E+06     2.44151E+09    -580.667E+06     1.71619E+09     326.667E+06     1.86208E+09    -446.748E+06     705.968E-09              0.     396.945E+06
            2417               1     2.10793E+09     2.17766E+09     2.17766E+09     434.587E+06    -165.144E+06     2.34281E+09    -815.702E+06     1.90131E+09     434.587E+06     2.17664E+09    -164.121E+06    -413.250E-09     413.250E-09    -48.9581E+06
            2418               1     5.41577E+09     8.62174E+09     8.62174E+09     3.80368E+09     2.76013E+09     5.86161E+09    -5.06185E+09     5.18228E+09     3.80368E+09     8.52086E+09     2.86101E+09     2.27287E-06    -1.72187E-06    -762.320E+06
            2419               1     5.62704E+09     7.30302E+09     7.30302E+09     2.72096E+09     1.02237E+09     6.28066E+09    -3.68212E+09     4.99953E+09     2.72096E+09     7.13684E+09     1.18855E+09     1.99737E-06     241.062E-09     1.00803E+09
            2420               1     2.63931E+09     3.46813E+09     3.46813E+09     1.01043E+09     678.599E+06     2.78953E+09    -1.71905E+09     2.59176E+09     1.01043E+09     3.46325E+09     683.477E+06     2.61725E-06     68.8749E-09     116.553E+06
            2421               1     877.286E+06     1.06865E+09     1.06865E+09     314.719E+06     105.748E+06     962.902E+06    -496.372E+06     818.430E+06     314.719E+06     981.120E+06     193.278E+06    -357.289E-09     378.812E-09     276.805E+06
            2422               1     2.05484E+09     2.25493E+09     2.25493E+09     482.820E+06     2.46019E+06     2.25247E+09    -913.404E+06     1.92233E+09     482.820E+06     2.25325E+09     4.14405E+06    -137.750E-09     2.96162E-06     61.5630E+06
            2423               1     5.51458E+09     8.58827E+09     8.58827E+09     3.73086E+09     2.59379E+09     5.99449E+09    -4.97097E+09     5.24100E+09     3.73086E+09     8.48857E+09     2.69349E+09     1.17087E-06    -757.624E-09     766.626E+06
            2424               1     1.35372E+09     1.49945E+09     1.49945E+09     411.247E+06    -16.4684E+06     1.51591E+09    -631.408E+06     1.18677E+09     411.247E+06     1.45339E+09     29.5858E+06    -430.468E-09    -1.99737E-06    -260.179E+06
            2425               1     1.43206E+09     1.42722E+09     1.42722E+09     312.902E+06    -188.013E+06     1.61523E+09    -517.369E+06     1.21000E+09     312.902E+06     1.22337E+09     15.8336E+06    -21.5234E-09     774.843E-09    -536.383E+06
            2426               1     4.33745E+09     4.22514E+09     4.22514E+09     1.01638E+09    -709.610E+06     4.93475E+09    -1.51064E+09     3.42604E+09     1.01638E+09     4.19079E+09    -675.264E+06     1.10200E-06     1.03312E-06     410.252E+06
            2427               1     1.97375E+09     2.03172E+09     2.03172E+09     280.385E+06    -106.995E+06     2.13872E+09    -735.038E+06     1.88535E+09     280.385E+06     2.01077E+09    -86.0411E+06    -137.750E-09     275.500E-09    -210.652E+06
            2428               1     2.07527E+09     2.47761E+09     2.47761E+09     469.010E+06     341.538E+06     2.13607E+09    -1.09605E+09     2.06644E+09     469.010E+06     2.46408E+09     355.067E+06     826.499E-09     1.23975E-06     169.461E+06
            2429               1     2.57285E+09     2.62594E+09     2.62594E+09     497.250E+06    -233.135E+06     2.85908E+09    -963.353E+06     2.32186E+09     497.250E+06     2.57186E+09    -179.053E+06    -551.000E-09    -1.03312E-06     389.484E+06
            2430               1     1.68335E+09     1.65775E+09     1.65775E+09     37.7621E+06    -82.5050E+06     1.74026E+09    -537.670E+06     1.67364E+09     37.7621E+06     1.64240E+09    -67.1503E+06    -1.23975E-06    -1.65300E-06    -162.743E+06
            2431               1     3.26423E+09     2.71768E+09     2.71768E+09     432.393E+06    -1.02079E+09     3.73847E+09    -709.762E+06     2.35202E+09     432.393E+06     2.68361E+09    -986.719E+06     1.51525E-06     327.156E-09     355.257E+06
            2432               1     3.95959E+09     5.16608E+09     5.16608E+09     1.80682E+09     800.390E+06     4.36569E+09    -2.59110E+09     3.65483E+09     1.80682E+09     5.11726E+09     849.211E+06    -2.20400E-06    -3.03050E-06      459.08E+06
            2433               1     5.46218E+09     6.89147E+09     6.89147E+09     2.48284E+09     780.954E+06     6.11052E+09    -3.38509E+09     4.80907E+09     2.48284E+09     6.75467E+09     917.762E+06    -275.500E-09     1.65300E-06     904.018E+06
            2434               1     5.17232E+09     5.68153E+09     5.68153E+09     1.72010E+09    -169.991E+06     5.85152E+09    -2.41055E+09     4.28501E+09     1.72010E+09     5.57026E+09    -58.7157E+06    -516.562E-09    -2.08347E-06    -799.218E+06
            2435               1     5.58077E+09     7.38119E+09     7.38119E+09     2.77883E+09     1.17377E+09     6.20742E+09    -3.77793E+09     5.02076E+09     2.77883E+09     7.17667E+09     1.37829E+09     86.0937E-09     378.812E-09    -1.10803E+09
            2436               1     5.28496E+09     7.72493E+09     7.72493E+09     3.16343E+09     1.93343E+09     5.79150E+09    -4.27393E+09     4.94730E+09     3.16343E+09     7.65210E+09     2.00626E+09     3.09937E-06    -998.687E-09     645.359E+06
            2437               1     5.80052E+09     8.65336E+09     8.65336E+09     3.66967E+09     2.28619E+09     6.36717E+09    -4.86974E+09     5.41030E+09     3.66967E+09     8.64707E+09     2.29249E+09    -4.27025E-06    -3.09937E-06     200.067E+06
            2438               1     5.72523E+09     8.53780E+09     8.53780E+09     3.60897E+09     2.25785E+09     6.27994E+09    -4.80154E+09     5.34859E+09     3.60897E+09     8.51792E+09     2.27773E+09    -1.51525E-06     1.71703E-06    -352.737E+06
            2439               1     2.13521E+09     2.23715E+09     2.23715E+09     334.968E+06    -72.3917E+06     2.30954E+09    -833.242E+06     2.04502E+09     334.968E+06     2.16268E+09     2.07323E+06     1.85962E-06    -688.749E-09    -407.964E+06
            2440               1     2.54303E+09     2.82990E+09     2.82990E+09     583.850E+06     68.7556E+06     2.76115E+09    -1.16084E+09     2.42145E+09     583.850E+06     2.76220E+09     136.454E+06     2.89275E-06     447.687E-09    -427.014E+06
            2441               1     2.78105E+09     3.65829E+09     3.65829E+09     1.08353E+09     708.923E+06     2.94937E+09    -1.81692E+09     2.72343E+09     1.08353E+09     3.64662E+09     720.595E+06     2.06625E-06     1.51525E-06     185.173E+06
            2442               1     832.612E+06     1.04987E+09     1.04987E+09     322.811E+06     141.559E+06     908.307E+06    -504.746E+06     786.364E+06     322.811E+06     1.04209E+09     149.337E+06    -1.21392E-06    -413.250E-09     83.6871E+06
            2443               1     2.05615E+09     2.42540E+09     2.42540E+09     448.209E+06     298.483E+06     2.12692E+09    -1.05736E+09     2.04383E+09     448.209E+06     2.40932E+09     314.565E+06              0.     1.79075E-06    -184.243E+06
            2444               1     2.64255E+09     3.50044E+09     3.50044E+09     1.03441E+09     711.114E+06     2.78932E+09    -1.74865E+09     2.59750E+09     1.03441E+09     3.48767E+09     723.879E+06     2.06625E-06     1.51525E-06    -188.266E+06
            2445               1     2.84910E+09     3.36275E+09     3.36275E+09     869.824E+06     257.155E+06     3.10560E+09    -1.49658E+09     2.69485E+09     869.824E+06     3.32111E+09     298.792E+06     826.499E-09    -3.16825E-06    -357.177E+06
            2446               1     1.98310E+09     2.04687E+09     2.04687E+09     283.605E+06    -100.011E+06     2.14688E+09    -743.488E+06     1.89691E+09     283.605E+06     2.02864E+09    -81.7773E+06     964.249E-09     1.10200E-06     197.011E+06
            2447               1     2.77668E+09     3.45034E+09     3.45034E+09     947.873E+06     463.246E+06     2.98709E+09    -1.62049E+09     2.67904E+09     947.873E+06     3.40311E+09     510.480E+06     1.92850E-06    -68.8749E-09     372.638E+06
            2448               1     1.72611E+09     1.72826E+09     1.72826E+09     68.8935E+06    -57.6415E+06     1.78590E+09    -579.836E+06     1.71563E+09     68.8935E+06     1.70829E+09    -37.6744E+06    -413.250E-09    -688.749E-09     187.778E+06
            2449               1     2.66380E+09     3.00389E+09     3.00389E+09     666.289E+06     103.752E+06     2.90014E+09    -1.25798E+09     2.52492E+09     666.289E+06     2.92242E+09     185.223E+06     964.249E-09     1.10200E-06     479.208E+06
            2450               1     3.56420E+09     4.73611E+09     4.73611E+09     1.56102E+09     880.842E+06     3.85527E+09    -2.39266E+09     3.41356E+09     1.56102E+09     4.71169E+09     905.263E+06    -4.61462E-06     34.4375E-09     305.864E+06
            2451               1     1.91145E+09     2.04682E+09     2.04682E+09     298.976E+06     5.67105E+06     2.04115E+09    -783.822E+06     1.85981E+09     298.976E+06     2.04115E+09     11.3343E+06    -2.13512E-06     1.99737E-06     107.366E+06
            2452               1     2.72976E+09     3.62181E+09     3.62181E+09     1.08171E+09     735.438E+06     2.88638E+09    -1.81299E+09     2.67968E+09     1.08171E+09     3.61356E+09     743.691E+06    -2.89275E-06     551.000E-09    -154.122E+06
            2453               1     1.89928E+09     2.04387E+09     2.04387E+09     304.528E+06     17.3662E+06     2.02651E+09    -788.589E+06     1.84949E+09     304.528E+06     2.03687E+09     24.3711E+06    -482.125E-09    -585.437E-09    -118.939E+06
            2454               1     3.43890E+09     4.72844E+09     4.72844E+09     1.62587E+09     1.03087E+09     3.69757E+09    -2.46173E+09     3.32012E+09     1.62587E+09     4.72396E+09     1.03535E+09    -4.27025E-06     826.499E-09     128.635E+06
            2455               1     3.41674E+09     3.64685E+09     3.64685E+09     941.049E+06    -192.642E+06     3.83949E+09    -1.46508E+09     2.94672E+09     941.049E+06     3.56101E+09    -106.805E+06    -2.68612E-06    -2.20400E-06    -567.627E+06
            2456               1     3.63024E+09     5.04373E+09     5.04373E+09     1.77023E+09     1.13942E+09     3.90431E+09    -2.65113E+09     3.50375E+09     1.77023E+09     5.04022E+09     1.14293E+09     3.16825E-06    -482.125E-09    -116.946E+06
            2457               1     2.98859E+09     3.07155E+09     3.07155E+09     688.048E+06    -281.416E+06     3.35297E+09    -1.15940E+09     2.59778E+09     688.048E+06     3.02292E+09    -232.784E+06     3.92587E-06    -344.375E-09    -400.870E+06
            2458               1     855.751E+06     1.05717E+09     1.05717E+09     313.043E+06     122.065E+06     935.105E+06    -497.426E+06     805.683E+06     313.043E+06     973.099E+06     206.136E+06     1.89837E-06    -1.44637E-06    -267.483E+06
            2459               1     830.984E+06     1.05679E+09     1.05679E+09     324.080E+06     153.884E+06     902.906E+06    -511.585E+06     790.330E+06     324.080E+06     1.04567E+09        165.E+06     275.500E-09     327.156E-09    -99.5637E+06
            2460               1     1.48501E+09      1.4232E+09      1.4232E+09     294.991E+06    -259.209E+06     1.68241E+09    -486.328E+06     1.21738E+09     294.991E+06     1.16141E+09     2.58557E+06     331.461E-09     860.937E-09    -609.843E+06
            2461               1     2.18859E+09     1.85465E+09     1.85465E+09     284.139E+06    -645.263E+06     2.49992E+09    -497.843E+06     1.64785E+09     284.139E+06     1.69871E+09    -489.321E+06    -1.79075E-06     551.000E-09    -604.586E+06
            2462               1     1.48801E+09     1.40020E+09     1.40020E+09     277.988E+06    -287.704E+06     1.68790E+09    -463.493E+06     1.20786E+09     277.988E+06     1.14136E+09    -28.8660E+06    -654.312E-09     396.031E-09     608.190E+06
            2463               1     1.59285E+09     1.66688E+09     1.66688E+09     393.996E+06    -119.347E+06     1.78622E+09    -647.175E+06     1.38756E+09     393.996E+06     1.61851E+09    -70.9771E+06    -1.37750E-06              0.     289.930E+06
            2464               1     5.42414E+09     8.63120E+09     8.63120E+09     3.76116E+09     2.78542E+09     5.84579E+09    -5.05926E+09     5.22118E+09     3.76116E+09     8.48753E+09     2.92909E+09    -4.47687E-06     1.44637E-06    -905.125E+06
            2465               1     2.30889E+09     1.96740E+09     1.96740E+09     319.155E+06    -671.507E+06     2.63891E+09    -538.349E+06     1.72312E+09     319.155E+06     1.82213E+09    -526.239E+06    -499.343E-09    -4.11528E-06     601.868E+06
            2466               1     1.47118E+09     1.69281E+09     1.69281E+09     472.292E+06     59.2656E+06     1.63354E+09    -741.456E+06     1.33107E+09     472.449E+06     1.68694E+09     64.9732E+06    -15.7545E+06    -5.67804E+06     95.9234E+06
            2467               1     1.63247E+09     1.70392E+09     1.70392E+09     80.0109E+06     63.0197E+06     1.64090E+09    -615.650E+06     1.63227E+09     79.3250E+06     1.67935E+09     88.2727E+06    -45.4162E+06     16.3793E+03    -194.011E+06
            2468               1     2.52382E+09     2.54314E+09     2.54314E+09     447.598E+06    -258.531E+06     2.80167E+09    -910.736E+06     2.28522E+09     448.014E+06     2.50330E+09    -219.105E+06    -56.2390E+06    -19.4738E+06    -325.911E+06
            2469               1     4.85325E+09     6.80884E+09     6.80884E+09     2.56522E+09     1.51720E+09     5.29164E+09    -3.63042E+09     4.58818E+09     2.56525E+09     6.80339E+09     1.52261E+09    -19.1353E+06     6.63567E+06     168.409E+06
            2470               1     3.42411E+09     3.66019E+09     3.66019E+09     879.130E+06    -164.228E+06     3.82442E+09    -1.45836E+09     3.03431E+09     879.588E+06     3.60170E+09    -106.191E+06    -63.6539E+06     22.2645E+06     463.992E+06
            2471               1     4.21799E+09     5.01271E+09     5.01271E+09     1.52249E+09     325.629E+06     4.68708E+09    -2.28694E+09     3.80692E+09     1.52319E+09     4.93750E+09     400.151E+06    -75.8886E+06     21.8303E+06     582.991E+06
            2472               1     2.06107E+09     2.05855E+09     2.05855E+09     396.917E+06    -247.816E+06     2.30636E+09    -735.882E+06     1.81245E+09     397.152E+06     2.05302E+09    -242.528E+06     45.2078E+06     28.0841E+06     98.6162E+06
            2473               1     2.09473E+09     2.47924E+09     2.47924E+09     452.665E+06     322.419E+06     2.15682E+09    -1.08477E+09     2.08559E+09     452.505E+06     2.46198E+09     339.833E+06     23.8927E+06    -9.88865E+06    -190.436E+06
            2474               1     4.88968E+09     9.02061E+09     9.02061E+09     4.41383E+09     3.89019E+09     5.13042E+09    -5.77488E+09     4.82599E+09     4.41584E+09     9.01858E+09     3.89020E+09     96.4619E+06     1.92237E+06     7.18650E+06
            2475               1     3.64003E+09     5.03299E+09     5.03299E+09     1.75428E+09     1.11606E+09     3.91693E+09    -2.63444E+09     3.51082E+09     1.75430E+09     5.02882E+09     1.12020E+09     10.8265E+06    -2.67555E+06     127.129E+06
            2476               1     3.00732E+09     3.69255E+09     3.69255E+09     1.04962E+09     420.411E+06     3.27214E+09    -1.72086E+09     2.85352E+09     1.05043E+09     3.62874E+09     483.411E+06     51.6423E+06    -2.92437E+06     448.999E+06
            2477               1     2.07888E+09     2.17579E+09     2.17579E+09     428.591E+06    -123.370E+06     2.29916E+09    -827.003E+06     1.90327E+09     429.787E+06      2.1736E+09    -122.378E+06    -52.7433E+06     13.6911E+06     37.3990E+06
            2478               1     4.45297E+09     4.04412E+09     4.04412E+09     874.690E+06    -1.04702E+09     5.09114E+09    -1.29060E+09     3.30621E+09     874.872E+06     4.03005E+09    -1.03313E+09    -74.5082E+06     49.2161E+06     251.221E+06
            2479               1     6.09970E+09     8.56757E+09     8.56757E+09     3.34829E+09     1.86213E+09     6.70544E+09    -4.59266E+09     5.67048E+09     3.34845E+09     8.56497E+09     1.86457E+09    -31.3545E+06     5.78897E+06     127.305E+06
            2480               1     6.25032E+09     8.72216E+09     8.72216E+09     3.39612E+09     1.84114E+09     6.88102E+09    -4.65314E+09     5.79065E+09     3.39625E+09     8.71699E+09     1.84617E+09    -28.7420E+06    -5.56337E+06    -185.610E+06
            2481               1     4.84873E+09     6.81076E+09     6.81076E+09     2.57441E+09     1.52237E+09     5.28839E+09    -3.63585E+09     4.58127E+09     2.57451E+09     6.80990E+09     1.52314E+09    -24.2650E+06    -6.34687E+06    -61.8715E+06
            2482               1     1.49657E+09     1.71257E+09     1.71257E+09     486.119E+06     45.0211E+06     1.66754E+09    -747.902E+06     1.33817E+09     486.395E+06     1.70387E+09     53.4433E+06     18.4947E+06    -3.29367E+06    -118.137E+06
            2483               1     3.04264E+09     2.58040E+09     2.58040E+09     404.605E+06    -896.450E+06     3.47685E+09    -696.186E+06     2.27744E+09     404.749E+06     2.56449E+09    -880.677E+06     55.6491E+06    -46.8069E+06    -222.742E+06
            2484               1     2.11850E+09     2.08510E+09     2.08510E+09     386.918E+06    -288.851E+06     2.37395E+09    -727.721E+06     1.85165E+09     387.347E+06     2.07779E+09    -281.970E+06     45.8832E+06    -26.7354E+06    -119.139E+06
            2485               1     2.10327E+09     2.49257E+09     2.49257E+09     459.561E+06     325.463E+06     2.16711E+09    -1.09253E+09     2.09362E+09     459.332E+06     2.48180E+09     336.468E+06     20.0401E+06     9.07801E+06     150.930E+06
            2486               1     6.64686E+09     9.36351E+09     9.36351E+09     3.73390E+09     2.03081E+09     7.33270E+09    -5.04274E+09     6.12646E+09     3.73394E+09     9.36153E+09     2.03275E+09    -16.2722E+06     1.64361E+06    -119.156E+06
            2487               1     3.13732E+09     3.85395E+09     3.85395E+09     1.10798E+09     434.617E+06     3.41933E+09    -1.79885E+09     2.96813E+09     1.10863E+09     3.78861E+09     499.306E+06     49.2761E+06     4.74466E+06    -465.078E+06
            2488               1     3.88029E+09     5.13088E+09     5.13088E+09     1.74113E+09     898.519E+06     4.23236E+09    -2.59018E+09     3.66588E+09     1.74188E+09     5.09636E+09     932.291E+06     57.2437E+06     7.41593E+06    -375.484E+06
            2489               1     4.06157E+09     4.19117E+09     4.19117E+09     1.05392E+09    -396.496E+06     4.58766E+09    -1.61620E+09     3.40103E+09     1.05421E+09     4.15086E+09    -356.479E+06     70.2845E+06     34.1821E+06    -420.450E+06
            2490               1     1.32787E+09     1.47885E+09     1.47885E+09     388.365E+06     135.009E+03     1.47872E+09    -622.451E+06     1.18978E+09     388.013E+06     1.42863E+09     50.7067E+06     14.3838E+06     18.6532E+06     267.025E+06
            2491               1     1.29675E+09     1.46655E+09     1.46655E+09     402.506E+06     22.1606E+06     1.44439E+09    -630.406E+06     1.16095E+09     402.453E+06     1.46653E+09     22.2375E+06    -37.0799E+03     4.51376E+06    -5.80315E+06
            2492               1     2.02821E+09     2.17350E+09     2.17350E+09     539.134E+06    -96.3533E+06     2.26986E+09    -872.095E+06     1.78268E+09     539.980E+06     2.16909E+09    -92.7848E+06     38.0810E+06    -7.34882E+06    -89.2316E+06
            2493               1     1.32282E+09     1.47007E+09     1.47007E+09     394.641E+06    -7.03373E+06     1.47710E+09    -619.224E+06     1.17338E+09     394.574E+06     1.46992E+09    -6.82552E+06     243.805E+03    -5.18970E+06     14.4354E+06
            2494               1     760.224E+06     914.884E+06     914.884E+06     269.562E+06     76.8493E+06     838.035E+06    -420.432E+06     702.044E+06     267.285E+06     795.593E+06     198.418E+06     6.66573E+06    -27.1491E+06    -291.754E+06
            2495               1     1.86976E+09     2.08063E+09     2.08063E+09     533.853E+06     2.77823E+06     2.07785E+09    -872.420E+06     1.68715E+09     534.563E+06     2.06911E+09     13.5904E+06    -35.3588E+06    -10.9149E+06     148.556E+06
            2496               1     1.41553E+09     1.40601E+09     1.40601E+09     306.129E+06    -191.033E+06     1.59704E+09    -507.034E+06     1.19396E+09     305.991E+06     1.20199E+09     13.1242E+06    -23.1877E+06    -34.9489E+06     531.493E+06
            2497               1     3.17948E+09     2.81366E+09     2.81366E+09     514.961E+06    -814.815E+06     3.62848E+09    -837.935E+06     2.42370E+09     514.963E+06     2.80955E+09    -810.703E+06    -57.6598E+06    -46.2956E+06     97.1694E+06
            2498               1     4.51466E+09     3.97155E+09     3.97155E+09     807.706E+06    -1.19851E+09     5.17006E+09    -1.19358E+09     3.25908E+09     807.862E+06     3.96599E+09    -1.19311E+09    -72.1518E+06    -51.4589E+06    -143.261E+06
            2499               1     2.28179E+09     2.56072E+09     2.56072E+09     481.788E+06     119.426E+06     2.44129E+09    -1.05398E+09     2.21567E+09     482.319E+06     2.48495E+09     194.668E+06    -39.9063E+06    -1.56468E+06    -421.301E+06
            2500               1     1.45608E+09     1.44219E+09     1.44219E+09     55.0967E+06    -74.2382E+06     1.51643E+09    -474.350E+06     1.44307E+09    -73.8166E+06     1.43952E+09     57.3455E+06    -17.0453E+06     6.10850E+06    -58.5195E+06
            2501               1     1.43156E+09     1.42459E+09     1.42459E+09     78.3136E+06    -79.2126E+06     1.50381E+09    -474.565E+06     1.41186E+09    -78.8691E+06     1.42062E+09     81.9401E+06    -17.4486E+06    -5.53499E+06     71.0578E+06
            2502               1     1.66053E+09     1.72506E+09     1.72506E+09     81.4371E+06     48.1183E+06     1.67694E+09    -618.205E+06     1.65978E+09     81.6101E+06     1.69712E+09     75.8872E+06    -46.2903E+06     139.742E+03     209.600E+06
            2503               1     5.27210E+09     5.47393E+09     5.47393E+09     1.58086E+09    -525.756E+06     5.99969E+09    -2.17634E+09     4.15306E+09     1.58113E+09     5.37828E+09    -430.376E+06    -89.5812E+06     45.4100E+06     744.388E+06
            2504               1     4.68908E+09     6.24642E+09     6.24642E+09     2.22027E+09     1.09806E+09     5.14836E+09    -3.18825E+09     4.37135E+09     2.22058E+09     6.20571E+09     1.13847E+09    -56.2092E+06     17.1631E+06     451.869E+06
            2505               1     6.75186E+09     9.51346E+09     9.51346E+09     3.77011E+09     2.07583E+09     7.43764E+09    -5.11980E+09     6.24615E+09     3.77026E+09     9.51322E+09     2.07591E+09    -29.9955E+06     100.087E+03     25.2976E+06
            2506               1     5.47909E+09     7.31242E+09     7.31242E+09     2.76128E+09     1.23084E+09     6.08159E+09    -3.76818E+09     4.96296E+09     2.76152E+09     7.16325E+09     1.37977E+09    -74.7855E+06    -24.4008E+06    -937.239E+06
            2507               1     3.58705E+09     5.02862E+09     5.02862E+09     1.77246E+09     1.18356E+09     3.84506E+09    -2.66155E+09     3.47578E+09     1.77260E+09     5.01554E+09     1.19650E+09    -23.2475E+06    -2.81849E+06    -222.458E+06
            2508               1     4.38778E+09     5.31202E+09     5.31202E+09     1.70532E+09     427.035E+06     4.88498E+09    -2.48146E+09     3.93500E+09     1.70578E+09     5.24230E+09     496.303E+06    -64.8300E+06    -20.4075E+06    -574.944E+06
            2509               1     1.45929E+09     1.47525E+09     1.47525E+09     88.4253E+06    -47.0431E+06     1.52230E+09    -505.545E+06     1.44504E+09    -46.5892E+06     1.46917E+09     94.0533E+06     19.2923E+06    -6.46145E+06    -89.7091E+06
            2510               1     2.56768E+09     2.52638E+09     2.52638E+09     458.145E+06    -347.514E+06     2.87389E+09    -879.003E+06     2.25586E+09     458.262E+06     2.50279E+09    -324.044E+06     56.6811E+06     27.4162E+06    -251.344E+06
            2511               1     2.04643E+09     2.16971E+09     2.16971E+09     437.675E+06    -88.3916E+06     2.25810E+09    -839.665E+06     1.88508E+09     439.084E+06     2.16584E+09    -85.9282E+06     54.6089E+06     10.7094E+06    -69.9552E+06
            2512               1     1.94100E+09     2.10573E+09     2.10573E+09     528.102E+06    -61.7751E+06     2.16750E+09    -857.352E+06     1.72131E+09     528.947E+06     2.10152E+09    -58.4136E+06     37.2582E+06     6.70319E+06     84.6822E+06
            2513               1     1.50793E+09     1.69386E+09     1.69386E+09     468.672E+06     9.79401E+06     1.68406E+09    -724.107E+06     1.33676E+09     468.930E+06     1.68695E+09     16.4410E+06     18.2993E+06     4.33286E+06     105.409E+06
            2514               1     1.47967E+09     1.68998E+09     1.68998E+09     468.157E+06     44.7594E+06     1.64522E+09    -734.298E+06     1.33282E+09     468.300E+06     1.68341E+09     51.1825E+06    -15.4005E+06     6.04588E+06    -102.103E+06
            2515               1     2.16889E+09     1.96074E+09     1.96074E+09     343.826E+06    -504.006E+06     2.46474E+09    -600.185E+06     1.73240E+09     343.689E+06     1.89435E+09    -437.481E+06    -41.4165E+06     43.6438E+06    -394.600E+06
            2516               1     2.27100E+09     2.54005E+09     2.54005E+09     463.364E+06     115.006E+06     2.42505E+09    -1.03947E+09     2.20968E+09     464.001E+06     2.46678E+09     187.642E+06    -37.8303E+06    -2.53214E+06     413.168E+06
            2517               1     5.09187E+09     6.95815E+09     6.95815E+09     2.55684E+09     1.38134E+09     5.57681E+09    -3.63211E+09     4.77203E+09     2.55755E+09     6.93006E+09     1.40872E+09     63.9757E+06     10.8299E+06    -388.360E+06
            2518               1     4.85924E+09     6.82786E+09     6.82786E+09     2.58552E+09     1.52641E+09     5.30145E+09    -3.64660E+09     4.58864E+09     2.58549E+09     6.82450E+09     1.52980E+09    -3.03970E+06     6.40947E+06    -133.419E+06
            2519               1     6.26927E+09     8.67650E+09     8.67650E+09     3.36715E+09     1.76015E+09     6.91635E+09    -4.60127E+09     5.77799E+09     3.36714E+09     8.67641E+09     1.76024E+09    -6.33123E+06     4.94844E+06    -23.3072E+06
            2520               1     6.38646E+09     8.96075E+09     8.96075E+09     3.53108E+09     1.92434E+09     7.03640E+09    -4.80539E+09     5.90549E+09     3.53108E+09     8.95671E+09     1.92837E+09    -7.53339E+06    -3.38441E+06     168.178E+06
            2521               1     5.01339E+09     6.89964E+09     6.89964E+09     2.56457E+09     1.40954E+09     5.49010E+09    -3.62458E+09     4.69983E+09     2.56456E+09     6.89640E+09     1.41278E+09     17.0763E+06    -9.02722E+06     131.886E+06
            2522               1     5.43091E+09     8.69331E+09     8.69331E+09     3.90623E+09     2.79154E+09     5.90177E+09    -5.13036E+09     5.16403E+09     3.90714E+09     8.55931E+09     2.92463E+09     99.1112E+06    -18.5906E+06     872.808E+06
            2523               1     3.22276E+09     3.13941E+09     3.13941E+09     639.596E+06    -497.828E+06     3.63724E+09    -1.09373E+09     2.71264E+09     639.856E+06     3.12406E+09    -482.730E+06     62.7789E+06    -33.2582E+06     224.243E+06
            2524               1     2.25139E+09     2.35033E+09     2.35033E+09     371.739E+06    -99.3220E+06     2.44965E+09    -874.249E+06     2.13625E+09     372.374E+06     2.28012E+09    -29.7406E+06     47.3933E+06    -6.19315E+06     405.629E+06
            2525               1     2.18248E+09     2.23920E+09     2.23920E+09     399.387E+06    -172.202E+06     2.41140E+09    -822.126E+06     2.00344E+09     399.501E+06     2.19805E+09    -131.171E+06     52.8691E+06    -19.9481E+06     307.037E+06
            2526               1     1.47354E+09     1.50005E+09     1.50005E+09     94.6628E+06    -33.3052E+06     1.53335E+09    -520.468E+06     1.46096E+09    -32.8511E+06     1.49124E+09     103.017E+06     19.2200E+06     6.59445E+06     109.317E+06
            2527               1     5.30478E+09     9.10577E+09     9.10577E+09     4.20595E+09     3.47238E+09     5.63339E+09    -5.59470E+09     5.18883E+09     4.20689E+09     9.10483E+09     3.47238E+09    -67.7754E+06    -1.34972E+06     3.41016E+06
            2528               1     4.96777E+09     5.03412E+09     5.03412E+09     1.34508E+09    -614.599E+06     5.64872E+09    -1.92153E+09     3.94576E+09     1.34562E+09     4.98125E+09    -562.273E+06    -84.4678E+06    -40.6671E+06    -534.810E+06
            2529               1     1.58761E+09     1.68640E+09     1.68640E+09     391.813E+06    -84.9715E+06     1.77137E+09    -664.414E+06     1.41255E+09     391.797E+06     1.62840E+09    -26.9571E+06     28.3717E+06    -25.4060E+06    -312.936E+06
            2530               1     5.25787E+09     5.55272E+09     5.55272E+09     1.61511E+09    -418.158E+06     5.97088E+09    -2.24989E+09     4.22681E+09     1.61538E+09     5.44587E+09    -311.576E+06     86.7894E+06    -41.6642E+06     785.369E+06
            2531               1     6.48475E+09     9.50216E+09     9.50216E+09     3.81135E+09     2.44214E+09     7.06002E+09    -5.25189E+09     6.14677E+09     3.81206E+09     9.50133E+09     2.44228E+09     63.2796E+06    -311.621E+03    -30.6934E+06
            2532               1     4.27164E+09     3.83041E+09     3.83041E+09     804.530E+06    -1.05595E+09     4.88635E+09    -1.19300E+09     3.14495E+09     804.667E+06     3.82393E+09    -1.04961E+09     71.7205E+06     50.3453E+06    -153.817E+06
            2533               1     748.138E+06     905.905E+06     905.905E+06     267.752E+06     82.5652E+06     823.340E+06    -418.741E+06     693.703E+06     265.395E+06     790.646E+06     200.180E+06     6.56583E+06     26.8670E+06     284.617E+06
            2534               1     1.85845E+09     2.06754E+09     2.06754E+09     528.910E+06     2.73030E+06     2.06481E+09    -866.392E+06     1.67819E+09     529.624E+06     2.05705E+09     12.5059E+06    -35.3482E+06     10.6645E+06    -140.773E+06
            2535               1     3.15230E+09     2.74017E+09     2.74017E+09     470.244E+06    -859.046E+06     3.59922E+09    -783.790E+06     2.38723E+09     470.269E+06     2.73355E+09    -852.448E+06    -57.0130E+06     46.7380E+06    -135.377E+06
            2536               1     2.14884E+09     1.91372E+09     1.91372E+09     320.730E+06    -530.295E+06     2.44401E+09    -568.051E+06     1.70251E+09     320.552E+06     1.84698E+09    -463.379E+06    -41.0605E+06    -44.3093E+06     393.883E+06
            2537               1     2.09480E+09     2.18559E+09     2.18559E+09     425.778E+06    -131.493E+06     2.31709E+09    -826.626E+06     1.91711E+09     426.966E+06     2.18318E+09    -130.271E+06    -53.2152E+06    -14.0375E+06    -43.4607E+06
            2538               1     5.43838E+09     8.64107E+09     8.64107E+09     3.78252E+09     2.76624E+09     5.87483E+09    -5.06328E+09     5.21829E+09     3.78305E+09     8.54002E+09     2.86675E+09    -71.1057E+06    -12.0829E+06    -760.090E+06
            2539               1     5.62381E+09     7.27423E+09     7.27423E+09     2.70104E+09     994.928E+06     6.27930E+09    -3.65673E+09     4.98975E+09     2.70148E+09     7.10249E+09     1.16623E+09    -88.5217E+06     28.1727E+06     1.01962E+09
            2540               1     2.66262E+09     3.48087E+09     3.48087E+09     963.865E+06     693.307E+06     2.78756E+09    -1.71268E+09     2.63142E+09     964.035E+06     3.47819E+09     695.824E+06    -23.5870E+06    -4.51978E+06     82.8115E+06
            2541               1     875.809E+06     1.05310E+09     1.05310E+09     301.968E+06     91.1178E+06     961.986E+06    -482.063E+06     815.718E+06     299.930E+06     967.825E+06     178.435E+06    -8.09100E+06    -25.7216E+06     272.561E+06
            2542               1     2.07370E+09     2.22699E+09     2.22699E+09     473.504E+06    -61.9099E+06     2.28890E+09    -879.529E+06     1.90868E+09     475.071E+06     2.22298E+09    -59.4671E+06     55.5846E+06    -8.02777E+06     71.9286E+06
            2543               1     5.53417E+09     8.60596E+09     8.60596E+09     3.71129E+09     2.60072E+09     6.00524E+09    -4.97266E+09     5.27464E+09     3.71172E+09     8.50568E+09     2.70057E+09    -72.6879E+06     16.0005E+06     765.617E+06
            2544               1     1.35005E+09     1.49836E+09     1.49836E+09     385.765E+06    -3.57494E+06     1.50194E+09    -626.851E+06     1.21377E+09     385.490E+06     1.44891E+09     46.1503E+06     15.9385E+06    -18.4735E+06    -267.064E+06
            2545               1     1.43064E+09     1.40334E+09     1.40334E+09     296.030E+06    -211.981E+06     1.61532E+09    -495.795E+06     1.20099E+09     295.819E+06     1.20115E+09    -9.58802E+06    -22.8661E+06     35.5605E+06    -532.905E+06
            2546               1     4.33833E+09     4.23531E+09     4.23531E+09     1.02375E+09    -699.969E+06     4.93527E+09    -1.51970E+09     3.43010E+09     1.02382E+09     4.19939E+09    -664.119E+06     71.7953E+06    -42.8113E+06     410.926E+06
            2547               1     1.95875E+09     2.04039E+09     2.04039E+09     273.517E+06    -65.8874E+06     2.10628E+09    -749.339E+06     1.89089E+09     274.811E+06     2.01917E+09    -45.9625E+06    -57.7201E+06    -7.85251E+06    -201.090E+06
            2548               1     2.08668E+09     2.47835E+09     2.47835E+09     451.766E+06     336.353E+06     2.14199E+09    -1.08882E+09     2.07948E+09     450.670E+06     2.46563E+09     350.162E+06    -18.7341E+06    -13.5945E+06     163.236E+06
            2549               1     2.57962E+09     2.62418E+09     2.62418E+09     476.960E+06    -237.317E+06     2.86149E+09    -954.607E+06     2.34116E+09     477.453E+06     2.57220E+09    -185.829E+06    -56.8656E+06     17.4706E+06     377.060E+06
            2550               1     1.68737E+09     1.68125E+09     1.68125E+09     26.1400E+06    -36.6307E+06     1.71788E+09    -556.919E+06     1.68474E+09     27.2313E+06     1.66703E+09    -23.5059E+06     47.9779E+06     105.551E+03    -147.863E+06
            2551               1     3.25815E+09     2.71101E+09     2.71101E+09     432.556E+06    -1.02091E+09     3.73191E+09    -707.552E+06     2.34261E+09     432.675E+06     2.67587E+09    -985.888E+06     55.1318E+06     51.3214E+06     352.218E+06
            2552               1     3.98480E+09     5.20849E+09     5.20849E+09     1.74409E+09     853.875E+06     4.35462E+09    -2.60215E+09     3.75115E+09     1.74481E+09     5.16727E+09     894.373E+06     63.1207E+06    -12.3143E+06     415.984E+06
            2553               1     5.47783E+09     6.88550E+09     6.88550E+09     2.46364E+09     757.681E+06     6.12782E+09    -3.36894E+09     4.82353E+09     2.46406E+09     6.74504E+09     897.721E+06     85.9920E+06    -29.6230E+06     912.173E+06
            2554               1     5.15614E+09     5.68065E+09     5.68065E+09     1.73677E+09    -153.956E+06     5.83460E+09    -2.42115E+09     4.26441E+09     1.73707E+09     5.56895E+09    -42.5641E+06     83.5618E+06     37.1032E+06    -793.919E+06
            2555               1     5.54589E+09     7.37479E+09     7.37479E+09     2.83995E+09     1.19159E+09     6.18320E+09    -3.80211E+09     4.94805E+09     2.84023E+09     7.16641E+09     1.39970E+09     92.6732E+06     30.4473E+06    -1.11137E+09
            2556               1     5.30563E+09     7.72704E+09     7.72704E+09     3.09947E+09     1.93635E+09     5.79069E+09    -4.25429E+09     5.00658E+09     3.10012E+09     7.65899E+09     2.00374E+09     69.6867E+06    -12.5217E+06     619.435E+06
            2557               1     5.97116E+09     8.77660E+09     8.77660E+09     3.51221E+09     2.28833E+09     6.48827E+09    -4.85905E+09     5.67858E+09     3.51285E+09     8.77066E+09     2.29363E+09     59.2168E+06    -3.67356E+06     185.012E+06
            2558               1     5.87470E+09     8.64271E+09     8.64271E+09     3.46224E+09     2.25982E+09     6.38288E+09    -4.78825E+09     5.58769E+09     3.46290E+09     8.62516E+09     2.27669E+09     64.0640E+06     8.36544E+06    -326.636E+06
            2559               1     2.13727E+09     2.22286E+09     2.22286E+09     329.866E+06    -94.8935E+06     2.31775E+09    -819.278E+06     2.03904E+09     330.474E+06     2.14386E+09    -16.5028E+06     48.9337E+06     6.49189E+06    -417.386E+06
            2560               1     2.54729E+09     2.81836E+09     2.81836E+09     576.908E+06     48.2092E+06     2.77015E+09    -1.14783E+09     2.41918E+09     577.389E+06     2.74741E+09     118.677E+06     43.2547E+06     5.74040E+06    -435.180E+06
            2561               1     2.79872E+09     3.66244E+09     3.66244E+09     1.06085E+09     701.321E+06     2.96112E+09    -1.80820E+09     2.74605E+09     1.06092E+09     3.64778E+09     715.913E+06     15.2702E+06     4.45687E+06     207.129E+06
            2562               1     831.458E+06     1.03857E+09     1.03857E+09     306.648E+06     134.523E+06     904.050E+06    -493.248E+06     789.867E+06     304.572E+06     1.03085E+09     144.318E+06     2.24225E+06     19.1759E+06     82.9654E+06
            2563               1     2.06659E+09     2.43072E+09     2.43072E+09     423.799E+06     309.225E+06     2.12149E+09    -1.05458E+09     2.05943E+09     423.516E+06     2.41719E+09     323.036E+06    -19.8349E+06     9.09075E+06    -167.543E+06
            2564               1     2.65812E+09     3.50315E+09     3.50315E+09     1.00497E+09     709.740E+06     2.79341E+09    -1.73928E+09     2.62085E+09     1.00519E+09     3.49172E+09     720.942E+06    -24.2307E+06     3.27733E+06    -176.445E+06
            2565               1     2.83364E+09     3.34477E+09     3.34477E+09     867.537E+06     254.936E+06     3.08983E+09    -1.48908E+09     2.67850E+09     867.941E+06     3.30061E+09     298.691E+06    -41.0562E+06    -7.27646E+06    -364.041E+06
            2566               1     1.97963E+09     2.04875E+09     2.04875E+09     273.997E+06    -86.2692E+06     2.13502E+09    -745.493E+06     1.90377E+09     275.237E+06     2.02922E+09    -67.9768E+06    -57.2393E+06     8.77318E+06     193.760E+06
            2567               1     2.75331E+09     3.43591E+09     3.43591E+09     954.387E+06     474.024E+06     2.96188E+09    -1.62144E+09     2.65657E+09     954.731E+06     3.38727E+09     522.316E+06    -40.9177E+06     6.69109E+06     373.928E+06
            2568               1     1.73744E+09     1.72564E+09     1.72564E+09     57.0572E+06    -73.3128E+06     1.79896E+09    -569.796E+06     1.72639E+09     58.0653E+06     1.70451E+09    -53.1823E+06     48.5271E+06    -1.92541E+06     187.379E+06
            2569               1     2.63419E+09     2.98700E+09     2.98700E+09     655.837E+06     129.306E+06     2.85769E+09    -1.25738E+09     2.51167E+09      656.48E+06     2.90742E+09     208.245E+06     49.4706E+06    -5.28766E+06     467.249E+06
            2570               1     3.52445E+09     4.65598E+09     4.65598E+09     1.57272E+09     813.946E+06     3.84204E+09    -2.34755E+09     3.33317E+09     1.57310E+09     4.62291E+09     846.631E+06    -35.0647E+06    -280.132E+03     352.778E+06
            2571               1     1.92486E+09     2.02552E+09     2.02552E+09     286.729E+06    -42.8463E+06     2.06836E+09    -756.467E+06     1.85978E+09     288.420E+06     2.01725E+09    -36.2702E+06     60.6663E+06    -8.04807E+06     112.867E+06
            2572               1     2.74091E+09     3.62498E+09     3.62498E+09     1.05549E+09     739.969E+06     2.88501E+09    -1.80681E+09     2.69959E+09     1.05556E+09     3.61665E+09     748.228E+06     17.8565E+06    -5.13835E+06    -153.621E+06
            2573               1     1.90409E+09     2.03820E+09     2.03820E+09     292.758E+06     7.61143E+06     2.03058E+09    -779.522E+06     1.85514E+09     294.435E+06     2.02985E+09     14.2761E+06     61.2626E+06     7.80966E+06    -112.188E+06
            2574               1     3.45918E+09     4.73696E+09     4.73696E+09     1.59851E+09     1.02798E+09     3.70898E+09    -2.45448E+09     3.35087E+09     1.59858E+09     4.73226E+09     1.03261E+09    -21.6512E+06     5.84183E+06     129.938E+06
            2575               1     3.40433E+09     3.67767E+09     3.67767E+09     904.006E+06    -121.531E+06     3.79921E+09    -1.48672E+09     3.02639E+09     904.335E+06     3.60118E+09    -45.3624E+06    -65.5212E+06    -23.6107E+06    -528.790E+06
            2576               1     3.63326E+09     5.03491E+09     5.03491E+09     1.75035E+09     1.13224E+09     3.90267E+09    -2.63916E+09     3.51204E+09     1.75037E+09     5.02974E+09     1.13738E+09     9.87762E+06     1.17891E+06    -141.561E+06
            2577               1     2.98335E+09     3.07903E+09     3.07903E+09     658.355E+06    -253.959E+06     3.33299E+09    -1.16114E+09     2.64104E+09     658.679E+06     3.03387E+09    -209.121E+06     61.5810E+06     24.5324E+06    -379.219E+06
            2578               1     856.973E+06     1.04903E+09     1.04903E+09     310.626E+06     109.320E+06     939.705E+06    -489.657E+06     801.142E+06     308.685E+06     966.231E+06     194.055E+06    -8.50299E+06     24.8812E+06    -265.484E+06
            2579               1     826.203E+06     1.05216E+09     1.05216E+09     323.194E+06     154.698E+06     897.463E+06    -510.018E+06     786.140E+06     321.124E+06     1.04187E+09     167.054E+06     1.48600E+06    -18.9015E+06    -95.3385E+06
            2580               1     1.47962E+09     1.41771E+09     1.41771E+09     301.719E+06    -260.649E+06     1.67835E+09    -486.258E+06     1.20120E+09     301.684E+06     1.15836E+09    -1.26450E+06     20.8961E+06    -34.7235E+06    -605.299E+06
            2581               1     2.18615E+09     1.84413E+09     1.84413E+09     279.262E+06    -653.724E+06     2.49785E+09    -489.888E+06     1.63910E+09     279.361E+06     1.68759E+09    -497.284E+06     36.1379E+06    -44.7253E+06    -602.598E+06
            2582               1     1.48471E+09     1.39534E+09     1.39534E+09     284.475E+06    -290.944E+06     1.68629E+09    -462.958E+06     1.19201E+09     284.435E+06     1.13807E+09    -33.6333E+06     20.6320E+06     34.6826E+06     605.003E+06
            2583               1     1.58990E+09     1.67029E+09     1.67029E+09     376.008E+06    -104.421E+06     1.77471E+09    -647.292E+06     1.41219E+09     376.074E+06     1.61859E+09    -52.7857E+06     29.4438E+06     24.7766E+06     295.925E+06
            2584               1     5.34226E+09     8.60159E+09     8.60159E+09     3.87473E+09     2.80562E+09     5.79597E+09    -5.09398E+09     5.09316E+09     3.87573E+09     8.45316E+09     2.95305E+09     98.4054E+06     15.5432E+06    -909.618E+06
            2585               1     2.30401E+09     1.95484E+09     1.95484E+09     312.010E+06    -678.842E+06     2.63368E+09    -529.334E+06     1.71598E+09     312.118E+06     1.80893E+09    -533.042E+06     38.2321E+06     46.0054E+06     599.431E+06
            2586               1     1.47254E+09     1.66009E+09     1.66009E+09     456.566E+06     18.1315E+06     1.64196E+09    -711.596E+06     1.31319E+09     456.640E+06     1.65383E+09     24.3139E+06    -30.8391E+06    -20.2150E+06     94.0335E+06
            2587               1     1.66070E+09     1.70436E+09     1.70436E+09     49.4482E+06     37.9285E+06     1.66643E+09    -597.245E+06     1.66061E+09     51.8579E+06     1.67705E+09     62.8242E+06    -92.0631E+06     5.77986E+06    -190.474E+06
            2588               1     2.49076E+09     2.53570E+09     2.53570E+09     436.319E+06    -216.440E+06     2.75214E+09    -918.527E+06     2.28614E+09     437.259E+06     2.49461E+09    -176.290E+06    -114.732E+06    -42.7078E+06    -309.573E+06
            2589               1     4.90073E+09     6.80897E+09     6.80897E+09     2.44641E+09     1.50628E+09     5.30269E+09    -3.58722E+09     4.69137E+09     2.44720E+09     6.80268E+09     1.51178E+09    -68.5172E+06     14.0028E+06     166.343E+06
            2590               1     3.40948E+09     3.62907E+09     3.62907E+09     866.578E+06    -181.372E+06     3.81044E+09    -1.43809E+09     3.01386E+09     868.589E+06     3.56586E+09    -120.175E+06    -135.326E+06     48.1280E+06     462.867E+06
            2591               1     4.13854E+09     4.89905E+09     4.89905E+09     1.51635E+09     284.421E+06     4.61463E+09    -2.23327E+09     3.69093E+09     1.51870E+09     4.81272E+09     368.403E+06    -147.111E+06     45.8957E+06     603.730E+06
            2592               1     2.05850E+09     2.03041E+09     2.03041E+09     377.897E+06    -275.486E+06     2.30590E+09    -710.941E+06     1.80205E+09     379.187E+06     2.02100E+09    -267.366E+06     93.6349E+06     56.6536E+06     93.8119E+06
            2593               1     2.11788E+09     2.47635E+09     2.47635E+09     410.775E+06     309.776E+06     2.16657E+09    -1.06563E+09     2.11245E+09     404.131E+06     2.45842E+09     334.347E+06     28.5881E+06    -28.5252E+06    -193.375E+06
            2594               1     5.02509E+09     9.01333E+09     9.01333E+09     4.17606E+09     3.81942E+09     5.19391E+09    -5.66960E+09     4.99650E+09     4.18121E+09     9.00816E+09     3.81944E+09     157.781E+06     1.12761E+06     9.16384E+06
            2595               1     3.70445E+09     5.04838E+09     5.04838E+09     1.63056E+09     1.11195E+09     3.93643E+09    -2.59697E+09     3.62143E+09     1.63235E+09     5.04375E+09     1.11480E+09     78.1849E+06     1.14229E+06     105.808E+06
            2596               1     2.99020E+09     3.68741E+09     3.68741E+09     1.00360E+09     464.248E+06     3.22316E+09    -1.71842E+09     2.87769E+09     1.00544E+09     3.62582E+09     524.002E+06     105.553E+06    -19.1606E+06     427.023E+06
            2597               1     2.08076E+09     2.14982E+09     2.14982E+09     404.544E+06    -152.878E+06     2.30270E+09    -800.497E+06     1.90160E+09     408.886E+06     2.14290E+09    -150.299E+06    -105.890E+06     32.0811E+06     35.1576E+06
            2598               1     4.42027E+09     4.00908E+09     4.00908E+09     820.642E+06    -1.03683E+09     5.04591E+09    -1.26430E+09     3.35694E+09     822.382E+06     3.99222E+09    -1.02170E+09    -146.860E+06     86.3725E+06     229.261E+06
            2599               1     6.12950E+09     8.55258E+09     8.55258E+09     3.23786E+09     1.84724E+09     6.70534E+09    -4.54589E+09     5.75831E+09     3.23837E+09     8.54924E+09     1.85007E+09    -62.4418E+06     15.9419E+06     132.457E+06
            2600               1     6.28315E+09     8.70979E+09     8.70979E+09     3.28576E+09     1.82490E+09     6.88490E+09    -4.60682E+09     5.88255E+09     3.28618E+09     8.70380E+09     1.83047E+09    -57.8826E+06    -15.0979E+06    -192.354E+06
            2601               1     4.88951E+09     6.80817E+09     6.80817E+09     2.45924E+09     1.51563E+09     5.29254E+09    -3.59434E+09     4.67802E+09     2.45986E+09     6.80645E+09     1.51673E+09    -63.5299E+06    -16.2282E+06    -64.9083E+06
            2602               1     1.47203E+09     1.70284E+09     1.70284E+09     467.793E+06     73.9516E+06     1.62889E+09    -748.195E+06     1.34563E+09     468.296E+06     1.69309E+09     83.1968E+06     34.3744E+06    -16.8423E+06    -118.852E+06
            2603               1     3.02803E+09     2.57745E+09     2.57745E+09     399.794E+06    -880.417E+06     3.45786E+09    -698.941E+06     2.28825E+09     400.059E+06     2.55572E+09    -858.957E+06     106.693E+06    -91.7975E+06    -233.464E+06
            2604               1     2.10786E+09     2.05561E+09     2.05561E+09     380.771E+06    -311.281E+06     2.36689E+09    -708.365E+06     1.82469E+09     382.009E+06     2.04518E+09    -302.092E+06     93.0599E+06    -58.3384E+06    -107.992E+06
            2605               1     2.13256E+09     2.49131E+09     2.49131E+09     414.313E+06     307.216E+06     2.18409E+09    -1.07095E+09     2.12650E+09     407.460E+06     2.48031E+09     325.072E+06     35.8731E+06     29.9453E+06     149.454E+06
            2606               1     6.78956E+09     9.42951E+09     9.42951E+09     3.52914E+09     2.00860E+09     7.42090E+09    -4.98908E+09     6.38940E+09     3.53121E+09     9.42566E+09     2.01038E+09     110.868E+06     2.19713E+06    -114.404E+06
            2607               1     3.15139E+09     3.84959E+09     3.84959E+09     1.03636E+09     444.084E+06     3.40551E+09    -1.77668E+09     3.02235E+09     1.03949E+09     3.78535E+09     505.200E+06     112.637E+06     11.6161E+06    -447.411E+06
            2608               1     3.86176E+09     5.09250E+09     5.09250E+09     1.69425E+09     892.960E+06     4.19954E+09    -2.55990E+09     3.66766E+09     1.69619E+09     5.05429E+09     929.228E+06     113.394E+06     26.2114E+06    -379.439E+06
            2609               1     4.03450E+09     4.15739E+09     4.15739E+09     1.02399E+09    -394.866E+06     4.55226E+09    -1.59551E+09     3.40109E+09     1.02641E+09     4.11384E+09    -353.737E+06     146.638E+06     61.2055E+06    -409.588E+06
            2610               1     1.32792E+09     1.45636E+09     1.45636E+09     386.317E+06    -29.7843E+06     1.48615E+09    -604.298E+06     1.16714E+09     385.898E+06     1.40715E+09     19.8512E+06     27.9877E+06     29.9117E+06     263.051E+06
            2611               1     1.28899E+09     1.44549E+09     1.44549E+09     388.021E+06     9.66090E+06     1.43583E+09    -614.389E+06     1.15377E+09     387.357E+06     1.44548E+09     10.3321E+06     506.467E+03     15.8310E+06    -3.28347E+06
            2612               1     2.00336E+09     2.16710E+09     2.16710E+09     513.891E+06    -60.7929E+06     2.22789E+09    -873.400E+06     1.80345E+09     516.920E+06     2.15932E+09    -56.0364E+06     75.9792E+06    -21.0647E+06    -96.6577E+06
            2613               1     1.31658E+09     1.44929E+09     1.44929E+09     376.756E+06    -20.0552E+06     1.46934E+09    -601.996E+06     1.17025E+09     376.119E+06     1.44919E+09    -19.3173E+06     633.366E+03    -15.8821E+06     12.1674E+06
            2614               1     758.470E+06     908.668E+06     908.668E+06     251.309E+06     78.8035E+06     829.865E+06    -412.927E+06     712.298E+06     243.676E+06     787.786E+06     207.319E+06     13.8342E+06    -47.4131E+06    -289.136E+06
            2615               1     1.87024E+09     2.04295E+09     2.04295E+09     511.368E+06    -41.3607E+06     2.08431E+09    -837.651E+06     1.67111E+09     513.702E+06     2.02951E+09    -30.2548E+06    -69.5682E+06    -28.4042E+06     144.644E+06
            2616               1     1.40621E+09     1.41355E+09     1.41355E+09     310.507E+06    -169.910E+06     1.58346E+09    -518.051E+06     1.19957E+09     310.817E+06     1.20605E+09     37.2840E+06    -42.1518E+06    -56.2676E+06     529.612E+06
            2617               1     3.15555E+09     2.79721E+09     2.79721E+09     489.858E+06    -798.718E+06     3.59593E+09    -829.451E+06     2.44899E+09     490.498E+06     2.78819E+09    -790.333E+06    -113.630E+06    -85.2622E+06     106.628E+06
            2618               1     4.50201E+09     3.96792E+09     3.96792E+09     758.527E+06    -1.17838E+09     5.14629E+09    -1.18269E+09     3.35180E+09     760.127E+06     3.95904E+09    -1.17110E+09    -141.665E+06    -89.7326E+06    -120.031E+06
            2619               1     2.29406E+09     2.56549E+09     2.56549E+09     413.031E+06     152.131E+06     2.41336E+09    -1.04355E+09     2.26032E+09     416.743E+06     2.49845E+09     215.460E+06    -91.3191E+06     8.08738E+06    -384.917E+06
            2620               1     1.49301E+09     1.46397E+09     1.46397E+09     64.7268E+06    -107.827E+06     1.57179E+09    -473.622E+06     1.47033E+09    -106.230E+06     1.46072E+09     66.3775E+06    -34.2291E+06     13.3754E+06    -58.8337E+06
            2621               1     1.46940E+09     1.44222E+09     1.44222E+09     73.5229E+06    -110.556E+06     1.55277E+09    -468.394E+06     1.44312E+09    -108.627E+06     1.43710E+09     76.7126E+06    -33.7155E+06    -16.4780E+06     77.0203E+06
            2622               1     1.69141E+09     1.72716E+09     1.72716E+09     46.3127E+06     25.3831E+06     1.70177E+09    -599.617E+06     1.69111E+09     51.0288E+06     1.69581E+09     52.0117E+06    -92.4218E+06    -8.61846E+06     209.212E+06
            2623               1     5.26699E+09     5.48270E+09     5.48270E+09     1.50140E+09    -489.549E+06     5.97225E+09    -2.16485E+09     4.28867E+09     1.50269E+09     5.38943E+09    -397.567E+06    -160.641E+06     74.5586E+06     717.315E+06
            2624               1     4.64543E+09     6.13939E+09     6.13939E+09     2.16379E+09     1.03294E+09     5.10645E+09    -3.11204E+09     4.31915E+09     2.16709E+09     6.08970E+09     1.07933E+09    -140.039E+06     27.0370E+06     476.774E+06
            2625               1     6.78224E+09     9.49728E+09     9.49728E+09     3.66445E+09     2.05512E+09     7.44216E+09    -5.07228E+09     6.33090E+09     3.66494E+09     9.49670E+09     2.05521E+09    -53.2331E+06    -230.267E+03     25.8453E+06
            2626               1     5.45287E+09     7.25215E+09     7.25215E+09     2.68457E+09     1.21513E+09     6.03701E+09    -3.71728E+09     4.97737E+09     2.68786E+09     7.10140E+09     1.36259E+09    -177.909E+06    -39.5376E+06    -921.832E+06
            2627               1     3.62800E+09     5.02391E+09     5.02391E+09     1.66415E+09     1.17692E+09     3.84699E+09    -2.62166E+09     3.55327E+09     1.66526E+09     5.01071E+09     1.18901E+09    -61.1667E+06     2.37038E+06    -215.288E+06
            2628               1     4.37073E+09     5.27799E+09     5.27799E+09     1.64799E+09     426.441E+06     4.85155E+09    -2.45081E+09     3.95850E+09     1.65059E+09     5.20810E+09     493.736E+06    -144.654E+06    -41.2098E+06    -555.508E+06
            2629               1     1.49554E+09     1.49159E+09     1.49159E+09     86.4867E+06    -80.3952E+06     1.57199E+09    -499.228E+06     1.47438E+09    -78.3903E+06     1.48491E+09     91.1648E+06     37.7632E+06    -15.6530E+06    -89.5460E+06
            2630               1     2.55724E+09     2.50188E+09     2.50188E+09     451.500E+06    -363.535E+06     2.86542E+09    -863.283E+06     2.23573E+09     451.628E+06     2.47416E+09    -335.941E+06     115.222E+06     58.3920E+06    -248.754E+06
            2631               1     2.02705E+09     2.17282E+09     2.17282E+09     412.351E+06    -43.2594E+06     2.21608E+09    -847.303E+06     1.90667E+09     417.516E+06     2.16490E+09    -40.5096E+06     107.430E+06     21.9900E+06    -55.7990E+06
            2632               1     1.91406E+09     2.10164E+09     2.10164E+09     507.811E+06    -21.3296E+06     2.12297E+09    -862.706E+06     1.73773E+09     510.715E+06     2.09406E+09    -16.6570E+06     73.5140E+06     20.6434E+06     93.1336E+06
            2633               1     1.48743E+09     1.68406E+09     1.68406E+09     447.233E+06     33.5801E+06     1.65048E+09    -721.624E+06     1.34864E+09     447.705E+06     1.67629E+09     40.8789E+06     34.0612E+06     16.9282E+06     105.481E+06
            2634               1     1.48194E+09     1.65775E+09     1.65775E+09     449.537E+06     4.21385E+06     1.65354E+09    -703.835E+06     1.31831E+09     449.661E+06     1.65067E+09     11.1744E+06    -30.7179E+06     19.7814E+06    -101.369E+06
            2635               1     2.15458E+09     1.95919E+09     1.95919E+09     339.389E+06    -486.076E+06     2.44526E+09    -604.166E+06     1.74138E+09     340.207E+06     1.88673E+09    -414.442E+06    -80.1383E+06     74.1149E+06    -399.227E+06
            2636               1     2.27776E+09     2.54629E+09     2.54629E+09     404.475E+06     153.387E+06     2.39290E+09    -1.03472E+09     2.24631E+09     407.983E+06     2.48246E+09     213.711E+06    -90.9215E+06    -5.33841E+06     373.770E+06
            2637               1     5.00947E+09     6.86134E+09     6.86134E+09     2.55883E+09     1.36179E+09     5.49955E+09    -3.59399E+09     4.67114E+09     2.56091E+09     6.82787E+09     1.39318E+09     120.084E+06     28.0832E+06    -406.588E+06
            2638               1     4.95019E+09     6.85421E+09     6.85421E+09     2.41588E+09     1.51570E+09     5.33851E+09    -3.59526E+09     4.76079E+09     2.41773E+09     6.85054E+09     1.51752E+09     92.6112E+06     6.99255E+06    -96.3502E+06
            2639               1     6.38087E+09     8.72674E+09     8.72674E+09     3.18639E+09     1.75014E+09     6.97659E+09    -4.55442E+09     6.00080E+09     3.18826E+09     8.72477E+09     1.75024E+09     104.386E+06     11.7223E+06    -34.7466E+03
            2640               1     6.49441E+09     9.00584E+09     9.00584E+09     3.35360E+09     1.91164E+09     7.09420E+09    -4.75703E+09     6.11849E+09     3.35532E+09     9.00136E+09     1.91440E+09     99.1034E+06    -3.03910E+06     139.363E+06
            2641               1     5.06372E+09     6.90206E+09     6.90206E+09     2.43319E+09     1.40217E+09     5.49989E+09    -3.57914E+09     4.81900E+09     2.43400E+09     6.89861E+09     1.40481E+09     71.5634E+06    -16.8711E+06     112.838E+06
            2642               1     5.51568E+09     8.67328E+09     8.67328E+09     3.69229E+09     2.74549E+09     5.92779E+09    -5.03702E+09     5.32824E+09     3.69521E+09     8.54414E+09     2.87172E+09     163.603E+06    -21.5692E+06     848.076E+06
            2643               1     3.21096E+09     3.12559E+09     3.12559E+09     622.602E+06    -494.785E+06     3.62037E+09    -1.08447E+09     2.71888E+09     624.426E+06     3.10681E+09    -477.829E+06     126.833E+06    -61.2182E+06     214.002E+06
            2644               1     2.23469E+09     2.32709E+09     2.32709E+09     336.665E+06    -90.2650E+06     2.41736E+09    -857.831E+06     2.14003E+09     337.730E+06     2.25723E+09    -21.4681E+06     105.417E+06    -24.0377E+06     389.781E+06
            2645               1     2.19558E+09     2.22302E+09     2.22302E+09     368.355E+06    -201.230E+06     2.42425E+09    -796.714E+06     2.01908E+09     368.913E+06     2.18021E+09    -158.981E+06     112.601E+06    -42.5275E+06     295.228E+06
            2646               1     1.50525E+09     1.51750E+09     1.51750E+09     106.971E+06    -67.3044E+06     1.58481E+09    -519.056E+06     1.48230E+09    -65.2995E+06     1.50963E+09     112.837E+06     39.7664E+06     15.6748E+06     97.8478E+06
            2647               1     5.30445E+09     9.02492E+09     9.02492E+09     4.07932E+09     3.42275E+09     5.60217E+09    -5.50899E+09     5.21185E+09     4.08569E+09     9.01854E+09     3.42275E+09    -177.458E+06    -491.588E+03     3.50263E+06
            2648               1     4.91930E+09     5.01328E+09     5.01328E+09     1.32496E+09    -572.101E+06     5.58538E+09    -1.92205E+09     3.96103E+09     1.32653E+09     4.95893E+09    -519.315E+06    -154.660E+06    -76.0665E+06    -517.711E+06
            2649               1     1.58992E+09     1.66594E+09     1.66594E+09     384.736E+06    -113.417E+06     1.77935E+09    -645.752E+06     1.39746E+09     386.196E+06     1.60713E+09    -56.0762E+06     58.6920E+06    -41.3682E+06    -308.820E+06
            2650               1     5.25654E+09     5.54713E+09     5.54713E+09     1.54080E+09    -404.856E+06     5.95199E+09    -2.22769E+09     4.32735E+09     1.54261E+09     5.44006E+09    -299.595E+06     168.343E+06    -71.1203E+06     767.522E+06
            2651               1     6.28225E+09     9.30145E+09     9.30145E+09     3.87975E+09     2.41681E+09     6.88464E+09    -5.19934E+09     5.88039E+09     3.88200E+09     9.29907E+09     2.41693E+09     110.555E+06     1.42025E+06    -29.1430E+06
            2652               1     4.24505E+09     3.81331E+09     3.81331E+09     762.661E+06    -1.03475E+09     4.84806E+09    -1.18041E+09     3.20402E+09     764.137E+06     3.80309E+09    -1.02600E+09     142.635E+06     90.4057E+06    -135.304E+06
            2653               1     747.813E+06     899.109E+06     899.109E+06     249.498E+06     81.6286E+06     817.480E+06    -410.078E+06     703.521E+06     242.379E+06     781.835E+06     206.021E+06     14.9723E+06     46.1931E+06     282.962E+06
            2654               1     1.85877E+09     2.03075E+09     2.03075E+09     509.089E+06    -40.9620E+06     2.07172E+09    -832.960E+06     1.66030E+09     511.309E+06     2.01860E+09    -31.0260E+06    -69.0703E+06     28.9656E+06    -135.008E+06
            2655               1     3.14142E+09     2.73783E+09     2.73783E+09     451.485E+06    -844.188E+06     3.58202E+09    -781.710E+06     2.42035E+09     452.301E+06     2.72619E+09    -833.358E+06    -111.935E+06     85.0112E+06    -144.139E+06
            2656               1     2.14033E+09     1.92294E+09     1.92294E+09     319.182E+06    -507.426E+06     2.43037E+09    -578.232E+06     1.72192E+09     319.822E+06     1.84957E+09    -434.698E+06    -78.1387E+06    -74.1108E+06     401.059E+06
            2657               1     2.09853E+09     2.15672E+09     2.15672E+09     403.551E+06    -168.521E+06     2.32525E+09    -797.251E+06     1.91095E+09     407.918E+06     2.14937E+09    -165.534E+06    -107.263E+06    -32.8751E+06    -44.4398E+06
            2658               1     5.42732E+09     8.56587E+09     8.56587E+09     3.68029E+09     2.72395E+09     5.84192E+09    -4.99003E+09     5.23269E+09     3.68473E+09     8.46200E+09     2.82337E+09    -178.482E+06    -18.5500E+06    -748.309E+06
            2659               1     5.60153E+09     7.25294E+09     7.25294E+09     2.64083E+09     1.01962E+09     6.23332E+09    -3.63780E+09     5.03168E+09     2.64233E+09     7.08821E+09     1.18286E+09    -162.533E+06     50.3451E+06     984.156E+06
            2660               1     2.68045E+09     3.46145E+09     3.46145E+09     906.546E+06     670.992E+06     2.79045E+09    -1.67966E+09     2.65702E+09     903.275E+06     3.45718E+09     678.525E+06    -16.1769E+06    -28.6899E+06     107.409E+06
            2661               1     870.721E+06     1.05568E+09     1.05568E+09     312.869E+06     97.4828E+06     958.200E+06    -488.678E+06     807.455E+06     308.720E+06     967.796E+06     189.519E+06    -16.0696E+06    -39.6211E+06     274.177E+06
            2662               1     2.04259E+09     2.23156E+09     2.23156E+09     447.787E+06     3.34264E+06     2.22822E+09    -894.231E+06     1.92925E+09     453.239E+06     2.22364E+09     5.81829E+06     107.850E+06    -18.6252E+06     56.6958E+06
            2663               1     5.52307E+09     8.53433E+09     8.53433E+09     3.61119E+09     2.56186E+09     5.97247E+09    -4.90246E+09     5.29179E+09     3.61570E+09     8.43169E+09     2.65999E+09    -179.991E+06     20.5134E+06     751.913E+06
            2664               1     1.34236E+09     1.47933E+09     1.47933E+09     403.148E+06    -24.8400E+06     1.50417E+09    -619.212E+06     1.17345E+09     402.527E+06     1.43254E+09     22.5695E+06     27.6487E+06    -31.5758E+06    -258.193E+06
            2665               1     1.42672E+09     1.41899E+09     1.41899E+09     307.530E+06    -189.833E+06     1.60883E+09    -512.230E+06     1.20718E+09     307.930E+06     1.21254E+09     16.2165E+06    -41.3032E+06     54.3509E+06    -533.613E+06
            2666               1     4.29936E+09     4.19243E+09     4.19243E+09     967.483E+06    -688.726E+06     4.88116E+09    -1.49040E+09     3.46400E+09     970.041E+06     4.15432E+09    -653.171E+06     156.585E+06    -73.4924E+06     387.963E+06
            2667               1     1.97940E+09     2.02419E+09     2.02419E+09     242.461E+06    -106.466E+06     2.13066E+09    -720.062E+06     1.90836E+09     247.398E+06     1.99806E+09    -85.2684E+06    -115.364E+06    -17.3278E+06    -199.435E+06
            2668               1     2.11025E+09     2.47820E+09     2.47820E+09     409.479E+06     328.735E+06     2.14946E+09    -1.07214E+09     2.10677E+09     399.041E+06     2.46558E+09     351.794E+06    -21.5232E+06    -29.1058E+06     162.051E+06
            2669               1     2.55954E+09     2.60753E+09     2.60753E+09     457.737E+06    -223.795E+06     2.83132E+09    -947.156E+06     2.34200E+09     458.675E+06     2.55336E+09    -170.562E+06    -115.890E+06     41.2604E+06     367.037E+06
            2670               1     1.71500E+09     1.67355E+09     1.67355E+09    -5.43280E+06    -75.3247E+06     1.74888E+09    -530.932E+06     1.71179E+09     54.3494E+03     1.65435E+09    -61.6087E+06     95.4562E+06    -9.28778E+06    -153.977E+06
            2671               1     3.24360E+09     2.70455E+09     2.70455E+09     414.365E+06    -1.00711E+09     3.71166E+09    -703.932E+06     2.37412E+09     414.848E+06     2.66278E+09    -965.830E+06     105.973E+06     97.6788E+06     363.096E+06
            2672               1     3.95406E+09     5.12244E+09     5.12244E+09     1.70436E+09     791.920E+06     4.33052E+09    -2.53957E+09     3.70592E+09     1.70690E+09     5.07175E+09     840.071E+06     126.988E+06    -28.7505E+06     444.762E+06
            2673               1     5.43443E+09     6.84355E+09     6.84355E+09     2.40640E+09     782.219E+06     6.06133E+09    -3.34406E+09     4.84148E+09     2.40823E+09     6.70792E+09     916.032E+06     157.396E+06    -48.8892E+06     879.690E+06
            2674               1     5.13338E+09     5.63978E+09     5.63978E+09     1.65382E+09    -152.624E+06     5.79241E+09    -2.38033E+09     4.32628E+09     1.65627E+09     5.52793E+09    -43.2246E+06     168.872E+06     61.6287E+06    -773.882E+06
            2675               1     5.55842E+09     7.33330E+09     7.33330E+09     2.69605E+09     1.17176E+09     6.16154E+09    -3.73370E+09     5.05518E+09     2.69804E+09     7.13067E+09     1.37239E+09     173.875E+06     45.0703E+06    -1.08284E+09
            2676               1     5.28484E+09     7.67399E+09     7.67399E+09     3.05067E+09     1.91296E+09     5.76103E+09    -4.21254E+09     4.99804E+09     3.05337E+09     7.59947E+09     1.98477E+09     146.148E+06    -27.6288E+06     631.454E+06
            2677               1     5.79781E+09     8.58345E+09     8.58345E+09     3.53968E+09     2.24909E+09     6.33435E+09    -4.79074E+09     5.46041E+09     3.54136E+09     8.57543E+09     2.25542E+09     99.5905E+06    -15.3486E+06     195.919E+06
            2678               1     5.72248E+09     8.46784E+09     8.46784E+09     3.47814E+09     2.22147E+09     6.24637E+09    -4.72249E+09     5.39876E+09     3.48017E+09     8.44613E+09     2.24115E+09     113.077E+06     18.4081E+06    -345.668E+06
            2679               1     2.13750E+09     2.22935E+09     2.22935E+09     290.105E+06    -62.5375E+06     2.29189E+09    -818.973E+06     2.07053E+09     291.544E+06     2.15730E+09     8.07576E+06     103.666E+06     18.1134E+06    -385.309E+06
            2680               1     2.55188E+09     2.82195E+09     2.82195E+09     514.947E+06     80.8607E+06     2.74109E+09    -1.13925E+09     2.46676E+09     518.167E+06     2.75721E+09     142.376E+06     103.738E+06     7.92448E+06    -401.534E+06
            2681               1     2.82595E+09     3.65508E+09     3.65508E+09     969.254E+06     707.257E+06     2.94783E+09    -1.77720E+09     2.79843E+09     968.587E+06     3.64418E+09     718.824E+06     52.6458E+06     24.4374E+06     169.733E+06
            2682               1     825.847E+06     1.03517E+09     1.03517E+09     320.860E+06     130.899E+06     904.276E+06    -495.645E+06     774.368E+06     315.518E+06     1.02730E+09     144.117E+06     4.45647E+06     32.1808E+06     83.3558E+06
            2683               1     2.08907E+09     2.42606E+09     2.42606E+09     387.073E+06     290.272E+06     2.13578E+09    -1.03447E+09     2.08401E+09     379.149E+06     2.41122E+09     313.027E+06    -18.3463E+06     28.4721E+06    -175.773E+06
            2684               1     2.68342E+09     3.49481E+09     3.49481E+09     927.832E+06     708.424E+06     2.78638E+09    -1.71035E+09     2.66312E+09     926.934E+06     3.48320E+09     720.934E+06    -32.6851E+06      19.226E+06    -175.986E+06
            2685               1     2.86382E+09     3.35643E+09     3.35643E+09     787.801E+06     268.483E+06     3.08794E+09    -1.47090E+09     2.75488E+09     790.700E+06     3.31518E+09     306.825E+06    -111.931E+06    -18.0905E+06    -333.764E+06
            2686               1     1.98754E+09     2.04000E+09     2.04000E+09     246.427E+06    -96.7945E+06     2.13680E+09    -729.879E+06     1.91916E+09     251.302E+06     2.01662E+09    -78.2808E+06    -114.987E+06     17.8494E+06     185.217E+06
            2687               1     2.80068E+09     3.44324E+09     3.44324E+09     851.857E+06     472.023E+06     2.97122E+09    -1.58904E+09     2.74184E+09     855.672E+06     3.39765E+09     513.802E+06    -101.076E+06    -5.11886E+06     349.082E+06
            2688               1     1.75250E+09     1.74014E+09     1.74014E+09     25.8065E+06    -48.1674E+06     1.78831E+09    -572.595E+06     1.74898E+09     30.5076E+06     1.71743E+09    -30.1531E+06     93.8720E+06     3.62949E+06     176.120E+06
            2689               1     2.66945E+09     2.99163E+09     2.99163E+09     596.107E+06     113.971E+06     2.87766E+09    -1.23390E+09     2.56874E+09     599.503E+06     2.91326E+09     188.943E+06     101.515E+06    -2.88727E+06     455.720E+06
            2690               1     3.59244E+09     4.72601E+09     4.72601E+09     1.45141E+09     883.405E+06     3.84261E+09    -2.35361E+09     3.48926E+09     1.45383E+09     4.69998E+09     907.023E+06    -125.576E+06     26.2221E+06     285.639E+06
            2691               1     1.91867E+09     2.04118E+09     2.04118E+09     258.108E+06     10.8772E+06     2.03030E+09    -770.054E+06     1.88233E+09     265.063E+06     2.02838E+09     16.7173E+06     120.273E+06    -10.6839E+06     97.7529E+06
            2692               1     2.77414E+09     3.61778E+09     3.61778E+09     973.778E+06     729.649E+06     2.88813E+09    -1.77374E+09     2.74981E+09     971.978E+06     3.61019E+09     739.039E+06     39.4209E+06    -26.1814E+06    -141.585E+06
            2693               1     1.90604E+09     2.03654E+09     2.03654E+09     264.965E+06     19.7715E+06     2.01677E+09    -773.759E+06     1.87006E+09     271.591E+06     2.02224E+09     27.4483E+06     120.956E+06     12.7609E+06    -110.785E+06
            2694               1     3.49170E+09     4.72368E+09     4.72368E+09     1.48171E+09     1.02684E+09     3.69685E+09    -2.41074E+09     3.42409E+09     1.48192E+09     4.71976E+09     1.03055E+09    -26.0426E+06    -951.276E+03     117.167E+06
            2695               1     3.39374E+09     3.61660E+09     3.61660E+09     887.585E+06    -183.432E+06     3.80004E+09    -1.44025E+09     2.97630E+09     888.824E+06     3.53029E+09    -98.3588E+06    -135.298E+06    -51.0893E+06    -546.262E+06
            2696               1     3.68852E+09     5.04202E+09     5.04202E+09     1.62369E+09     1.13253E+09     3.90949E+09    -2.59941E+09     3.61385E+09     1.62495E+09     5.03774E+09     1.13555E+09     68.1809E+06    -9.13899E+06    -106.698E+06
            2697               1     2.96996E+09     3.04810E+09     3.04810E+09     645.884E+06    -272.604E+06     3.32071E+09    -1.14046E+09     2.62065E+09     647.091E+06     2.99860E+09    -224.313E+06     123.996E+06     50.5042E+06    -378.077E+06
            2698               1     849.644E+06     1.04481E+09     1.04481E+09     312.033E+06     113.466E+06     931.343E+06    -490.102E+06     794.883E+06     307.348E+06     960.538E+06     202.421E+06    -16.1496E+06     39.8643E+06    -264.663E+06
            2699               1     823.995E+06     1.04219E+09     1.04219E+09     321.736E+06     143.744E+06     898.445E+06    -502.556E+06     778.961E+06     316.314E+06     1.03089E+09     160.464E+06     5.21765E+06    -31.6603E+06    -99.3369E+06
            2700               1     1.47935E+09     1.41223E+09     1.41223E+09     283.609E+06    -262.544E+06     1.67477E+09    -477.765E+06     1.21942E+09     283.073E+06     1.14740E+09     2.82274E+06     39.1666E+06    -67.8912E+06    -606.138E+06
            2701               1     2.18306E+09     1.84728E+09     1.84728E+09     270.466E+06    -644.356E+06     2.49163E+09    -491.129E+06     1.66157E+09     270.272E+06     1.68488E+09    -481.766E+06     68.3443E+06    -88.6755E+06    -604.874E+06
            2702               1     1.48350E+09     1.39103E+09     1.39103E+09     267.133E+06    -290.488E+06     1.68151E+09    -455.890E+06     1.21159E+09     266.417E+06     1.12901E+09    -27.7592E+06     37.8325E+06     67.9106E+06     605.058E+06
            2703               1     1.58412E+09     1.65093E+09     1.65093E+09     383.127E+06    -124.876E+06     1.77580E+09    -636.392E+06     1.38220E+09     384.139E+06     1.59956E+09    -74.5219E+06     57.7776E+06     43.8514E+06     287.842E+06
            2704               1     5.42709E+09     8.58518E+09     8.58518E+09     3.66868E+09     2.76176E+09     5.82341E+09    -5.00521E+09     5.25253E+09     3.67142E+09     8.44111E+09     2.90309E+09     164.346E+06     21.5297E+06    -888.055E+06
            2705               1     2.30070E+09     1.95843E+09     1.95843E+09     304.794E+06    -669.034E+06     2.62747E+09    -531.398E+06     1.73696E+09     304.686E+06     1.80628E+09    -516.772E+06     71.3966E+06     89.7144E+06     602.968E+06
            2706               1     1.44235E+09     1.65748E+09     1.65748E+09     429.595E+06     69.0628E+06     1.58842E+09    -718.713E+06     1.33521E+09     430.667E+06     1.64998E+09     75.4896E+06    -43.7216E+06    -16.8251E+06     96.3353E+06
            2707               1     1.68822E+09     1.71904E+09     1.71904E+09     64.1501E+06    -646.814E+03     1.71968E+09    -594.180E+06     1.68542E+09     10.6720E+06     1.69092E+09     80.9478E+06    -134.084E+06     6.73232E+06    -169.230E+06
            2708               1     2.51069E+09     2.51843E+09     2.51843E+09     356.348E+06    -235.230E+06     2.75366E+09    -879.848E+06     2.34607E+09     361.837E+06     2.47809E+09    -200.387E+06    -176.726E+06    -51.4309E+06    -269.260E+06
            2709               1     4.94779E+09     6.74244E+09     6.74244E+09     2.21151E+09     1.46307E+09     5.27937E+09    -3.47234E+09     4.81796E+09     2.21312E+09     6.73694E+09     1.46696E+09    -85.4006E+06    -3.84684E+06     143.260E+06
            2710               1     3.40079E+09     3.62141E+09     3.62141E+09     739.243E+06    -129.478E+06     3.75089E+09    -1.41039E+09     3.13624E+09     748.583E+06     3.56144E+09    -78.8450E+06    -233.207E+06     60.5238E+06     394.541E+06
            2711               1     4.22394E+09     4.97580E+09     4.97580E+09     1.32123E+09     351.240E+06     4.62456E+09    -2.21609E+09     3.96156E+09     1.33394E+09     4.89207E+09     422.258E+06    -300.851E+06     66.9378E+06     523.249E+06
            2712               1     2.04765E+09     2.03113E+09     2.03113E+09     345.782E+06    -247.709E+06     2.27884E+09    -709.734E+06     1.83869E+09     342.955E+06     2.01381E+09    -227.558E+06     132.512E+06     97.4427E+06     117.239E+06
            2713               1     2.17008E+09     2.48056E+09     2.48056E+09     367.830E+06     257.361E+06     2.22320E+09    -1.03525E+09     2.16374E+09     309.798E+06     2.46414E+09     331.814E+06     79.8515E+06    -61.3572E+06    -167.887E+06
            2714               1     4.88792E+09     8.86139E+09     8.86139E+09     4.19298E+09     3.78015E+09     5.08124E+09    -5.61151E+09     4.84847E+09     4.23188E+09     8.82236E+09     3.78028E+09     425.023E+06     7.54027E+06     6.02421E+06
            2715               1     3.73160E+09     4.98093E+09     4.98093E+09     1.44931E+09     1.07721E+09     3.90371E+09    -2.50248E+09     3.68952E+09     1.44821E+09     4.97759E+09     1.08165E+09     43.5655E+06     25.9763E+06     104.150E+06
            2716               1     3.06760E+09     3.67371E+09     3.67371E+09     825.268E+06     426.037E+06     3.24767E+09    -1.64167E+09     3.00832E+09     837.997E+06     3.61187E+09     475.145E+06     188.748E+06     22.0307E+06     395.518E+06
            2717               1     2.05369E+09     2.14541E+09     2.14541E+09     369.701E+06    -103.615E+06     2.24902E+09    -803.832E+06     1.92515E+09     378.286E+06     2.13276E+09    -99.5509E+06    -148.643E+06     41.2267E+06     21.5805E+06
            2718               1     4.35870E+09     3.97327E+09     3.97327E+09     831.922E+06    -1.00287E+09     4.97615E+09    -1.26744E+09     3.30554E+09     835.638E+06     3.94282E+09    -976.137E+06    -262.960E+06     165.311E+06     217.741E+06
            2719               1     6.21086E+09     8.50005E+09     8.50005E+09     2.95158E+09     1.79065E+09     6.70941E+09    -4.41409E+09     5.95937E+09     2.95667E+09     8.49321E+09     1.79239E+09    -170.226E+06     9.21890E+06     104.368E+06
            2720               1     6.36012E+09     8.64965E+09     8.64965E+09     2.98744E+09     1.76816E+09     6.88149E+09    -4.46842E+09     6.08879E+09     2.99196E+09     8.64113E+09     1.77216E+09    -163.626E+06    -11.3762E+06    -161.712E+06
            2721               1     4.95635E+09     6.75312E+09     6.75312E+09     2.20675E+09     1.46942E+09     5.28371E+09    -3.47643E+09     4.83064E+09     2.21016E+09     6.74946E+09     1.46966E+09    -124.770E+06     4.33985E+06    -34.8731E+06
            2722               1     1.46963E+09     1.67641E+09     1.67641E+09     444.914E+06     49.5384E+06     1.62687E+09    -723.622E+06     1.34194E+09     446.961E+06     1.66605E+09     57.8543E+06     50.1517E+06    -7.03231E+06    -115.734E+06
            2723               1     3.01264E+09     2.56152E+09     2.56152E+09     390.146E+06    -877.862E+06     3.43938E+09    -691.267E+06     2.28495E+09     390.893E+06     2.52715E+09    -844.240E+06     177.922E+06    -153.808E+06    -246.557E+06
            2724               1     2.09934E+09     2.05253E+09     2.05253E+09     328.792E+06    -285.404E+06     2.33794E+09    -698.640E+06     1.88070E+09     327.487E+06     2.03373E+09    -265.293E+06     133.944E+06    -94.9201E+06    -132.041E+06
            2725               1     2.17879E+09     2.49143E+09     2.49143E+09     369.382E+06     260.006E+06     2.23142E+09    -1.04027E+09     2.17260E+09     313.071E+06     2.48143E+09     326.310E+06     63.9997E+06     58.5568E+06     130.767E+06
            2726               1     6.72691E+09     9.24685E+09     9.24685E+09     3.32284E+09     1.93388E+09     7.31297E+09    -4.83453E+09     6.39223E+09     3.32286E+09     9.24503E+09     1.93569E+09    -16.3932E+06     5.84197E+06    -114.074E+06
            2727               1     3.17519E+09     3.81940E+09     3.81940E+09     891.171E+06     444.542E+06     3.37486E+09    -1.71837E+09     3.10334E+09     902.560E+06     3.75682E+09     495.735E+06     183.248E+06    -14.0738E+06    -411.106E+06
            2728               1     3.96859E+09     5.11309E+09     5.11309E+09     1.45591E+09     893.170E+06     4.21992E+09    -2.48739E+09     3.87730E+09     1.46825E+09     5.07424E+09     919.681E+06     220.992E+06     5.65527E+06    -327.017E+06
            2729               1     4.00931E+09     4.13191E+09     4.13191E+09     934.844E+06    -366.391E+06     4.49830E+09    -1.56679E+09     3.48442E+09     941.515E+06     4.08143E+09    -322.583E+06     260.860E+06     108.876E+06    -369.091E+06
            2730               1     1.30764E+09     1.44945E+09     1.44945E+09     350.321E+06     3.29675E+06     1.44615E+09    -601.022E+06     1.19730E+09     345.063E+06     1.39703E+09     60.9695E+06     41.5439E+06     59.9973E+06     263.150E+06
            2731               1     1.26884E+09     1.43351E+09     1.43351E+09     367.621E+06     30.0107E+06     1.40350E+09    -610.381E+06     1.16117E+09     367.122E+06     1.43349E+09     30.5325E+06    -1.28788E+06     13.0054E+06    -5.36048E+06
            2732               1     1.98711E+09     2.12495E+09     2.12495E+09     487.096E+06    -85.6183E+06     2.21057E+09    -842.143E+06     1.78679E+09     493.520E+06     2.11456E+09    -81.6541E+06     105.281E+06    -20.5570E+06    -87.7286E+06
            2733               1     1.29308E+09     1.43589E+09     1.43589E+09     360.176E+06     1.26738E+06     1.43462E+09    -599.110E+06     1.17292E+09     359.509E+06     1.43577E+09     2.05332E+06     106.762E+03    -15.4493E+06     13.0985E+06
            2734               1     767.928E+06     893.571E+06     893.571E+06     276.165E+06     33.6680E+06     859.903E+06    -401.135E+06     673.341E+06     247.531E+06     772.964E+06     182.909E+06     19.8769E+06    -98.5361E+06    -285.885E+06
            2735               1     1.83737E+09     2.04034E+09     2.04034E+09     482.423E+06     14.1468E+06     2.02619E+09    -845.636E+06     1.69513E+09     487.310E+06     2.02302E+09     26.5786E+06    -96.7087E+06    -32.9310E+06     148.750E+06
            2736               1     1.41566E+09     1.38692E+09     1.38692E+09     281.245E+06    -208.611E+06     1.59553E+09    -486.516E+06     1.20149E+09     277.352E+06     1.17551E+09     6.68654E+06    -70.8258E+06    -115.935E+06     524.616E+06
            2737               1     3.14113E+09     2.78009E+09     2.78009E+09     484.426E+06    -799.646E+06     3.57973E+09    -821.623E+06     2.43592E+09     483.271E+06     2.75980E+09    -778.201E+06    -187.775E+06    -155.234E+06     119.667E+06
            2738               1     4.41146E+09     3.88851E+09     3.88851E+09     768.496E+06    -1.15863E+09     5.04714E+09    -1.16612E+09     3.23876E+09     770.980E+06     3.86626E+09    -1.13887E+09    -251.424E+06    -175.869E+06    -113.626E+06
            2739               1     2.29273E+09     2.52976E+09     2.52976E+09     366.762E+06     126.255E+06     2.40351E+09    -1.00759E+09     2.26409E+09     374.312E+06     2.46091E+09     187.561E+06    -126.167E+06     26.3438E+06    -377.873E+06
            2740               1     1.54277E+09     1.48661E+09     1.48661E+09     62.9939E+06    -152.627E+06     1.63923E+09    -465.658E+06     1.50831E+09    -145.894E+06     1.48326E+09     59.6091E+06    -52.0839E+06     34.2379E+06    -47.9595E+06
            2741               1     1.52071E+09     1.46923E+09     1.46923E+09     77.9319E+06    -154.210E+06     1.62344E+09    -464.317E+06     1.48006E+09    -148.453E+06     1.46468E+09     76.7249E+06    -52.9103E+06    -32.3540E+06     61.5804E+06
            2742               1     1.71453E+09     1.73869E+09     1.73869E+09     45.2574E+06     3.81189E+06     1.73488E+09    -595.919E+06     1.71340E+09     15.7861E+06     1.70706E+09     64.9122E+06    -137.094E+06    -8.73496E+06     185.531E+06
            2743               1     5.16218E+09     5.35285E+09     5.35285E+09     1.48518E+09    -508.954E+06     5.86181E+09    -2.10969E+09     4.15248E+09     1.49037E+09     5.24021E+09    -401.495E+06    -340.232E+06     163.730E+06     703.756E+06
            2744               1     4.74938E+09     6.20475E+09     6.20475E+09     1.93028E+09     1.09206E+09     5.11269E+09    -3.07570E+09     4.57851E+09     1.93636E+09     6.16100E+09     1.12974E+09    -236.804E+06     55.3142E+06     397.231E+06
            2745               1     6.87440E+09     9.44283E+09     9.44283E+09     3.35439E+09     1.98777E+09     7.45507E+09    -4.92833E+09     6.55824E+09     3.35950E+09     9.43766E+09     1.98783E+09    -176.319E+06     134.482E+03     22.3395E+06
            2746               1     5.43763E+09     7.19946E+09     7.19946E+09     2.57728E+09     1.20809E+09     5.99137E+09    -3.66161E+09     5.02738E+09     2.58156E+09     7.04410E+09     1.35917E+09    -314.014E+06    -94.9847E+06    -890.966E+06
            2747               1     3.68577E+09     4.98470E+09     4.98470E+09     1.47531E+09     1.14480E+09     3.83990E+09    -2.53493E+09     3.65221E+09     1.47622E+09     4.97234E+09     1.15624E+09    -90.5969E+06     26.8303E+06    -195.085E+06
            2748               1     4.38578E+09     5.25475E+09     5.25475E+09     1.49584E+09     436.251E+06     4.81850E+09    -2.39561E+09     4.08263E+09     1.50385E+09     5.17972E+09     503.271E+06    -254.958E+06    -64.8954E+06    -527.968E+06
            2749               1     1.54348E+09     1.51359E+09     1.51359E+09     90.8317E+06    -127.384E+06     1.64098E+09    -492.348E+06     1.50819E+09    -120.778E+06     1.50722E+09     90.6054E+06     57.7085E+06    -34.0220E+06    -77.3797E+06
            2750               1     2.54265E+09     2.49743E+09     2.49743E+09     391.126E+06    -327.070E+06     2.82450E+09    -853.829E+06     2.29729E+09     390.798E+06     2.46895E+09    -298.265E+06     178.765E+06     88.2830E+06    -200.244E+06
            2751               1     2.02744E+09     2.13276E+09     2.13276E+09       375.9E+06    -85.6610E+06     2.21842E+09    -807.666E+06     1.90376E+09     386.584E+06     2.11787E+09    -81.4547E+06     153.036E+06     30.3524E+06    -59.8645E+06
            2752               1     1.90411E+09     2.06196E+09     2.06196E+09     477.465E+06    -50.3966E+06     2.11235E+09    -829.675E+06     1.72764E+09     483.761E+06     2.05189E+09    -46.6307E+06     101.964E+06     18.2246E+06     84.4036E+06
            2753               1     1.48045E+09     1.65753E+09     1.65753E+09     427.762E+06     14.3145E+06     1.64322E+09    -699.870E+06     1.34104E+09     429.712E+06     1.64885E+09     21.0492E+06     50.2139E+06     11.1969E+06     103.705E+06
            2754               1     1.45050E+09     1.65479E+09     1.65479E+09     425.864E+06     54.8088E+06     1.59998E+09    -711.822E+06     1.33732E+09     426.778E+06     1.64677E+09     61.9189E+06    -42.3746E+06     17.9238E+06    -101.610E+06
            2755               1     2.16721E+09     1.94098E+09     1.94098E+09     313.326E+06    -519.007E+06     2.45999E+09    -578.433E+06     1.74916E+09     308.429E+06     1.85882E+09    -431.954E+06    -127.162E+06     147.262E+06    -401.429E+06
            2756               1     2.28576E+09     2.51013E+09     2.51013E+09     341.827E+06     122.689E+06     2.38744E+09    -991.548E+06     2.26195E+09     347.914E+06     2.44526E+09     181.470E+06    -120.186E+06    -34.1444E+06     366.162E+06
            2757               1     5.19022E+09     6.92850E+09     6.92850E+09     2.22545E+09     1.35993E+09     5.56857E+09    -3.50463E+09     5.02400E+09     2.23733E+09     6.89260E+09     1.38395E+09     262.607E+06     30.7276E+06    -344.563E+06
            2758               1     4.93463E+09     6.73690E+09     6.73690E+09     2.22810E+09     1.46527E+09     5.27163E+09    -3.47676E+09     4.79929E+09     2.22806E+09     6.73429E+09     1.46793E+09     1.78848E+06    -5.84678E+06    -117.341E+06
            2759               1     6.33558E+09     8.55985E+09     8.55985E+09     2.96757E+09     1.67907E+09     6.88078E+09    -4.40216E+09     6.03012E+09     2.96757E+09     8.55981E+09     1.67911E+09     9.76261E+06     3.22621E+06    -14.8196E+06
            2760               1     6.45680E+09     8.84138E+09     8.84138E+09     3.13174E+09     1.83441E+09     7.00697E+09    -4.60251E+09     6.15323E+09     3.13174E+09     8.83789E+09     1.83791E+09     6.55858E+06     4.49737E+06     156.092E+06
            2761               1     5.10368E+09     6.83072E+09     6.83072E+09     2.20609E+09     1.35499E+09     5.47573E+09    -3.46394E+09     4.94023E+09     2.20738E+09     6.82680E+09     1.35763E+09     83.2873E+06    -11.4475E+06     115.341E+06
            2762               1     5.39900E+09     8.52824E+09     8.52824E+09     3.70650E+09     2.69504E+09     5.83319E+09    -4.97659E+09     5.17936E+09     3.72267E+09     8.36661E+09     2.84049E+09     429.528E+06    -76.6744E+06     843.964E+06
            2763               1     3.18199E+09     3.10122E+09     3.10122E+09     561.731E+06    -468.162E+06     3.56938E+09    -1.06493E+09     2.76796E+09     567.019E+06     3.07522E+09    -447.457E+06     214.927E+06    -100.706E+06     174.452E+06
            2764               1     2.24777E+09     2.32229E+09     2.32229E+09     278.438E+06    -85.0868E+06     2.40738E+09    -838.547E+06     2.18016E+09     286.208E+06     2.26020E+09    -30.7714E+06     144.196E+06    -6.32561E+06     349.818E+06
            2765               1     2.16443E+09     2.20891E+09     2.20891E+09     336.966E+06    -161.153E+06     2.37007E+09    -794.909E+06     2.02937E+09     333.967E+06     2.16795E+09    -117.194E+06     156.760E+06    -67.5351E+06     260.054E+06
            2766               1     1.55491E+09     1.53735E+09     1.53735E+09     101.146E+06    -113.887E+06     1.65124E+09    -508.203E+06     1.52092E+09    -106.448E+06     1.52890E+09     102.158E+06     57.3666E+06     37.1430E+06     94.8773E+06
            2767               1     5.29964E+09     8.97456E+09     8.97456E+09     4.01047E+09     3.39339E+09     5.58117E+09    -5.45947E+09     5.21789E+09     4.03244E+09     8.95255E+09     3.39343E+09    -329.814E+06    -4.97840E+06     1.24857E+06
            2768               1     4.88373E+09     4.95224E+09     4.95224E+09     1.25211E+09    -583.279E+06     5.53552E+09    -1.87369E+09     3.98896E+09     1.26080E+09     4.88139E+09    -521.123E+06    -319.865E+06    -145.575E+06    -498.250E+06
            2769               1     1.57255E+09     1.65774E+09     1.65774E+09     348.909E+06    -86.6863E+06     1.74443E+09    -639.988E+06     1.42706E+09     344.070E+06     1.59372E+09    -17.8208E+06     79.2995E+06    -85.9419E+06    -309.340E+06
            2770               1     5.14300E+09     5.42232E+09     5.42232E+09     1.50253E+09    -401.116E+06     5.82343E+09    -2.17458E+09     4.23386E+09     1.50733E+09     5.30169E+09    -285.291E+06     336.643E+06    -154.550E+06     736.291E+06
            2771               1     6.60842E+09     9.46042E+09     9.46042E+09     3.46218E+09     2.37633E+09     7.08409E+09    -5.09965E+09     6.40308E+09     3.47646E+09     9.44603E+09     2.37645E+09     292.259E+06    -1.74714E+06    -29.1639E+06
            2772               1     4.18876E+09     3.76595E+09     3.76595E+09     766.424E+06    -1.01982E+09     4.78577E+09    -1.17085E+09     3.14269E+09     768.985E+06     3.74232E+09    -998.756E+06     251.265E+06     171.204E+06    -124.694E+06
            2773               1     756.805E+06     885.101E+06     885.101E+06     274.459E+06     38.4014E+06     846.700E+06    -399.321E+06     666.097E+06     245.712E+06     768.019E+06     184.232E+06     20.3363E+06     97.2718E+06     279.542E+06
            2774               1     1.82784E+09     2.02899E+09     2.02899E+09     477.230E+06     14.1438E+06     2.01484E+09    -840.121E+06     1.68812E+09     482.152E+06     2.01253E+09     25.6837E+06    -97.0652E+06     32.7444E+06    -142.056E+06
            2775               1     3.11512E+09     2.70770E+09     2.70770E+09     443.002E+06    -844.847E+06     3.55254E+09    -768.617E+06     2.39588E+09     441.814E+06     2.68457E+09    -820.535E+06    -183.633E+06     156.744E+06    -157.576E+06
            2776               1     2.14718E+09     1.89618E+09     1.89618E+09     292.939E+06    -543.306E+06     2.43948E+09    -548.603E+06     1.71889E+09     287.350E+06     1.81366E+09    -455.204E+06    -124.854E+06    -149.220E+06     401.009E+06
            2777               1     2.06902E+09     2.15403E+09     2.15403E+09     366.123E+06    -112.279E+06     2.26631E+09    -802.625E+06     1.93863E+09     374.785E+06     2.14096E+09    -107.866E+06    -151.134E+06    -42.3985E+06    -26.7695E+06
            2778               1     5.42150E+09     8.51474E+09     8.51474E+09     3.59598E+09     2.70170E+09     5.81304E+09    -4.93747E+09     5.25171E+09     3.60752E+09     8.40046E+09     2.80443E+09    -329.156E+06    -49.7119E+06    -728.894E+06
            2779               1     5.56672E+09     7.15142E+09     7.15142E+09     2.53877E+09     968.123E+06     6.18330E+09    -3.55277E+09     5.03081E+09     2.54589E+09     6.96518E+09     1.14725E+09    -363.756E+06     110.831E+06     981.018E+06
            2780               1     2.76796E+09     3.47075E+09     3.47075E+09     760.516E+06     648.465E+06     2.82228E+09    -1.62658E+09     2.76285E+09     737.977E+06     3.46646E+09     675.291E+06    -81.6542E+06    -48.7781E+06     70.3710E+06
            2781               1     871.258E+06     1.02999E+09     1.02999E+09     301.675E+06     64.7906E+06     965.203E+06    -465.486E+06     793.818E+06     278.585E+06     942.805E+06     175.069E+06    -23.5742E+06    -85.4015E+06     267.633E+06
            2782               1     2.04979E+09     2.18556E+09     2.18556E+09     408.002E+06    -56.6827E+06     2.24224E+09    -845.627E+06     1.92586E+09     420.513E+06     2.16985E+09    -53.4842E+06     156.969E+06    -20.4075E+06     64.4075E+06
            2783               1     5.51363E+09     8.47574E+09     8.47574E+09     3.52307E+09     2.53481E+09     5.94093E+09    -4.84454E+09     5.30885E+09     3.53265E+09     8.36172E+09     2.63925E+09    -332.593E+06     64.4202E+06     735.631E+06
            2784               1     1.33003E+09     1.46786E+09     1.46786E+09     343.798E+06    -444.718E+03     1.46830E+09    -603.737E+06     1.22363E+09     339.140E+06     1.41597E+09     56.1021E+06     46.3672E+06    -59.8091E+06    -262.886E+06
            2785               1     1.43077E+09     1.38473E+09     1.38473E+09     273.522E+06    -229.654E+06     1.61438E+09    -476.199E+06     1.20614E+09     268.660E+06     1.17540E+09    -15.4598E+06    -69.0323E+06     118.034E+06    -526.146E+06
            2786               1     4.25591E+09     4.16239E+09     4.16239E+09     943.563E+06    -662.931E+06     4.82533E+09    -1.48101E+09     3.46801E+09     946.999E+06     4.11423E+09    -618.203E+06     263.252E+06    -141.364E+06     368.015E+06
            2787               1     1.96386E+09     2.02490E+09     2.02490E+09     202.264E+06    -54.8529E+06     2.07976E+09    -724.105E+06     1.92545E+09     212.458E+06     1.99507E+09    -35.2135E+06    -166.087E+06    -20.1185E+06    -175.342E+06
            2788               1     2.16593E+09     2.48038E+09     2.48038E+09     388.484E+06     247.327E+06     2.23306E+09    -1.03873E+09     2.15555E+09     303.481E+06     2.46889E+09     343.821E+06    -63.0860E+06    -72.9803E+06     141.493E+06
            2789               1     2.56075E+09     2.59490E+09     2.59490E+09     383.758E+06    -210.834E+06     2.80574E+09    -922.609E+06     2.39794E+09     389.263E+06     2.54465E+09    -166.090E+06    -180.605E+06     49.1386E+06     316.862E+06
            2790               1     1.74079E+09     1.69863E+09     1.69863E+09    -33.4024E+06     -50.793E+06     1.74942E+09    -538.145E+06     1.74060E+09    -37.0804E+06     1.67720E+09    -25.6815E+06     142.320E+06    -5.10957E+06    -129.334E+06
            2791               1     3.21989E+09     2.68419E+09     2.68419E+09     423.365E+06    -1.00243E+09     3.68662E+09    -701.710E+06     2.33280E+09     423.844E+06     2.63054E+09    -949.249E+06     178.947E+06     171.338E+06     364.559E+06
            2792               1     4.05571E+09     5.19019E+09     5.19019E+09     1.47183E+09     865.425E+06     4.32477E+09    -2.50915E+09     3.95178E+09     1.48404E+09     5.14477E+09     898.639E+06     248.188E+06    -28.7167E+06     353.518E+06
            2793               1     5.44085E+09     6.78054E+09     6.78054E+09     2.28668E+09     731.412E+06     6.04913E+09    -3.26621E+09     4.90207E+09     2.29369E+09     6.62623E+09     878.722E+06     351.317E+06    -113.527E+06     873.777E+06
            2794               1     5.06024E+09     5.56733E+09     5.56733E+09     1.61114E+09    -134.672E+06     5.70200E+09    -2.34793E+09     4.29985E+09     1.61789E+09     5.44356E+09    -17.6483E+06     329.608E+06     131.727E+06    -743.937E+06
            2795               1     5.47525E+09     7.22732E+09     7.22732E+09     2.67883E+09     1.15021E+09     6.07710E+09    -3.68545E+09     4.96003E+09     2.68416E+09     7.00388E+09     1.36832E+09     388.976E+06     120.129E+06    -1.06546E+09
            2796               1     5.34512E+09     7.63589E+09     7.63589E+09     2.81758E+09     1.88635E+09     5.74954E+09    -4.11327E+09     5.15785E+09     2.82981E+09     7.55855E+09     1.95146E+09     300.316E+06    -43.0388E+06     579.702E+06
            2797               1     6.10172E+09     8.75312E+09     8.75312E+09     3.17680E+09     2.23543E+09     6.51769E+09    -4.72178E+09     5.93504E+09     3.18920E+09     8.73641E+09     2.23974E+09     266.548E+06    -11.1840E+06     160.754E+06
            2798               1     5.99713E+09     8.60715E+09     8.60715E+09     3.12467E+09     2.20224E+09     6.40490E+09    -4.64469E+09     5.83432E+09     3.13705E+09     8.57872E+09     2.21829E+09     283.457E+06     31.0998E+06    -297.863E+06
            2799               1     2.13157E+09     2.19507E+09     2.19507E+09     249.095E+06    -83.0891E+06     2.27816E+09    -787.026E+06     2.07213E+09     256.114E+06     2.12369E+09    -18.7309E+06     141.975E+06     7.76691E+06    -367.988E+06
            2800               1     2.54734E+09     2.77966E+09     2.77966E+09     446.748E+06     61.7327E+06     2.71793E+09    -1.09605E+09     2.48061E+09     455.197E+06     2.71568E+09     117.265E+06     143.285E+06    -8.80182E+06    -382.641E+06
            2801               1     2.88041E+09     3.63305E+09     3.63305E+09     852.499E+06     662.215E+06     2.97083E+09    -1.71592E+09     2.86622E+09     839.678E+06     3.61871E+09     689.369E+06     45.0135E+06     52.2884E+06     199.271E+06
            2802               1     821.378E+06     1.01384E+09     1.01384E+09     301.237E+06     115.503E+06     898.342E+06    -476.862E+06     771.981E+06     277.300E+06     1.00608E+09     147.200E+06     8.56185E+06     63.6195E+06     80.4819E+06
            2803               1     2.14453E+09     2.43442E+09     2.43442E+09     349.182E+06     235.159E+06     2.19926E+09    -1.00625E+09     2.13769E+09     279.245E+06     2.42214E+09     317.382E+06    -66.7599E+06     59.6772E+06    -145.171E+06
            2804               1     2.74936E+09     3.48351E+09     3.48351E+09     797.804E+06     674.627E+06     2.80888E+09    -1.65198E+09     2.74315E+09     785.220E+06     3.47159E+09     699.133E+06    -78.8474E+06     45.0110E+06    -162.313E+06
            2805               1     2.86451E+09     3.30933E+09     3.30933E+09     666.927E+06     265.135E+06     3.04419E+09    -1.41380E+09     2.80006E+09     674.855E+06     3.26916E+09     297.375E+06    -145.871E+06     7.35124E+06    -310.490E+06
            2806               1     1.98557E+09     2.03153E+09     2.03153E+09     204.744E+06    -81.7109E+06     2.11324E+09    -718.187E+06     1.93826E+09     214.387E+06     2.00334E+09    -63.1627E+06    -164.425E+06     23.6448E+06     169.122E+06
            2807               1     2.79282E+09     3.39622E+09     3.39622E+09     760.031E+06     469.486E+06     2.92674E+09    -1.54191E+09     2.75851E+09     768.224E+06     3.35052E+09     506.993E+06    -146.956E+06    -12.1139E+06     328.397E+06
            2808               1     1.78316E+09     1.73741E+09     1.73741E+09    -16.4174E+06    -73.7057E+06     1.81111E+09    -549.095E+06     1.78109E+09    -7.74686E+06     1.71041E+09    -55.3759E+06     141.905E+06     851.034E+03     166.422E+06
            2809               1     2.63732E+09     2.95115E+09     2.95115E+09     512.883E+06     151.940E+06     2.79921E+09    -1.20532E+09     2.58088E+09     523.987E+06     2.87816E+09     213.822E+06     170.629E+06     8.33102E+06     408.008E+06
            2810               1     3.60083E+09     4.61382E+09     4.61382E+09     1.28811E+09     789.785E+06     3.82404E+09    -2.23057E+09     3.52200E+09     1.29239E+09     4.58162E+09     817.710E+06    -134.007E+06    -37.1204E+06     317.449E+06
            2811               1     1.93804E+09     2.00649E+09     2.00649E+09     213.300E+06    -49.5674E+06     2.05606E+09    -723.408E+06     1.89731E+09     226.773E+06     1.98477E+09    -41.3145E+06     173.409E+06    -20.2705E+06     101.420E+06
            2812               1     2.83590E+09     3.60335E+09     3.60335E+09     845.366E+06     695.484E+06     2.90786E+09    -1.71473E+09     2.82696E+09     827.717E+06     3.59520E+09     721.279E+06     58.8242E+06    -52.7986E+06    -139.877E+06
            2813               1     1.91983E+09     2.01934E+09     2.01934E+09     219.883E+06    -1.64317E+06     2.02099E+09    -745.861E+06     1.89076E+09     232.489E+06     1.99734E+09     7.75078E+06     175.841E+06     22.4567E+06    -99.3950E+06
            2814               1     3.54879E+09     4.68916E+09     4.68916E+09     1.31286E+09     989.953E+06     3.69921E+09    -2.33066E+09     3.51551E+09     1.31346E+09     4.68371E+09     994.810E+06    -60.8326E+06    -14.9752E+06     126.651E+06
            2815               1     3.37034E+09     3.63883E+09     3.63883E+09     771.044E+06    -73.4482E+06     3.71228E+09    -1.44548E+09     3.11869E+09     778.316E+06     3.56372E+09    -5.60990E+06    -241.934E+06    -68.6915E+06    -451.986E+06
            2816               1     3.72215E+09     4.97914E+09     4.97914E+09     1.45508E+09     1.08634E+09     3.89279E+09    -2.50686E+09     3.68072E+09     1.45287E+09     4.97430E+09     1.09339E+09     32.8881E+06    -31.6358E+06    -132.358E+06
            2817               1     2.96173E+09     3.05401E+09     3.05401E+09     548.868E+06    -214.769E+06     3.26877E+09    -1.12937E+09     2.72673E+09     555.395E+06     3.00719E+09    -174.485E+06     212.394E+06     68.1313E+06    -310.403E+06
            2818               1     852.825E+06     1.02644E+09     1.02644E+09     309.112E+06     83.4825E+06     942.953E+06    -473.010E+06     781.330E+06     286.964E+06     941.484E+06     190.582E+06    -25.3724E+06     82.8327E+06    -260.785E+06
            2819               1     814.088E+06     1.02607E+09     1.02607E+09     317.525E+06     136.813E+06     889.259E+06    -493.470E+06     766.987E+06     294.371E+06     1.01579E+09     170.247E+06     6.23228E+06    -61.6898E+06    -92.7426E+06
            2820               1     1.48295E+09     1.39771E+09     1.39771E+09     290.151E+06    -287.045E+06     1.68476E+09    -466.940E+06     1.18759E+09     286.549E+06     1.13344E+09    -19.1684E+06     63.5533E+06    -123.472E+06    -597.685E+06
            2821               1     2.18925E+09     1.83813E+09     1.83813E+09     278.741E+06    -664.655E+06     2.50278E+09    -484.071E+06     1.62760E+09     276.330E+06     1.66806E+09    -492.178E+06     108.127E+06    -152.659E+06    -602.975E+06
            2822               1     1.48787E+09     1.37731E+09     1.37731E+09     277.002E+06    -315.539E+06     1.69285E+09    -446.258E+06     1.17462E+09     273.241E+06     1.11535E+09    -49.8163E+06     61.9143E+06     123.327E+06     597.516E+06
            2823               1     1.57601E+09     1.64229E+09     1.64229E+09     331.457E+06    -106.339E+06     1.74863E+09    -622.468E+06     1.42931E+09     327.175E+06     1.58378E+09    -43.5564E+06     83.1508E+06     85.4667E+06     293.702E+06
            2824               1     5.31454E+09     8.44254E+09     8.44254E+09     3.67589E+09     2.71203E+09     5.73051E+09    -4.94349E+09     5.11231E+09     3.69380E+09     8.26743E+09     2.86923E+09     426.049E+06     63.6548E+06    -879.066E+06
            2825               1     2.30320E+09     1.94577E+09     1.94577E+09     310.796E+06    -688.267E+06     2.63404E+09    -522.767E+06     1.70212E+09     309.441E+06     1.78515E+09    -526.287E+06     117.854E+06     155.927E+06     600.186E+06
            2826               1     1.46062E+09     1.60490E+09     1.60490E+09     380.282E+06    -11.7208E+06     1.61662E+09    -657.820E+06     1.33436E+09     377.745E+06     1.59745E+09    -1.73990E+06    -52.1662E+06    -46.9064E+06     89.5891E+06
            2827               1     1.70897E+09     1.71484E+09     1.71484E+09     59.7946E+06    -43.3880E+06     1.75823E+09    -577.082E+06     1.70194E+09    -26.9087E+06     1.68885E+09     69.3031E+06    -149.212E+06     31.5634E+06    -144.680E+06
            2828               1     2.44468E+09     2.45652E+09     2.45652E+09     339.646E+06    -219.206E+06     2.67572E+09    -858.985E+06     2.29426E+09     340.979E+06     2.41295E+09    -176.976E+06    -237.085E+06    -92.6625E+06    -221.764E+06
            2829               1     5.08595E+09     6.65916E+09     6.65916E+09     1.80740E+09     1.36758E+09     5.29157E+09    -3.27805E+09     5.04290E+09     1.81525E+09     6.64637E+09     1.37252E+09    -195.042E+06    -8.56147E+06     161.159E+06
            2830               1     3.35134E+09     3.50633E+09     3.50633E+09     670.754E+06    -192.051E+06     3.69839E+09    -1.32835E+09     3.08627E+09     693.362E+06     3.42860E+09    -136.924E+06    -330.513E+06     74.8638E+06     385.162E+06
            2831               1     4.06877E+09     4.68921E+09     4.68921E+09     1.18034E+09     229.085E+06     4.46012E+09    -2.03288E+09     3.80632E+09     1.21038E+09     4.58084E+09     307.409E+06    -402.284E+06     66.9597E+06     528.248E+06
            2832               1     2.06238E+09     1.99647E+09     1.99647E+09     338.646E+06    -313.019E+06     2.30949E+09    -674.032E+06     1.80800E+09     333.041E+06     1.97194E+09    -282.882E+06     166.204E+06     131.462E+06     120.965E+06
            2833               1     2.22264E+09     2.44407E+09     2.44407E+09     362.869E+06     102.862E+06     2.34121E+09    -969.933E+06     2.18803E+09     177.528E+06     2.43152E+09     300.749E+06     73.7138E+06    -121.480E+06    -143.312E+06
            2834               1     5.22621E+09     8.84945E+09     8.84945E+09     3.63166E+09     3.61486E+09     5.23459E+09    -5.36532E+09     5.22615E+09     3.69471E+09     8.77563E+09     3.62563E+09     616.849E+06     8.36827E+06     2.06320E+06
            2835               1     3.96839E+09     5.00702E+09     5.00702E+09     1.10211E+09     978.055E+06     4.02896E+09    -2.36239E+09     3.96402E+09     1.08620E+09     4.99240E+09     1.00859E+09     221.815E+06     57.2292E+06     87.7212E+06
            2836               1     3.00976E+09     3.57067E+09     3.57067E+09     715.539E+06     427.051E+06     3.14362E+09    -1.57109E+09     2.97842E+09     740.749E+06     3.50214E+09     470.369E+06     291.951E+06    -3.16397E+06     345.404E+06
            2837               1     2.07769E+09     2.08784E+09     2.08784E+09     302.393E+06    -192.666E+06     2.28051E+09    -732.523E+06     1.93821E+09     304.968E+06     2.06820E+09    -175.603E+06    -186.924E+06     88.7301E+06     18.8312E+06
            2838               1     4.28143E+09     3.90751E+09     3.90751E+09     708.583E+06    -956.275E+06     4.86378E+09    -1.21994E+09     3.43062E+09     721.998E+06     3.86514E+09    -927.329E+06    -349.806E+06     186.572E+06     158.498E+06
            2839               1     6.21039E+09     8.28006E+09     8.28006E+09     2.56544E+09     1.67091E+09     6.60914E+09    -4.17213E+09     6.06291E+09     2.56863E+09     8.27403E+09     1.67375E+09    -142.480E+06     14.8572E+06     128.248E+06
            2840               1     6.34504E+09     8.41838E+09     8.41838E+09     2.60736E+09     1.64847E+09     6.76990E+09    -4.22474E+09     6.17886E+09     2.60957E+09     8.41116E+09     1.65347E+09    -119.458E+06    -11.6854E+06    -179.670E+06
            2841               1     5.03845E+09     6.63066E+09     6.63066E+09     1.84182E+09     1.37508E+09     5.25558E+09    -3.28252E+09     4.98946E+09     1.84577E+09     6.62575E+09     1.37604E+09    -138.337E+06     6.79512E+06    -68.8732E+06
            2842               1     1.45718E+09     1.64113E+09     1.64113E+09     379.470E+06     46.1664E+06     1.59496E+09    -688.921E+06     1.36742E+09     377.151E+06     1.62967E+09     59.9454E+06     61.4246E+06    -47.5240E+06    -113.387E+06
            2843               1     2.98713E+09     2.55095E+09     2.55095E+09     355.408E+06    -850.652E+06     3.40160E+09    -685.235E+06     2.33673E+09     355.060E+06     2.50166E+09    -801.018E+06     220.671E+06    -194.700E+06    -281.101E+06
            2844               1     2.10796E+09     2.01805E+09     2.01805E+09     344.821E+06    -349.484E+06     2.36753E+09    -671.128E+06     1.82273E+09     336.808E+06     1.99364E+09    -317.062E+06     162.879E+06    -139.900E+06    -128.042E+06
            2845               1     2.25001E+09     2.46789E+09     2.46789E+09     365.934E+06     94.4603E+06     2.37343E+09    -976.095E+06     2.21272E+09     176.890E+06     2.45880E+09     292.594E+06     91.9842E+06     127.576E+06     103.046E+06
            2846               1     6.93823E+09     9.20231E+09     9.20231E+09     2.79929E+09     1.83065E+09     7.37165E+09    -4.61075E+09     6.78361E+09     2.80828E+09     9.19150E+09     1.83246E+09     243.404E+06     12.2624E+06    -106.974E+06
            2847               1     3.20196E+09     3.75244E+09     3.75244E+09     716.642E+06     406.844E+06     3.34560E+09    -1.62531E+09     3.16798E+09     748.346E+06     3.67852E+09     449.068E+06     313.500E+06    -17.3482E+06    -367.154E+06
            2848               1     3.91211E+09     4.91389E+09     4.91389E+09     1.24938E+09     794.025E+06     4.11986E+09    -2.31910E+09     3.85181E+09     1.27783E+09     4.85598E+09     823.480E+06     338.045E+06     7.51822E+06    -329.774E+06
            2849               1     3.94537E+09     4.02479E+09     4.02479E+09     817.155E+06    -380.671E+06     4.40546E+09    -1.48709E+09     3.49980E+09     837.580E+06     3.95864E+09    -334.941E+06     365.917E+06     123.007E+06    -338.396E+06
            2850               1     1.32815E+09     1.40216E+09     1.40216E+09     324.060E+06    -81.4772E+06     1.48364E+09    -548.248E+06     1.17626E+09     313.620E+06     1.35361E+09    -22.4824E+06     47.9077E+06     83.7283E+06     252.968E+06
            2851               1     1.27750E+09     1.40070E+09     1.40070E+09     317.924E+06    -8.27903E+06     1.40897E+09    -570.114E+06     1.17821E+09     313.093E+06     1.40068E+09    -3.43486E+06     351.338E+03     39.4027E+06    -4.25163E+06
            2852               1     1.97544E+09     2.08466E+09     2.08466E+09     394.365E+06    -86.9573E+06     2.17162E+09    -797.356E+06     1.83642E+09     398.603E+06     2.06929E+09    -75.8244E+06     136.814E+06    -64.8231E+06    -90.7179E+06
            2853               1     1.30352E+09     1.40457E+09     1.40457E+09     306.555E+06    -36.0313E+06     1.44060E+09    -558.364E+06     1.19578E+09     301.853E+06     1.40444E+09    -31.1967E+06     572.386E+03    -39.8532E+06     13.8243E+06
            2854               1     791.086E+06     884.502E+06     884.502E+06     253.432E+06    -2.98579E+06     887.488E+06    -378.316E+06     687.818E+06     200.451E+06     758.665E+06     175.833E+06     22.9788E+06    -127.510E+06    -288.389E+06
            2855               1     1.84874E+09     1.96520E+09     1.96520E+09     412.165E+06    -79.7492E+06     2.04495E+09    -765.871E+06     1.69185E+09     413.778E+06     1.94575E+09    -61.9196E+06    -122.977E+06    -74.0632E+06     134.194E+06
            2856               1     1.43978E+09     1.39034E+09     1.39034E+09     261.495E+06    -231.090E+06     1.62143E+09    -473.580E+06     1.22752E+09     247.227E+06     1.17600E+09    -2.48628E+06    -76.9941E+06    -152.610E+06     525.488E+06
            2857               1     3.10207E+09     2.75721E+09     2.75721E+09     441.438E+06    -767.264E+06     3.52447E+09    -810.461E+06     2.48261E+09     444.633E+06     2.72305E+09    -736.305E+06    -240.186E+06    -178.952E+06     160.400E+06
            2858               1     4.35908E+09     3.88363E+09     3.88363E+09     669.664E+06    -1.07811E+09     4.96174E+09    -1.15839E+09     3.42604E+09     678.300E+06     3.84942E+09    -1.05254E+09    -329.458E+06    -203.170E+06    -62.3872E+06
            2859               1     2.32507E+09     2.51990E+09     2.51990E+09     219.350E+06     171.050E+06     2.34885E+09    -970.098E+06     2.32394E+09     234.399E+06     2.46595E+09     209.950E+06    -209.735E+06     40.2268E+06    -279.391E+06
            2860               1     1.55818E+09     1.49354E+09     1.49354E+09     70.7870E+06    -171.646E+06     1.66518E+09    -464.226E+06     1.51487E+09    -154.936E+06     1.49044E+09     57.1763E+06    -51.6634E+06     60.0128E+06    -44.2011E+06
            2861               1     1.53865E+09     1.47626E+09     1.47626E+09     83.0497E+06    -175.147E+06     1.65141E+09    -461.389E+06     1.48873E+09    -159.060E+06     1.47209E+09     71.1382E+06    -51.4211E+06    -61.2839E+06     57.9865E+06
            2862               1     1.73475E+09     1.73344E+09     1.73344E+09     48.0217E+06    -46.7567E+06     1.78019E+09    -578.233E+06     1.72891E+09    -29.7716E+06     1.70437E+09     60.0992E+06    -153.019E+06    -32.2168E+06     159.687E+06
            2863               1     5.09603E+09     5.29662E+09     5.29662E+09     1.29526E+09    -440.550E+06     5.73717E+09    -2.05044E+09     4.35222E+09     1.30474E+09     5.18126E+09    -334.672E+06    -444.905E+06     195.836E+06     629.911E+06
            2864               1     4.68694E+09     5.92417E+09     5.92417E+09     1.64441E+09     915.465E+06     5.00870E+09    -2.82801E+09     4.55678E+09     1.67952E+09     5.84616E+09     958.371E+06    -404.418E+06     10.2141E+06     443.733E+06
            2865               1     6.82388E+09     9.16623E+09     9.16623E+09     2.96546E+09     1.85536E+09     7.31087E+09    -4.66235E+09     6.61614E+09     2.96749E+09     9.16412E+09     1.85544E+09    -112.246E+06    -1.48300E+06     23.4125E+06
            2866               1     5.45972E+09     7.03167E+09     7.03167E+09     2.18724E+09     1.11558E+09     5.91609E+09    -3.44483E+09     5.21515E+09     2.21885E+09     6.84846E+09     1.26718E+09    -560.772E+06    -95.3624E+06    -835.263E+06
            2867               1     3.85339E+09     4.95131E+09     4.95131E+09     1.15687E+09     1.04156E+09     3.90975E+09    -2.38325E+09     3.84951E+09     1.13681E+09     4.93235E+09     1.08059E+09    -185.510E+06     59.6372E+06    -193.275E+06
            2868               1     4.36167E+09     5.11190E+09     5.11190E+09     1.26484E+09     373.367E+06     4.73853E+09    -2.25004E+09     4.14920E+09     1.29638E+09     5.01650E+09     437.222E+06    -417.592E+06    -60.9926E+06    -488.616E+06
            2869               1     1.55692E+09     1.51333E+09     1.51333E+09      95.636E+06    -152.920E+06     1.66625E+09    -485.349E+06     1.51132E+09    -135.133E+06     1.50798E+09     83.1949E+06     56.1005E+06    -63.1887E+06    -67.8964E+06
            2870               1     2.51574E+09     2.43784E+09     2.43784E+09     386.021E+06    -368.937E+06     2.80678E+09    -818.308E+06     2.23878E+09     386.517E+06     2.40143E+09    -333.020E+06     234.286E+06     119.571E+06    -177.018E+06
            2871               1     2.02407E+09     2.11416E+09     2.11416E+09     297.368E+06    -67.5449E+06     2.18171E+09    -781.328E+06     1.94799E+09     300.550E+06     2.09508E+09    -51.6498E+06     184.370E+06     70.6626E+06    -34.0607E+06
            2872               1     1.89316E+09     2.02348E+09     2.02348E+09     390.799E+06    -51.7601E+06     2.07524E+09    -787.506E+06     1.77108E+09     394.120E+06     2.00833E+09    -39.9301E+06     132.770E+06     64.7768E+06     89.2067E+06
            2873               1     1.47047E+09     1.62342E+09     1.62342E+09     360.856E+06     8.90509E+06     1.61451E+09    -664.394E+06     1.37082E+09     358.492E+06     1.61408E+09     20.6123E+06     60.8249E+06     47.8248E+06     99.0705E+06
            2874               1     1.47009E+09     1.60344E+09     1.60344E+09     373.195E+06    -24.6158E+06     1.62806E+09    -650.673E+06     1.34075E+09     370.975E+06     1.59510E+09    -14.0602E+06    -52.2753E+06     46.1263E+06    -97.4728E+06
            2875               1     2.17944E+09     1.95521E+09     1.95521E+09     310.608E+06    -516.769E+06     2.47197E+09    -583.015E+06     1.77048E+09     302.780E+06     1.85880E+09    -412.537E+06    -147.937E+06     176.588E+06    -426.152E+06
            2876               1     2.31394E+09     2.50559E+09     2.50559E+09     224.242E+06     160.379E+06     2.34521E+09    -963.402E+06     2.31195E+09     238.636E+06     2.45342E+09     198.152E+06    -203.709E+06    -41.1441E+06     275.783E+06
            2877               1      5.0352E+09     6.59109E+09     6.59109E+09     1.98414E+09     1.21593E+09     5.37516E+09    -3.26372E+09     4.90075E+09     2.01144E+09     6.53494E+09     1.24478E+09     376.140E+06     23.4583E+06    -369.381E+06
            2878               1     5.20103E+09     6.75273E+09     6.75273E+09     1.73777E+09     1.38372E+09     5.36901E+09    -3.29140E+09     5.17381E+09     1.74856E+09     6.73946E+09     1.38619E+09     243.890E+06    -23.8268E+06    -84.8928E+06
            2879               1     6.54259E+09     8.52655E+09     8.52655E+09     2.45387E+09     1.59825E+09     6.92831E+09    -4.19289E+09     6.41491E+09     2.46453E+09     8.51580E+09     1.59834E+09     255.301E+06      8.8417E+06    -2.95351E+06
            2880               1     6.65534E+09     8.79551E+09     8.79551E+09     2.63101E+09     1.73926E+09     7.05625E+09    -4.38859E+09     6.51890E+09     2.64086E+09     8.78320E+09     1.74172E+09     246.225E+06     5.08354E+06     131.574E+06
            2881               1     5.25023E+09     6.74877E+09     6.74877E+09     1.76580E+09     1.26691E+09     5.48187E+09    -3.26049E+09     5.19650E+09     1.77290E+09     6.73965E+09     1.26892E+09     189.660E+06    -4.10032E+06     101.978E+06
            2882               1     5.59758E+09     8.46998E+09     8.46998E+09     3.22670E+09     2.57512E+09     5.89486E+09    -4.75726E+09     5.51129E+09     3.25203E+09     8.29627E+09     2.72349E+09     604.999E+06    -77.7964E+06     780.363E+06
            2883               1     3.15434E+09     3.04741E+09     3.04741E+09     498.218E+06    -480.189E+06     3.52760E+09    -1.02181E+09     2.78090E+09     510.666E+06     3.01050E+09    -455.728E+06     286.600E+06    -123.592E+06     139.823E+06
            2884               1     2.21081E+09     2.27775E+09     2.27775E+09     232.357E+06    -67.8071E+06     2.34556E+09    -814.100E+06     2.16425E+09     242.615E+06     2.21834E+09    -18.6542E+06     213.169E+06    -29.3509E+06     294.864E+06
            2885               1     2.17405E+09     2.17341E+09     2.17341E+09     310.017E+06    -215.101E+06     2.38851E+09    -756.109E+06     2.02385E+09     309.099E+06     2.13045E+09    -171.225E+06     209.112E+06     -86.965E+06     223.410E+06
            2886               1     1.57017E+09     1.53705E+09     1.53705E+09     106.238E+06    -142.730E+06     1.67978E+09    -500.186E+06     1.52481E+09    -124.320E+06     1.53055E+09     94.3241E+06     64.3011E+06     63.8737E+06     73.4991E+06
            2887               1     5.53569E+09     8.85047E+09     8.85047E+09     3.42545E+09     3.21038E+09     5.64009E+09    -5.16210E+09     5.52628E+09     3.49245E+09     8.78339E+09     3.21047E+09    -599.523E+06    -4.56706E+06     2.34281E+06
            2888               1     4.76601E+09     4.84684E+09     4.84684E+09     1.13043E+09    -526.491E+06     5.37333E+09    -1.81693E+09     4.03723E+09     1.14265E+09     4.76850E+09    -460.364E+06    -415.022E+06    -190.887E+06    -432.097E+06
            2889               1     1.60573E+09     1.62351E+09     1.62351E+09     324.653E+06    -171.826E+06     1.79534E+09    -592.112E+06     1.41696E+09     317.720E+06     1.56043E+09    -101.814E+06     100.316E+06    -111.077E+06    -299.708E+06
            2890               1     5.10268E+09     5.36566E+09     5.36566E+09     1.30821E+09    -363.083E+06     5.72875E+09    -2.10360E+09     4.42085E+09     1.32126E+09     5.23642E+09    -246.895E+06     459.318E+06    -181.458E+06     677.859E+06
            2891               1     6.33055E+09     8.94288E+09     8.94288E+09     3.15786E+09     2.18048E+09     6.76240E+09    -4.76040E+09     6.15737E+09     3.17990E+09     8.92071E+09     2.18060E+09     356.455E+06     447.441E+03    -28.7673E+06
            2892               1     4.12035E+09     3.72786E+09     3.72786E+09     671.729E+06    -958.109E+06     4.68597E+09    -1.14716E+09     3.26705E+09     681.123E+06     3.69053E+09    -930.171E+06     335.153E+06     203.551E+06    -68.7994E+06
            2893               1     779.743E+06     875.921E+06     875.921E+06     251.017E+06     2.11177E+06     873.809E+06    -376.350E+06     681.367E+06     199.649E+06     753.536E+06     175.865E+06     25.2968E+06     125.053E+06     282.037E+06
            2894               1     1.83923E+09     1.95495E+09     1.95495E+09     410.434E+06    -79.7061E+06     2.03465E+09    -761.892E+06     1.68264E+09     411.392E+06     1.93671E+09    -62.4273E+06    -122.866E+06     75.7071E+06    -124.466E+06
            2895               1     3.09381E+09     2.70718E+09     2.70718E+09     409.888E+06    -810.742E+06     3.51792E+09    -768.776E+06     2.45709E+09     411.462E+06     2.67104E+09    -776.173E+06    -230.316E+06     182.045E+06    -194.400E+06
            2896               1     2.16636E+09     1.92009E+09     1.92009E+09     291.310E+06    -538.503E+06     2.45860E+09    -557.633E+06     1.75110E+09     282.534E+06     1.82324E+09    -432.872E+06    -142.341E+06    -176.122E+06     428.747E+06
            2897               1     2.09324E+09     2.09419E+09     2.09419E+09     302.334E+06    -206.582E+06     2.30077E+09    -729.981E+06     1.94661E+09     304.660E+06     2.07368E+09    -188.400E+06    -190.869E+06    -91.6072E+06    -28.2769E+06
            2898               1     5.58026E+09     8.36072E+09     8.36072E+09     3.07562E+09     2.52598E+09     5.83474E+09    -4.65411E+09     5.51887E+09     3.11168E+09     8.21283E+09     2.63781E+09    -594.237E+06    -52.2356E+06    -685.122E+06
            2899               1     5.55651E+09     7.03613E+09     7.03613E+09     2.24590E+09     944.386E+06     6.09174E+09    -3.40880E+09     5.19668E+09     2.26200E+09     6.84741E+09     1.11700E+09    -529.709E+06     139.017E+06     892.129E+06
            2900               1     2.89120E+09     3.42702E+09     3.42702E+09     690.173E+06     402.926E+06     3.02410E+09    -1.50671E+09     2.85883E+09     489.535E+06     3.42375E+09     606.841E+06    -69.7217E+06    -132.696E+06     64.4096E+06
            2901               1     889.726E+06     1.00849E+09     1.00849E+09     278.294E+06     17.5096E+06     990.977E+06    -434.763E+06     796.688E+06     234.080E+06     919.373E+06     150.838E+06    -32.1022E+06    -117.855E+06     266.615E+06
            2902               1     2.03454E+09     2.15889E+09     2.15889E+09     317.824E+06    -25.4462E+06     2.18434E+09    -817.091E+06     1.96780E+09     322.406E+06     2.13924E+09    -10.3706E+06     187.494E+06    -65.4685E+06     40.0988E+06
            2903               1     5.65237E+09     8.32842E+09     8.32842E+09     3.02459E+09     2.38237E+09     5.94605E+09    -4.57846E+09     5.56940E+09     3.06309E+09     8.18067E+09     2.49163E+09    -597.424E+06     58.6849E+06     689.810E+06
            2904               1     1.34133E+09     1.42226E+09     1.42226E+09     342.458E+06    -79.2395E+06     1.50150E+09    -561.826E+06     1.17772E+09     331.280E+06     1.37552E+09    -21.3231E+06     48.5630E+06    -87.2508E+06    -249.175E+06
            2905               1     1.45759E+09     1.39468E+09     1.39468E+09     256.860E+06    -248.282E+06     1.64296E+09    -467.752E+06     1.23630E+09     243.357E+06     1.18195E+09    -22.0475E+06    -74.5999E+06     149.249E+06    -529.321E+06
            2906               1     4.17765E+09     4.06037E+09     4.06037E+09     792.714E+06    -646.657E+06     4.70703E+09    -1.40214E+09     3.55181E+09     812.695E+06     3.99719E+09    -603.452E+06     383.837E+06    -155.789E+06     306.478E+06
            2907               1     1.99078E+09     1.99115E+09     1.99115E+09     139.345E+06    -114.286E+06     2.10544E+09    -672.070E+06     1.95393E+09     148.869E+06     1.95945E+09    -92.1056E+06    -199.299E+06    -38.3830E+06    -149.490E+06
            2908               1     2.21432E+09     2.44121E+09     2.44121E+09     383.149E+06     98.2082E+06     2.34300E+09    -974.188E+06     2.17250E+09     180.511E+06     2.43245E+09     309.607E+06    -50.3116E+06    -131.642E+06     124.462E+06
            2909               1     2.51047E+09     2.52568E+09     2.52568E+09     357.037E+06    -224.535E+06     2.75021E+09    -886.059E+06     2.35163E+09     362.749E+06     2.47218E+09    -176.752E+06    -242.397E+06     80.5338E+06     275.631E+06
            2910               1     1.75748E+09     1.69172E+09     1.69172E+09    -32.5066E+06    -97.2205E+06     1.78894E+09    -520.666E+06     1.75480E+09    -73.8475E+06     1.67145E+09    -35.6031E+06     151.848E+06    -33.1663E+06    -108.777E+06
            2911               1     3.19890E+09     2.68343E+09     2.68343E+09     371.947E+06    -967.459E+06     3.65089E+09    -695.972E+06     2.43634E+09     372.259E+06     2.61324E+09    -897.583E+06     220.698E+06     208.665E+06     398.342E+06
            2912               1     3.98178E+09     4.92492E+09     4.92492E+09     1.25822E+09     689.278E+06     4.23564E+09    -2.29080E+09     3.88875E+09     1.29366E+09     4.84766E+09     731.089E+06     375.982E+06    -5.38821E+06     401.492E+06
            2913               1     5.36507E+09     6.62403E+09     6.62403E+09     2.03747E+09     724.278E+06     5.89975E+09    -3.12859E+09     4.98386E+09     2.05470E+09     6.46576E+09     865.311E+06     499.000E+06    -137.462E+06     787.765E+06
            2914               1     5.00371E+09     5.44930E+09     5.44930E+09     1.37837E+09    -136.900E+06     5.58620E+09    -2.23026E+09     4.44178E+09     1.40025E+09     5.31464E+09    -24.1255E+06     468.701E+06     146.102E+06    -679.990E+06
            2915               1     5.50461E+09     7.10897E+09     7.10897E+09     2.31370E+09     1.09820E+09     6.01078E+09    -3.50696E+09     5.18962E+09     2.32960E+09     6.88295E+09     1.30832E+09     557.588E+06     132.060E+06    -981.411E+06
            2916               1     5.34861E+09     7.43224E+09     7.43224E+09     2.47961E+09     1.76043E+09     5.67181E+09    -3.89076E+09     5.23817E+09     2.51103E+09     7.32715E+09     1.83410E+09     480.222E+06    -50.3404E+06     575.819E+06
            2917               1     5.85907E+09     8.25884E+09     8.25884E+09     2.85690E+09     2.03041E+09     6.22843E+09    -4.38205E+09     5.72572E+09     2.87578E+09     8.23428E+09     2.03609E+09     321.368E+06    -5.45922E+06     183.170E+06
            2918               1     5.78527E+09     8.14616E+09     8.14616E+09     2.79202E+09     2.00943E+09     6.13673E+09    -4.31587E+09     5.66435E+09     2.81398E+09     8.10470E+09     2.02892E+09     365.497E+06     27.9835E+06    -318.651E+06
            2919               1     2.12091E+09     2.18425E+09     2.18425E+09     187.736E+06    -42.2916E+06     2.22655E+09    -776.566E+06     2.09257E+09     190.850E+06     2.12661E+09     12.2362E+06     199.164E+06     31.8552E+06    -289.471E+06
            2920               1     2.56964E+09     2.76536E+09     2.76536E+09     311.117E+06     94.0925E+06     2.67127E+09    -1.05686E+09     2.54890E+09     333.591E+06     2.70479E+09     132.189E+06     246.508E+06    -6.26368E+06    -305.456E+06
            2921               1     3.05127E+09     3.63810E+09     3.63810E+09     712.034E+06     475.401E+06     3.16269E+09    -1.60851E+09     3.03052E+09     547.379E+06     3.62269E+09     655.465E+06     177.127E+06     111.028E+06     118.776E+06
            2922               1     840.550E+06     987.841E+06     987.841E+06     287.618E+06     55.6736E+06     932.168E+06    -443.711E+06     763.421E+06     242.028E+06     980.203E+06     108.902E+06     6.35269E+06     93.3823E+06     80.3043E+06
            2923               1     2.19145E+09     2.39194E+09     2.39194E+09     350.178E+06     76.5186E+06     2.31542E+09    -939.547E+06     2.15250E+09     155.242E+06     2.38250E+09     280.896E+06    -38.9131E+06     126.153E+06    -133.594E+06
            2924               1     2.88173E+09     3.46008E+09     3.46008E+09     697.920E+06     472.069E+06     2.98801E+09    -1.54336E+09     2.86172E+09     529.003E+06     3.44912E+09     651.943E+06    -116.153E+06     100.607E+06    -129.511E+06
            2925               1     2.92808E+09     3.29700E+09     3.29700E+09     512.801E+06     243.633E+06     3.05337E+09    -1.35115E+09     2.90005E+09     542.056E+06     3.24368E+09     267.700E+06    -295.933E+06     161.143E+03    -255.381E+06
            2926               1     1.99668E+09     2.00543E+09     2.00543E+09     147.262E+06    -105.661E+06     2.11109E+09    -682.344E+06     1.96016E+09     152.938E+06     1.97613E+09    -82.0394E+06    -197.692E+06     46.6153E+06     135.779E+06
            2927               1     2.89424E+09     3.38004E+09     3.38004E+09     531.008E+06     442.611E+06     2.93743E+09    -1.45122E+09     2.89120E+09     556.130E+06     3.32704E+09     470.488E+06    -284.864E+06    -44.8050E+06     261.142E+06
            2928               1     1.78748E+09     1.74386E+09     1.74386E+09     -24.149E+06    -62.4716E+06     1.80633E+09    -552.412E+06     1.78655E+09    -49.2279E+06     1.72195E+09    -15.4813E+06     153.579E+06     11.5915E+06     123.129E+06
            2929               1     2.67303E+09     2.90930E+09     2.90930E+09     375.779E+06     115.768E+06     2.79354E+09    -1.13362E+09     2.64436E+09     399.690E+06     2.83690E+09     164.262E+06     243.318E+06     29.7209E+06     363.156E+06
            2930               1     3.72141E+09     4.64035E+09     4.64035E+09     1.04203E+09     807.000E+06     3.83335E+09    -2.16313E+09     3.70466E+09     1.07518E+09     4.58745E+09     826.750E+06    -373.080E+06     13.1638E+06     231.301E+06
            2931               1     1.94097E+09     2.00638E+09     2.00638E+09     144.809E+06    -5.28334E+06     2.01166E+09    -715.301E+06     1.92785E+09     148.528E+06     1.98281E+09     14.5649E+06     202.482E+06    -43.0283E+06     59.3179E+06
            2932               1     2.98611E+09     3.58792E+09     3.58792E+09     733.553E+06     485.546E+06     3.10238E+09    -1.60234E+09     2.96280E+09     563.472E+06     3.57874E+09     664.811E+06     128.369E+06    -117.186E+06    -99.4384E+06
            2933               1     1.92638E+09     2.00223E+09     2.00223E+09     156.649E+06     4.11784E+06     1.99811E+09    -720.998E+06     1.91272E+09     162.652E+06     1.97724E+09     23.0963E+06     203.560E+06     39.5534E+06    -74.0897E+06
            2934               1     3.77396E+09     4.69593E+09     4.69593E+09     973.760E+06     872.236E+06     3.82369E+09    -2.18064E+09     3.77088E+09     918.661E+06     4.68961E+09     933.656E+06    -128.136E+06    -52.9191E+06     84.3836E+06
            2935               1     3.32457E+09     3.48260E+09     3.48260E+09     696.734E+06    -197.680E+06     3.68028E+09    -1.32722E+09     3.03569E+09     722.120E+06     3.38367E+09    -124.134E+06    -334.581E+06    -63.0772E+06    -466.418E+06
            2936               1     3.96756E+09     5.00724E+09     5.00724E+09     1.11419E+09     969.140E+06     4.03810E+09    -2.36352E+09     3.96159E+09     1.06474E+09     4.99434E+09     1.03149E+09     208.883E+06    -75.9496E+06    -81.2859E+06
            2937               1     2.91287E+09     2.94569E+09     2.94569E+09     504.120E+06    -278.549E+06     3.22424E+09    -1.05709E+09     2.66045E+09     520.374E+06     2.88699E+09    -236.095E+06     282.872E+06     80.9498E+06    -295.367E+06
            2938               1     871.293E+06     999.827E+06     999.827E+06     281.293E+06     30.6974E+06     969.130E+06    -437.272E+06     783.856E+06     233.929E+06     914.235E+06     163.653E+06    -32.8835E+06     117.812E+06    -257.361E+06
            2939               1     838.664E+06     994.854E+06     994.854E+06     289.563E+06     67.5086E+06     927.346E+06    -450.642E+06     768.240E+06     242.344E+06     983.947E+06     125.635E+06     6.92590E+06    -92.4646E+06    -95.5957E+06
            2940               1     1.50829E+09     1.39927E+09     1.39927E+09     247.843E+06    -308.081E+06     1.70735E+09    -446.343E+06     1.24429E+09     237.776E+06     1.12334E+09    -22.0917E+06     73.6301E+06    -156.902E+06    -606.333E+06
            2941               1     2.21222E+09     1.85983E+09     1.85983E+09     243.909E+06    -661.464E+06     2.52130E+09    -480.760E+06     1.71415E+09     236.529E+06     1.67396E+09    -468.209E+06     126.065E+06    -189.706E+06    -622.471E+06
            2942               1     1.51493E+09     1.38358E+09     1.38358E+09     235.101E+06    -333.356E+06     1.71694E+09    -428.443E+06     1.23839E+09     224.069E+06     1.10981E+09    -48.5560E+06     68.9165E+06     155.663E+06     607.655E+06
            2943               1     1.60004E+09     1.61138E+09     1.61138E+09     333.363E+06    -183.107E+06     1.79449E+09    -587.212E+06     1.39311E+09     324.227E+06     1.55465E+09    -117.245E+06     98.8021E+06     116.754E+06     281.602E+06
            2944               1     5.50757E+09     8.37746E+09     8.37746E+09     3.19956E+09     2.59081E+09     5.78665E+09    -4.72261E+09     5.43111E+09     3.22417E+09     8.19035E+09     2.75331E+09     609.036E+06     70.3951E+06    -812.933E+06
            2945               1     2.31822E+09     1.96236E+09     1.96236E+09     273.708E+06    -680.721E+06     2.64308E+09    -518.448E+06     1.78849E+09     268.478E+06     1.78458E+09    -497.710E+06     137.984E+06     192.106E+06     621.589E+06
            2946               1     1.48120E+09     1.59868E+09     1.59868E+09     243.538E+06     17.4312E+06     1.58125E+09    -619.884E+06     1.44160E+09     204.256E+06     1.58875E+09     66.6474E+06    -70.5251E+06    -93.7105E+06     93.8211E+06
            2947               1     1.66719E+09     1.65828E+09     1.65828E+09     39.3633E+06    -53.3249E+06     1.71160E+09    -548.105E+06     1.66138E+09    -33.6102E+06     1.64378E+09     34.1443E+06    -99.7744E+06     40.0054E+06    -115.872E+06
            2948               1     2.52709E+09     2.51330E+09     2.51330E+09     188.363E+06    -176.330E+06     2.68963E+09    -841.777E+06     2.46685E+09     195.920E+06     2.46804E+09    -138.625E+06    -310.910E+06    -92.6804E+06    -109.374E+06
            2949               1     5.51973E+09     6.55275E+09     6.55275E+09     1.17308E+09     902.892E+06     5.64986E+09    -2.87624E+09     5.50482E+09     971.994E+06     6.52876E+09     1.12797E+09    -358.956E+06    -105.846E+06     63.2495E+06
            2950               1     3.44628E+09     3.57165E+09     3.57165E+09     458.679E+06    -131.668E+06     3.70332E+09    -1.29955E+09     3.32966E+09     483.898E+06     3.47147E+09    -56.7061E+06    -523.227E+06     147.224E+06     229.186E+06
            2951               1     4.31926E+09     4.84188E+09     4.84188E+09     901.835E+06     223.635E+06     4.61824E+09    -1.98912E+09     4.19696E+09     942.046E+06     4.65808E+09     367.223E+06    -792.393E+06     193.131E+06     358.279E+06
            2952               1     2.09251E+09     2.06451E+09     2.06451E+09     312.325E+06    -252.401E+06     2.31691E+09    -708.146E+06     1.90946E+09     254.090E+06     2.01936E+09    -149.011E+06     199.466E+06     222.291E+06     200.619E+06
            2953               1     2.21100E+09     2.32338E+09     2.32338E+09     314.287E+06    -45.4083E+06     2.36879E+09    -864.087E+06     2.14368E+09     64.4875E+06     2.31180E+09     215.977E+06     96.1819E+06    -169.355E+06    -118.052E+06
            2954               1     5.02198E+09     8.18301E+09     8.18301E+09     3.23568E+09     3.08955E+09     5.09345E+09    -4.83608E+09     5.01720E+09     3.52376E+09     7.74913E+09     3.23534E+09     1.42178E+09     8.83542E+06     4.51115E+06
            2955               1     4.20156E+09     4.80555E+09     4.80555E+09     863.202E+06     385.594E+06     4.41996E+09    -2.01812E+09     4.13983E+09     467.222E+06     4.79470E+09     792.420E+06     216.029E+06     170.516E+06     10.4800E+06
            2956               1     3.28327E+09     3.60390E+09     3.60390E+09     384.164E+06     260.589E+06     3.34331E+09    -1.41622E+09     3.27803E+09     341.392E+06     3.52904E+09     378.226E+06     429.518E+06     80.1744E+06     232.455E+06
            2957               1     2.07913E+09     2.11626E+09     2.11626E+09     199.162E+06    -93.8077E+06     2.21007E+09    -740.540E+06     2.03191E+09     161.360E+06     2.09976E+09    -39.5053E+06    -169.495E+06     117.364E+06    -52.1013E+06
            2958               1     4.19292E+09     3.78402E+09     3.78402E+09     758.100E+06    -1.00208E+09     4.78610E+09    -1.18001E+09     3.18682E+09     770.379E+06     3.68451E+09    -914.848E+06    -540.958E+06     352.915E+06     169.235E+06
            2959               1     6.91335E+09     8.34092E+09     8.34092E+09     1.45716E+09     1.39836E+09     6.94256E+09    -3.73215E+09     6.91279E+09     1.48598E+09     8.26561E+09     1.44485E+09    -716.185E+06    -30.1308E+06     54.9477E+06
            2960               1     7.08152E+09     8.49954E+09     8.49954E+09     1.43061E+09     1.40549E+09     7.09405E+09    -3.77854E+09     7.08142E+09     1.48628E+09     8.42786E+09     1.42149E+09    -700.496E+06     23.2515E+06    -107.603E+06
            2961               1     5.63418E+09     6.64561E+09     6.64561E+09     1.18768E+09     850.330E+06     5.79528E+09    -2.89454E+09     5.61139E+09     937.700E+06     6.59421E+09     1.15171E+09    -540.780E+06     101.091E+06     39.1023E+06
            2962               1     1.48832E+09     1.60869E+09     1.60869E+09     209.221E+06     45.1105E+06     1.56358E+09    -621.006E+06     1.46776E+09     199.140E+06     1.59574E+09     68.1426E+06     79.5724E+06    -53.2450E+06    -111.074E+06
            2963               1     3.00179E+09     2.56526E+09     2.56526E+09     402.287E+06    -861.841E+06     3.42710E+09    -701.902E+06     2.27572E+09     395.327E+06     2.48254E+09    -772.159E+06     320.793E+06    -307.565E+06    -295.501E+06
            2964               1     2.14018E+09     2.07584E+09     2.07584E+09     278.569E+06    -291.720E+06     2.36756E+09    -687.564E+06     1.95800E+09     216.123E+06     2.03198E+09    -185.411E+06     191.556E+06    -224.732E+06    -209.045E+06
            2965               1     2.23562E+09     2.33710E+09     2.33710E+09     308.559E+06    -59.8404E+06     2.39694E+09    -861.938E+06     2.16575E+09     56.9122E+06     2.33101E+09     197.888E+06     77.9545E+06     173.275E+06     79.3061E+06
            2966               1     7.47241E+09     9.00823E+09     9.00823E+09     1.55799E+09     1.51384E+09     7.49439E+09    -4.02668E+09     7.47212E+09     1.56130E+09     8.99517E+09     1.52359E+09     298.661E+06     13.9173E+06    -90.6678E+06
            2967               1     3.33505E+09     3.69189E+09     3.69189E+09     382.700E+06     331.571E+06     3.36032E+09    -1.46872E+09     3.33417E+09     401.013E+06     3.62022E+09     384.923E+06     411.423E+06    -56.2311E+06    -251.579E+06
            2968               1     4.29623E+09     5.01576E+09     5.01576E+09     753.923E+06     685.946E+06     4.32982E+09    -2.15188E+09     4.29502E+09     791.258E+06     4.91318E+09     751.195E+06     636.026E+06    -1.93284E+06    -170.326E+06
            2969               1     3.96869E+09     3.98481E+09     3.98481E+09     682.713E+06    -418.082E+06     4.40289E+09    -1.41648E+09     3.60046E+09     708.286E+06     3.86566E+09    -324.508E+06     595.706E+06     248.459E+06    -260.841E+06
            2970               1     1.36482E+09     1.44979E+09     1.44979E+09     345.248E+06    -75.9947E+06     1.52579E+09    -573.015E+06     1.20500E+09     267.035E+06     1.39257E+09     59.4358E+06     62.5845E+06     185.183E+06     261.097E+06
            2971               1     1.28882E+09     1.36834E+09     1.36834E+09     189.993E+06    -8.03867E+06     1.37637E+09    -516.763E+06     1.25390E+09     156.009E+06     1.36831E+09     25.9698E+06    -2.75884E+06     74.6828E+06    -4.81211E+06
            2972               1     2.00844E+09     2.06085E+09     2.06085E+09     211.298E+06    -75.6173E+06     2.13647E+09    -732.177E+06     1.96154E+09     206.043E+06     2.04476E+09    -54.2660E+06     140.963E+06    -73.8223E+06    -101.019E+06
            2973               1     1.31025E+09     1.36889E+09     1.36889E+09     179.989E+06    -35.8896E+06     1.40478E+09    -504.330E+06     1.26931E+09     147.062E+06     1.36878E+09    -2.85601E+06    -1.03283E+06    -77.6294E+06     11.9302E+06
            2974               1     865.998E+06     894.243E+06     894.243E+06     316.373E+06    -101.447E+06     995.690E+06    -369.723E+06     562.517E+06     230.338E+06     769.408E+06     109.424E+06     29.6315E+06    -204.605E+06    -289.443E+06
            2975               1     1.88501E+09     1.98789E+09     1.98789E+09     271.969E+06    -29.8066E+06     2.01769E+09    -743.350E+06     1.82948E+09     233.877E+06     1.96394E+09     32.2348E+06    -127.069E+06    -122.267E+06     160.574E+06
            2976               1     1.52013E+09     1.44251E+09     1.44251E+09     323.540E+06    -288.185E+06     1.73069E+09    -492.621E+06     1.19183E+09     289.855E+06     1.21307E+09    -25.0565E+06    -102.500E+06    -237.111E+06     538.021E+06
            2977               1     3.09902E+09     2.74817E+09     2.74817E+09     479.665E+06    -782.815E+06     3.53098E+09    -815.006E+06     2.40920E+09     470.992E+06     2.68056E+09    -706.537E+06    -344.228E+06    -302.980E+06     184.759E+06
            2978               1     4.21291E+09     3.66832E+09     3.66832E+09     706.281E+06    -1.15461E+09     4.82293E+09    -1.07333E+09     3.05984E+09     711.272E+06     3.58080E+09    -1.07208E+09    -508.450E+06    -373.904E+06    -85.0231E+06
            2979               1     2.29904E+09     2.38476E+09     2.38476E+09     194.911E+06    -9.78920E+06     2.39455E+09    -856.627E+06     2.27840E+09     103.550E+06     2.34355E+09     122.778E+06    -146.314E+06     120.197E+06    -260.203E+06
            2980               1     1.46544E+09     1.42135E+09     1.42135E+09     70.7529E+06    -136.807E+06     1.55815E+09    -451.764E+06     1.43181E+09    -103.574E+06     1.41947E+09     39.3971E+06    -33.9877E+06     76.2900E+06    -37.5881E+06
            2981               1     1.44802E+09     1.40453E+09     1.40453E+09     75.5444E+06    -138.667E+06     1.54320E+09    -447.135E+06     1.41171E+09    -108.309E+06     1.40188E+09     47.8374E+06    -34.3415E+06    -75.0695E+06     48.6255E+06
            2982               1     1.68271E+09     1.67473E+09     1.67473E+09     45.4823E+06    -56.7750E+06     1.73151E+09    -554.479E+06     1.67570E+09    -29.3106E+06     1.65731E+09     35.4425E+06    -104.807E+06    -49.6153E+06     131.042E+06
            2983               1     4.94509E+09     4.97181E+09     4.97181E+09     1.27163E+09    -644.641E+06     5.61645E+09    -1.86627E+09     3.97055E+09     1.30051E+09     4.74435E+09    -446.060E+06    -785.062E+06     376.456E+06     646.616E+06
            2984               1     5.06645E+09     6.03495E+09     6.03495E+09     1.13917E+09     813.543E+06     5.22141E+09    -2.66256E+09     5.04283E+09     1.17059E+09     5.88824E+09     928.838E+06    -815.975E+06     113.902E+06     243.131E+06
            2985               1     7.60512E+09     9.25554E+09     9.25554E+09     1.68600E+09     1.61534E+09     7.64020E+09    -4.18563E+09     7.60438E+09     1.75956E+09     9.18116E+09     1.61617E+09    -746.530E+06     5.76415E+06     17.0406E+06
            2986               1     5.35585E+09     6.66818E+09     6.66818E+09     1.94932E+09     846.900E+06     5.82128E+09    -3.15480E+09     5.09110E+09     2.00654E+09     6.35317E+09     1.10469E+09    -1.01443E+09    -237.532E+06    -775.052E+06
            2987               1     4.13120E+09     4.81340E+09     4.81340E+09     939.894E+06     465.475E+06     4.34793E+09    -2.07292E+09     4.06924E+09     559.832E+06     4.79002E+09     868.914E+06    -297.771E+06     178.252E+06    -87.3655E+06
            2988               1     4.45296E+09     5.02378E+09     5.02378E+09     949.167E+06     270.411E+06     4.75337E+09    -2.08112E+09     4.33428E+09     998.438E+06     4.87011E+09     374.809E+06    -709.723E+06    -149.707E+06    -390.404E+06
            2989               1     1.47074E+09     1.43924E+09     1.43924E+09     84.1763E+06    -124.814E+06     1.56405E+09    -466.200E+06     1.43676E+09    -90.7559E+06     1.43584E+09     53.5162E+06     35.6786E+06    -77.8519E+06    -57.7302E+06
            2990               1     2.53767E+09     2.49799E+09     2.49799E+09     314.485E+06    -286.095E+06     2.78408E+09    -842.127E+06     2.36972E+09     277.004E+06     2.45319E+09    -203.817E+06     314.145E+06     199.783E+06    -59.4818E+06
            2991               1     2.05426E+09     2.09748E+09     2.09748E+09     155.012E+06    -52.7682E+06     2.15025E+09    -733.241E+06     2.03041E+09     147.471E+06     2.08523E+09    -32.9793E+06     154.520E+06     61.0245E+06    -1.94662E+06
            2992               1     1.93133E+09     2.00842E+09     2.00842E+09     216.581E+06    -37.2985E+06     2.04572E+09    -729.234E+06     1.89325E+09     209.524E+06     1.99223E+09    -14.0512E+06     137.451E+06     72.5540E+06     101.637E+06
            2993               1     1.49738E+09     1.59029E+09     1.59029E+09     197.784E+06     6.44660E+06     1.58385E+09    -598.175E+06     1.46949E+09     186.516E+06     1.57906E+09     28.9469E+06     78.2166E+06     58.2563E+06     100.277E+06
            2994               1     1.48585E+09     1.59483E+09     1.59483E+09     240.149E+06     5.68948E+06     1.58914E+09    -613.557E+06     1.44335E+09     202.364E+06     1.58461E+09     53.6954E+06    -68.1284E+06     94.3330E+06    -98.1963E+06
            2995               1     2.23809E+09     2.00244E+09     2.00244E+09     356.629E+06    -546.022E+06     2.54846E+09    -604.349E+06     1.75209E+09     330.578E+06     1.87900E+09    -396.533E+06    -203.712E+06     277.145E+06    -447.942E+06
            2996               1     2.30007E+09     2.37248E+09     2.37248E+09     176.141E+06    -18.9021E+06     2.39138E+09    -843.239E+06     2.28135E+09     74.5365E+06     2.33534E+09     119.842E+06    -147.028E+06    -113.053E+06     242.399E+06
            2997               1     5.56400E+09     6.74122E+09     6.74122E+09     1.27473E+09     1.08459E+09     5.65663E+09    -3.03351E+09     5.55668E+09     1.35997E+09     6.58388E+09     1.15669E+09     896.673E+06     54.6595E+06    -219.530E+06
            2998               1     5.52982E+09     6.51024E+09     6.51024E+09     1.14574E+09     828.754E+06     5.68149E+09    -2.82824E+09     5.50932E+09     894.814E+06     6.50255E+09     1.08737E+09     201.550E+06    -124.939E+06    -45.2099E+06
            2999               1     6.99965E+09     8.29736E+09     8.29736E+09     1.37148E+09     1.22621E+09     7.07115E+09    -3.63168E+09     6.99626E+09     1.33103E+09     8.28373E+09     1.28029E+09     307.993E+06    -69.7629E+06     11.8806E+06
            3000               1     7.09259E+09     8.54560E+09     8.54560E+09     1.55160E+09     1.35838E+09     7.18722E+09    -3.81853E+09     7.08666E+09     1.49888E+09     8.53223E+09     1.42448E+09     290.203E+06     95.2581E+06     96.8650E+06
            3001               1     5.71294E+09     6.65843E+09     6.65843E+09     1.02835E+09     866.100E+06     5.79233E+09    -2.85096E+09     5.70775E+09     911.234E+06     6.63049E+09     1.01116E+09     394.995E+06     55.3998E+06     63.1593E+06
            3002               1     5.39402E+09     7.82151E+09     7.82151E+09     2.91927E+09     2.04300E+09     5.77851E+09    -4.26126E+09     5.23028E+09     3.05260E+09     7.33631E+09     2.39487E+09     1.36510E+09    -197.611E+06     771.909E+06
            3003               1     3.16119E+09     3.06127E+09     3.06127E+09     436.103E+06    -447.780E+06     3.50905E+09    -1.01653E+09     2.86276E+09     445.292E+06     2.99268E+09    -388.375E+06     423.356E+06    -215.729E+06     51.4543E+06
            3004               1     2.24206E+09     2.24919E+09     2.24919E+09     63.5566E+06    -45.3328E+06     2.29452E+09    -755.803E+06     2.23610E+09     78.5754E+06     2.21331E+09    -24.4735E+06     193.601E+06     2.37632E+06     205.492E+06
            3005               1     2.14377E+09     2.19148E+09     2.19148E+09     261.894E+06    -116.181E+06     2.30766E+09    -779.063E+06     2.06676E+09     199.547E+06     2.16096E+09    -23.3205E+06     231.344E+06    -149.345E+06     106.969E+06
            3006               1     1.49304E+09     1.46857E+09     1.46857E+09     101.651E+06    -124.734E+06     1.59331E+09    -481.830E+06     1.45368E+09    -86.2654E+06     1.46418E+09     67.5801E+06     42.7211E+06     85.8753E+06     64.7275E+06
            3007               1     5.43690E+09     8.32935E+09     8.32935E+09     2.90206E+09     2.88287E+09     5.44648E+09    -4.70476E+09     5.43683E+09     3.22328E+09     7.99019E+09     2.90081E+09    -1.31596E+09    -4.00380E+06    -3.50606E+06
            3008               1     4.72908E+09     4.68012E+09     4.68012E+09     1.05390E+09    -668.818E+06     5.34894E+09    -1.68840E+09     3.92370E+09     1.09533E+09     4.49451E+09    -524.636E+06    -751.291E+06    -348.958E+06    -454.725E+06
            3009               1     1.65406E+09     1.69354E+09     1.69354E+09     341.383E+06    -150.723E+06     1.84427E+09    -628.069E+06     1.47537E+09     264.579E+06     1.61169E+09     7.93779E+06     115.220E+06    -220.837E+06    -328.375E+06
            3010               1     4.91579E+09     5.00159E+09     5.00159E+09     1.24534E+09    -562.039E+06     5.56363E+09    -1.89496E+09     4.06036E+09     1.25781E+09     4.76866E+09    -341.573E+06     797.639E+06    -386.765E+06     660.378E+06
            3011               1     7.05321E+09     9.14424E+09     9.14424E+09     2.13354E+09     2.04927E+09     7.09497E+09    -4.44235E+09     7.05208E+09     2.33653E+09     8.94111E+09     2.04940E+09     1.17571E+09    -6.12099E+06    -22.6994E+06
            3012               1     4.04714E+09     3.60234E+09     3.60234E+09     711.209E+06    -1.02291E+09     4.62524E+09    -1.09688E+09     3.02396E+09     720.088E+06     3.51103E+09    -940.474E+06     512.758E+06     359.630E+06    -84.1419E+06
            3013               1     852.709E+06     885.161E+06     885.161E+06     312.656E+06    -94.8430E+06     980.004E+06    -367.658E+06     562.230E+06     228.483E+06     762.763E+06     111.728E+06     32.3027E+06     201.442E+06     283.302E+06
            3014               1     1.87958E+09     1.97966E+09     1.97966E+09     267.825E+06    -31.6893E+06     2.01135E+09    -738.598E+06     1.82472E+09     228.795E+06     1.95594E+09     31.0633E+06    -130.004E+06     123.011E+06    -156.072E+06
            3015               1     3.08713E+09     2.69306E+09     2.69306E+09     447.716E+06    -827.363E+06     3.52042E+09    -771.137E+06     2.37602E+09     436.130E+06     2.62489E+09    -747.608E+06    -330.510E+06     306.624E+06    -214.308E+06
            3016               1     2.22547E+09     1.96937E+09     1.96937E+09     347.854E+06    -567.871E+06     2.53724E+09    -583.118E+06     1.71765E+09     318.535E+06     1.84586E+09    -415.039E+06    -195.200E+06    -280.646E+06     451.251E+06
            3017               1     2.09241E+09     2.12011E+09     2.12011E+09     196.839E+06    -107.982E+06     2.22810E+09    -736.324E+06     2.04155E+09     156.808E+06     2.10307E+09    -50.9018E+06    -174.377E+06    -122.368E+06     47.2481E+06
            3018               1     5.46545E+09     7.88080E+09     7.88080E+09     2.75707E+09     2.12806E+09     5.75274E+09    -4.25531E+09     5.38311E+09     2.87899E+09     7.50756E+09     2.37938E+09    -1.23744E+09    -137.956E+06    -641.481E+06
            3019               1     5.43484E+09     6.62793E+09     6.62793E+09     2.01809E+09     635.248E+06     5.99268E+09    -3.09376E+09     5.01561E+09     2.09059E+09     6.25895E+09     931.725E+06    -1.06546E+09     275.560E+06     886.065E+06
            3020               1     2.95523E+09     3.26423E+09     3.26423E+09     568.252E+06      104.57E+06     3.15966E+09    -1.31235E+09     2.87168E+09     231.560E+06     3.25900E+09     446.496E+06    -117.867E+06    -205.917E+06     34.7954E+06
            3021               1     949.564E+06     1.02275E+09     1.02275E+09     349.627E+06    -63.3829E+06     1.08613E+09    -436.330E+06     700.001E+06     257.636E+06     935.136E+06     116.219E+06    -36.0775E+06    -197.829E+06     261.753E+06
            3022               1     2.08069E+09     2.14515E+09     2.14515E+09     157.250E+06    -17.3299E+06     2.16248E+09    -761.689E+06     2.06411E+09     157.288E+06     2.13240E+09    -4.61851E+06     158.935E+06    -44.3940E+06     13.0436E+06
            3023               1     5.54317E+09     7.84793E+09     7.84793E+09     2.69153E+09     1.98563E+09     5.86231E+09    -4.17503E+09     5.44067E+09     2.81394E+09     7.48112E+09     2.23003E+09    -1.22595E+09     156.731E+06     657.120E+06
            3024               1     1.38862E+09     1.46610E+09     1.46610E+09     336.220E+06    -84.1299E+06     1.55023E+09    -572.730E+06     1.23281E+09     255.098E+06     1.41033E+09     52.7596E+06     66.2724E+06    -187.556E+06    -258.394E+06
            3025               1     1.53740E+09     1.44353E+09     1.44353E+09     321.574E+06    -308.878E+06     1.75241E+09    -485.409E+06     1.18954E+09     285.586E+06     1.21525E+09    -44.6060E+06    -98.1099E+06     239.812E+06    -542.196E+06
            3026               1     4.11949E+09     3.96567E+09     3.96567E+09     777.987E+06    -685.830E+06     4.65150E+09    -1.35261E+09     3.45717E+09     792.170E+06     3.84974E+09    -584.084E+06     576.185E+06    -308.090E+06     282.100E+06
            3027               1     1.95986E+09     1.97587E+09     1.97587E+09     65.5482E+06    -30.0304E+06     2.00590E+09    -670.464E+06     1.95461E+09     61.4778E+06     1.95960E+09    -9.68434E+06    -156.000E+06    -29.4771E+06    -86.5088E+06
            3028               1     2.19056E+09     2.31416E+09     2.31416E+09     333.962E+06    -38.9037E+06     2.35306E+09    -869.740E+06     2.11740E+09     72.4875E+06     2.30637E+09     230.363E+06    -67.7694E+06    -173.187E+06     103.815E+06
            3029               1     2.55100E+09     2.56727E+09     2.56727E+09     228.037E+06    -152.696E+06     2.71997E+09    -880.872E+06     2.48587E+09     227.135E+06     2.51608E+09    -100.603E+06    -321.320E+06     103.582E+06     151.448E+06
            3030               1     1.69394E+09     1.63666E+09     1.63666E+09    -20.1668E+06    -92.1031E+06     1.72877E+09    -508.131E+06     1.69050E+09    -62.7999E+06     1.62607E+09    -38.8793E+06     98.3052E+06    -39.0067E+06    -88.3688E+06
            3031               1     3.19976E+09     2.67339E+09     2.67339E+09     452.074E+06    -994.176E+06     3.66757E+09    -710.431E+06     2.26828E+09     445.237E+06     2.57177E+09    -885.711E+06     321.509E+06     339.333E+06     391.194E+06
            3032               1     4.34064E+09     5.09319E+09     5.09319E+09     860.167E+06     652.393E+06     4.44080E+09    -2.20192E+09     4.32944E+09     874.849E+06     4.95961E+09     771.290E+06     736.181E+06    -76.7451E+06     161.855E+06
            3033               1     5.36948E+09     6.34674E+09     6.34674E+09     1.78509E+09     429.312E+06     5.91742E+09    -2.85371E+09     4.96198E+09     1.84884E+09     6.02787E+09     684.431E+06     1.00317E+09    -277.633E+06     794.721E+06
            3034               1     4.88769E+09     5.19140E+09     5.19140E+09     1.27965E+09    -287.710E+06     5.47911E+09    -2.06111E+09     4.26474E+09     1.31961E+09     4.95272E+09    -88.9962E+06     821.776E+06     316.901E+06    -648.339E+06
            3035               1     5.34846E+09     6.65622E+09     6.65622E+09     2.16760E+09     738.331E+06     5.91789E+09    -3.18738E+09     4.89037E+09     2.21683E+09     6.23608E+09     1.10924E+09     1.11089E+09     308.662E+06    -963.536E+06
            3036               1     5.56048E+09     7.23835E+09     7.23835E+09     1.90419E+09     1.47627E+09     5.76208E+09    -3.53961E+09     5.52325E+09     1.99828E+09     6.99283E+09     1.62771E+09     1.04642E+09    -99.7703E+06     472.714E+06
            3037               1     6.60845E+09     8.54198E+09     8.54198E+09     1.95396E+09     1.91329E+09     6.62869E+09    -4.13641E+09     6.60817E+09     2.11622E+09     8.36276E+09     1.93026E+09     1.06988E+09     -5.8077E+06     85.9508E+06
            3038               1     6.46565E+09     8.35345E+09     8.35345E+09     1.98281E+09     1.79680E+09     6.55665E+09    -4.04435E+09     6.45963E+09     2.09078E+09     8.15349E+09     1.88878E+09     1.09969E+09     55.4367E+06    -220.260E+06
            3039               1     2.09475E+09     2.10876E+09     2.10876E+09     56.3118E+06    -25.8851E+06     2.13464E+09    -713.061E+06     2.09112E+09     68.6662E+06     2.07212E+09    -1.60257E+06     159.027E+06    -13.7722E+06    -225.099E+06
            3040               1     2.56527E+09     2.65257E+09     2.65257E+09     145.367E+06     32.9136E+06     2.61965E+09    -943.615E+06     2.55972E+09     155.343E+06     2.60952E+09     65.9845E+06     222.537E+06    -53.9463E+06    -240.189E+06
            3041               1     3.08757E+09     3.41078E+09     3.41078E+09     590.881E+06     111.585E+06     3.29919E+09    -1.37108E+09     3.00216E+09     250.448E+06     3.40206E+09     460.733E+06     69.2871E+06     220.099E+06     140.489E+06
            3042               1     891.477E+06     995.863E+06     995.863E+06     348.341E+06    -20.9118E+06     1.01677E+09    -441.097E+06     684.667E+06     228.585E+06     987.674E+06     107.032E+06     9.61785E+06     174.851E+06     80.5696E+06
            3043               1     2.16892E+09     2.27145E+09     2.27145E+09     299.759E+06    -51.7532E+06     2.32320E+09    -839.818E+06     2.10339E+09     52.4254E+06     2.26386E+09     203.173E+06    -69.3919E+06     162.957E+06    -100.500E+06
            3044               1     2.93988E+09     3.27817E+09     3.27817E+09     573.643E+06     149.102E+06     3.12907E+09    -1.33364E+09     2.86970E+09     250.905E+06     3.26895E+09     481.058E+06    -111.107E+06     183.132E+06    -112.943E+06
            3045               1     3.04876E+09     3.23313E+09     3.23313E+09     228.999E+06     141.620E+06     3.09151E+09    -1.20125E+09     3.04594E+09     193.710E+06     3.19659E+09     213.451E+06    -299.666E+06     52.2757E+06    -140.177E+06
            3046               1     1.98158E+09     1.98238E+09     1.98238E+09     63.9864E+06    -56.8500E+06     2.03923E+09    -663.172E+06     1.97326E+09     59.6994E+06     1.96702E+09    -37.2042E+06    -152.721E+06     34.9475E+06     83.5041E+06
            3047               1     2.96188E+09     3.26874E+09     3.26874E+09     390.208E+06     230.002E+06     3.03873E+09    -1.29632E+09     2.95211E+09     296.213E+06     3.22870E+09     364.034E+06    -280.668E+06    -87.5842E+06     189.936E+06
            3048               1     1.72496E+09     1.67013E+09     1.67013E+09    -34.1508E+06    -74.7895E+06     1.74492E+09    -520.396E+06     1.72388E+09    -50.5726E+06     1.65672E+09    -44.9557E+06     102.806E+06     26.8733E+06     110.041E+06
            3049               1     2.65232E+09     2.82950E+09     2.82950E+09     210.838E+06     144.763E+06     2.68474E+09    -1.06170E+09     2.65047E+09     242.440E+06     2.77062E+09     172.042E+06     292.504E+06     40.2545E+06     257.310E+06
            3050               1     3.95815E+09     4.48326E+09     4.48326E+09     692.090E+06     376.965E+06     4.10629E+09    -1.85077E+09     3.92978E+09     490.565E+06     4.44068E+09     621.065E+06    -375.570E+06    -151.260E+06     152.956E+06
            3051               1     1.94175E+09     1.96599E+09     1.96599E+09     62.6905E+06    -12.0479E+06     1.97804E+09    -672.212E+06     1.93851E+09     68.5703E+06     1.95581E+09    -7.74188E+06     133.337E+06    -12.9352E+06     41.0362E+06
            3052               1     3.05948E+09     3.40758E+09     3.40758E+09     612.001E+06     139.231E+06     3.26835E+09    -1.38627E+09     2.97563E+09     263.271E+06     3.40162E+09     493.923E+06     105.019E+06    -208.829E+06    -77.3934E+06
            3053               1     1.93002E+09     1.97494E+09     1.97494E+09     83.4692E+06     8.55882E+06     1.96639E+09    -688.991E+06     1.92675E+09     84.1048E+06     1.96286E+09     20.0100E+06     145.790E+06     22.9302E+06    -42.4301E+06
            3054               1     3.89790E+09     4.43801E+09     4.43801E+09     767.812E+06     346.617E+06     4.09140E+09    -1.85081E+09     3.84621E+09     418.335E+06     4.43381E+09     700.293E+06    -95.1405E+06    -158.322E+06     81.5010E+06
            3055               1     3.37749E+09     3.57413E+09     3.57413E+09     533.067E+06    -60.9558E+06     3.63509E+09    -1.34875E+09     3.25683E+09     536.938E+06     3.45722E+09     52.0818E+06    -559.414E+06    -179.243E+06    -253.714E+06
            3056               1     4.13865E+09     4.75430E+09     4.75430E+09     876.603E+06     396.564E+06     4.35774E+09    -2.00916E+09     4.07531E+09     495.731E+06     4.74841E+09     783.328E+06     138.667E+06    -193.323E+06    -67.5534E+06
            3057               1     2.99515E+09     3.05349E+09     3.05349E+09     374.026E+06    -179.997E+06     3.23349E+09    -1.08251E+09     2.87646E+09     377.073E+06     2.97731E+09    -106.864E+06     439.512E+06     162.924E+06    -139.083E+06
            3058               1     931.089E+06     1.01955E+09     1.01955E+09     354.603E+06    -44.5690E+06     1.06412E+09    -443.196E+06     695.364E+06     263.758E+06     934.262E+06     131.567E+06    -39.3729E+06     194.084E+06    -254.025E+06
            3059               1     881.553E+06     1.00693E+09     1.00693E+09     362.909E+06     2.23316E+06     1.00470E+09    -457.358E+06     683.222E+06     243.710E+06     995.851E+06     132.513E+06     7.26666E+06    -171.839E+06    -94.2935E+06
            3060               1     1.57977E+09     1.43070E+09     1.43070E+09     317.065E+06    -377.334E+06     1.80803E+09    -456.809E+06     1.15294E+09     292.042E+06     1.14490E+09    -66.5171E+06     96.8907E+06    -246.025E+06    -612.151E+06
            3061               1     2.27223E+09     1.90474E+09     1.90474E+09     326.509E+06    -699.574E+06     2.60431E+09    -510.557E+06     1.61240E+09     309.758E+06     1.69583E+09    -473.920E+06     179.781E+06    -292.323E+06    -629.320E+06
            3062               1     1.58418E+09     1.41302E+09     1.41302E+09     307.472E+06    -401.880E+06     1.81490E+09    -439.536E+06     1.13454E+09     282.404E+06     1.12987E+09    -93.6705E+06     93.5528E+06     244.645E+06     612.500E+06
            3063               1     1.65795E+09     1.67968E+09     1.67968E+09     326.671E+06    -169.773E+06     1.84946E+09    -612.194E+06     1.47630E+09     250.686E+06     1.60341E+09    -17.5163E+06     119.065E+06     220.812E+06     313.788E+06
            3064               1     5.31435E+09     7.76583E+09     7.76583E+09     2.92174E+09     2.08137E+09     5.68446E+09    -4.25632E+09     5.16168E+09     3.06036E+09     7.27723E+09     2.43136E+09     1.34666E+09     174.965E+06    -791.620E+06
            3065               1     2.37424E+09     1.99984E+09     1.99984E+09     354.839E+06    -722.003E+06     2.72184E+09    -544.226E+06     1.67654E+09     342.648E+06     1.79995E+09    -509.916E+06     199.812E+06     298.170E+06     621.160E+06
            3066               1     1.63784E+09     1.68089E+09     1.68089E+09     68.8927E+06     18.3666E+06     1.66252E+09    -589.381E+06     1.63609E+09     36.1485E+06     1.67146E+09     60.5362E+06    -43.0489E+06    -26.8492E+06     115.241E+06
            3067               1     1.51484E+09     1.52078E+09     1.52078E+09     29.5477E+06    -16.6070E+06     1.53739E+09    -511.242E+06     1.51326E+09    -12.3168E+06     1.50337E+09     42.6758E+06    -22.6350E+06     15.3579E+06    -158.674E+06
            3068               1     2.46248E+09     2.34097E+09     2.34097E+09     11.8252E+06    -236.095E+06     2.57707E+09    -705.567E+06     2.43417E+09     3.99004E+06     2.32548E+09    -212.774E+06    -107.102E+06    -47.3073E+06    -166.491E+06
            3069               1     4.92005E+09     5.21760E+09     5.21760E+09     448.187E+06     159.618E+06     5.05798E+09    -1.94180E+09     4.90095E+09     214.205E+06     5.21010E+09     401.100E+06    -133.510E+06    -113.769E+06     134.635E+06
            3070               1     3.43216E+09     3.30465E+09     3.30465E+09     82.0311E+06    -304.353E+06     3.60900E+09    -1.02744E+09     3.38271E+09     86.5751E+06     3.26465E+09    -268.899E+06    -232.945E+06     47.4170E+06     290.939E+06
            3071               1     4.34567E+09     4.40132E+09     4.40132E+09     220.934E+06    -92.6457E+06     4.49396E+09    -1.50987E+09     4.32010E+09     205.747E+06     4.32435E+09    -488.960E+03    -425.062E+06     83.0537E+06     394.665E+06
            3072               1     2.13910E+09     2.08007E+09     2.08007E+09     86.8753E+06    -179.903E+06     2.25998E+09    -662.348E+06     2.10118E+09     60.5852E+06     2.05251E+09    -126.047E+06     90.6273E+06     95.4917E+06     223.168E+06
            3073               1     1.98049E+09     2.01838E+09     2.01838E+09     150.697E+06    -58.3302E+06     2.07671E+09    -703.582E+06     1.95544E+09     1.38999E+06     2.00427E+09     105.086E+06     37.3406E+06    -97.3744E+06    -158.223E+06
            3074               1     6.51125E+09     8.78172E+09     8.78172E+09     3.07197E+09     1.69064E+09     7.09107E+09    -4.51478E+09     6.16853E+09     2.20947E+09     8.26364E+09     3.07121E+09     1.84497E+09     41.4815E+06     17.6776E+06
            3075               1     3.67209E+09     3.83027E+09     3.83027E+09     322.534E+06     13.3727E+06     3.81689E+09    -1.38872E+09     3.64263E+09     90.0558E+06     3.82765E+09     248.467E+06     30.9468E+06     134.167E+06     90.7620E+06
            3076               1     3.01339E+09     3.04134E+09     3.04134E+09     71.6845E+06    -13.9661E+06     3.05530E+09    -1.03302E+09     3.01065E+09     54.2173E+06     2.99988E+09     44.9547E+06     113.980E+06     50.4166E+06     331.464E+06
            3077               1     2.12167E+09     2.09143E+09     2.09143E+09     33.6667E+06      -88.84E+06     2.18027E+09    -678.751E+06     2.11369E+09     27.8585E+06     2.08922E+09    -80.8200E+06    -59.8739E+06     30.3749E+06    -31.2210E+06
            3078               1     4.50318E+09     4.26352E+09     4.26352E+09     531.824E+06    -738.328E+06     5.00185E+09    -1.35234E+09     4.06997E+09     514.398E+06     4.18658E+09    -643.959E+06    -534.429E+06     337.117E+06    -12.9138E+06
            3079               1     6.16791E+09     6.54095E+09     6.54095E+09     507.704E+06     246.661E+06     6.29429E+09    -2.43177E+09     6.15546E+09     261.389E+06     6.53398E+09     499.948E+06    -189.881E+06    -50.1762E+06     84.6607E+06
            3080               1     6.30459E+09     6.65041E+09     6.65041E+09     466.431E+06     231.765E+06     6.41865E+09    -2.44954E+09     6.29475E+09     243.052E+06     6.64117E+09     464.382E+06    -172.182E+06     43.4972E+06    -167.712E+06
            3081               1     4.93123E+09     5.14986E+09     5.14986E+09     387.321E+06     65.6836E+06     5.08417E+09    -1.86762E+09     4.90755E+09     110.487E+06     5.14895E+09     343.424E+06    -49.8373E+06     111.293E+06    -43.4789E+06
            3082               1     1.65197E+09     1.70229E+09     1.70229E+09     70.2008E+06     31.1403E+06     1.67115E+09    -601.211E+06     1.65093E+09     47.8124E+06     1.68984E+09     65.9814E+06     47.6856E+06    -23.0232E+06    -133.962E+06
            3083               1     3.15130E+09     2.89694E+09     2.89694E+09     300.300E+06    -609.046E+06     3.50599E+09    -862.733E+06     2.83279E+09     254.881E+06     2.80057E+09    -467.257E+06     250.216E+06    -291.756E+06    -464.454E+06
            3084               1     2.17328E+09     2.10339E+09     2.10339E+09     90.1625E+06    -200.655E+06     2.30405E+09    -664.300E+06     2.12884E+09     64.2101E+06     2.07352E+09    -144.831E+06     89.5717E+06    -99.5651E+06    -236.844E+06
            3085               1     1.98466E+09     2.02425E+09     2.02425E+09     147.646E+06    -53.1962E+06     2.07744E+09    -706.233E+06     1.96160E+09     3.64807E+06     2.01501E+09     100.041E+06     9.29136E+06     91.2722E+06     132.462E+06
            3086               1     6.58879E+09     7.07908E+09     7.07908E+09     577.234E+06     406.659E+06     6.67243E+09    -2.68766E+09     6.58382E+09     409.549E+06     7.07443E+09     578.996E+06     125.683E+06     7.11752E+06    -121.961E+06
            3087               1     3.17642E+09     3.20999E+09     3.20999E+09     101.365E+06    -30.1432E+06     3.24014E+09    -1.09374E+09     3.17029E+09     77.9288E+06     3.15909E+09     44.1965E+06     187.815E+06    -79.7279E+06    -349.358E+06
            3088               1     4.02539E+09     4.14751E+09     4.14751E+09     185.135E+06     61.9320E+06     4.08558E+09    -1.46486E+09     4.02115E+09     82.1871E+06     4.11485E+09     197.540E+06     209.436E+06    -47.9450E+06    -291.426E+06
            3089               1     4.09971E+09     3.99988E+09     3.99988E+09     343.099E+06    -432.081E+06     4.43196E+09    -1.30363E+09     3.92972E+09     309.753E+06     3.94648E+09    -345.340E+06     409.589E+06     212.835E+06    -209.025E+06
            3090               1     1.50627E+09     1.55644E+09     1.55644E+09     131.355E+06    -19.6497E+06     1.57609E+09    -556.048E+06     1.48910E+09     76.1524E+06     1.49063E+09     101.358E+06     32.8835E+06     81.7041E+06     305.423E+06
            3091               1     1.43046E+09     1.46820E+09     1.46820E+09     73.1211E+06     4.81229E+06     1.46339E+09    -515.379E+06     1.42678E+09     31.5990E+06     1.46809E+09     46.4432E+06    -7.40203E+06     33.3939E+06    -9.85606E+06
            3092               1     2.11357E+09     2.11518E+09     2.11518E+09     58.9650E+06    -51.4192E+06     2.16660E+09    -707.576E+06     2.10707E+09     52.8484E+06     2.10606E+09    -36.1830E+06     66.9364E+06    -33.1131E+06    -121.162E+06
            3093               1     1.44864E+09     1.47385E+09     1.47385E+09     59.4097E+06    -6.71333E+06     1.48057E+09    -508.850E+06     1.44524E+09     24.1579E+06     1.47367E+09     28.7208E+06    -3.34435E+06    -33.0269E+06     15.8038E+06
            3094               1     989.898E+06     1.15504E+09     1.15504E+09     431.777E+06     26.8808E+06     1.12816E+09    -537.900E+06     767.340E+06     185.755E+06     953.632E+06     474.312E+06     21.8678E+06    -231.886E+06    -349.202E+06
            3095               1     2.00358E+09     2.04571E+09     2.04571E+09     85.0428E+06     1.80644E+06     2.04390E+09    -710.852E+06     1.99968E+09     54.9149E+06     2.02502E+09     52.6239E+06    -56.6593E+06    -46.2083E+06     193.625E+06
            3096               1     1.68304E+09     1.71821E+09     1.71821E+09     249.834E+06    -118.483E+06     1.83669E+09    -616.520E+06     1.58852E+09     156.982E+06     1.39463E+09     297.947E+06    -71.9210E+06    -220.195E+06     656.876E+06
            3097               1     3.24221E+09     3.06659E+09     3.06659E+09     328.926E+06    -513.762E+06     3.58036E+09    -960.586E+06     2.98052E+09     302.673E+06     2.99608E+09    -416.990E+06    -308.348E+06    -258.037E+06     324.702E+06
            3098               1     4.58550E+09     4.28640E+09     4.28640E+09     555.114E+06    -832.700E+06     5.11910E+09    -1.33627E+09     4.07120E+09     504.565E+06     4.21813E+09    -713.878E+06    -488.912E+06    -398.106E+06     107.032E+06
            3099               1     2.18060E+09     2.20197E+09     2.20197E+09     87.0565E+06    -38.8467E+06     2.24082E+09    -750.061E+06     2.17240E+09     72.0604E+06     2.14729E+09     30.8338E+06    -107.301E+06     63.8125E+06    -323.737E+06
            3100               1     1.26983E+09     1.25619E+09     1.25619E+09     32.3035E+06    -55.0700E+06     1.31126E+09    -411.141E+06     1.26304E+09    -30.3988E+06     1.25417E+09     9.65247E+06    -12.0191E+06       39.76E+06    -48.3718E+06
            3101               1     1.23657E+09     1.23173E+09     1.23173E+09     44.4184E+06    -48.8209E+06     1.28055E+09    -409.109E+06     1.22862E+09    -32.0225E+06     1.22793E+09     31.4190E+06    -4.50371E+06    -36.1150E+06     67.2276E+06
            3102               1     1.55143E+09     1.54002E+09     1.54002E+09     15.2141E+06    -36.7327E+06     1.57675E+09    -506.166E+06     1.54947E+09    -14.3496E+06     1.51930E+09     13.5528E+06    -29.7698E+06    -29.2011E+06     174.797E+06
            3103               1     5.39713E+09     5.53331E+09     5.53331E+09     977.333E+06    -427.252E+06     5.96056E+09    -2.02780E+09     4.96031E+09     871.853E+06     5.37711E+09    -165.573E+06    -794.893E+06     466.789E+06     421.239E+06
            3104               1     4.84079E+09     5.06565E+09     5.06565E+09     288.593E+06     163.552E+06     4.90210E+09    -1.83927E+09     4.83716E+09     190.697E+06     5.01686E+09     310.238E+06    -361.539E+06    -18.8179E+06     321.878E+06
            3105               1     6.80648E+09     7.28303E+09     7.28303E+09     610.105E+06     350.417E+06     6.93261E+09    -2.74785E+09     6.79532E+09     358.644E+06     7.27477E+09     610.135E+06    -237.016E+06      4.3758E+06     31.1684E+06
            3106               1     5.90630E+09     6.74039E+09     6.74039E+09     1.22989E+09     505.178E+06     6.23521E+09    -2.82515E+09     5.80500E+09     1.09368E+09     6.47043E+09     911.353E+06    -1.08560E+09    -245.525E+06    -644.175E+06
            3107               1     3.66436E+09     3.86161E+09     3.86161E+09     388.461E+06     32.0763E+06     3.82953E+09    -1.42738E+09     3.62506E+09     104.923E+06     3.84849E+09     328.731E+06    -106.941E+06     146.937E+06    -184.301E+06
            3108               1     4.49237E+09     4.67105E+09     4.67105E+09     397.256E+06    -11.9027E+06     4.68295E+09    -1.68547E+09     4.45016E+09     371.890E+06     4.58663E+09     97.8815E+06    -478.470E+06    -119.298E+06    -390.674E+06
            3109               1     1.27929E+09     1.27955E+09     1.27955E+09     48.7251E+06    -43.2405E+06     1.32279E+09    -428.344E+06     1.27182E+09    -25.2272E+06     1.27449E+09     35.7649E+06     10.1656E+06    -37.1206E+06    -78.3315E+06
            3110               1     2.55322E+09     2.42457E+09     2.42457E+09     57.1502E+06    -280.796E+06     2.70537E+09    -733.641E+06     2.50216E+09     46.9593E+06     2.41430E+09    -260.335E+06     140.384E+06     72.4533E+06    -77.1894E+06
            3111               1     2.08315E+09     2.08289E+09     2.08289E+09     40.2944E+06    -38.5888E+06     2.12147E+09    -694.864E+06     2.07979E+09     32.7357E+06     2.08102E+09    -29.1645E+06     61.6390E+06     25.4055E+06    -5.87764E+06
            3112               1     2.04400E+09     2.06078E+09     2.06078E+09     64.6319E+06    -27.9257E+06     2.08871E+09    -699.163E+06     2.03928E+09     57.6741E+06     2.05158E+09    -11.7676E+06     63.7114E+06     31.3344E+06     120.924E+06
            3113               1     1.64927E+09     1.68487E+09     1.68487E+09     57.8937E+06     14.1696E+06     1.67070E+09    -585.643E+06     1.64796E+09     39.6136E+06     1.67399E+09     43.3230E+06     48.1686E+06     25.4746E+06     123.874E+06
            3114               1     1.64377E+09     1.68015E+09     1.68015E+09     58.1081E+06     15.4825E+06     1.66467E+09    -584.581E+06     1.64253E+09     31.5336E+06     1.67013E+09      52.074E+06    -38.2910E+06     23.3008E+06    -121.350E+06
            3115               1     2.36468E+09     2.26987E+09     2.26987E+09     230.646E+06    -322.282E+06     2.59216E+09    -726.079E+06     2.21211E+09     171.536E+06     2.10320E+09    -96.4988E+06    -154.863E+06     239.853E+06    -584.885E+06
            3116               1     2.14416E+09     2.16025E+09     2.16025E+09     70.8965E+06    -34.7974E+06     2.19505E+09    -732.116E+06     2.13828E+09     57.2384E+06     2.10610E+09     33.0150E+06    -82.4932E+06    -52.4581E+06     326.954E+06
            3117               1     5.33924E+09     5.64817E+09     5.64817E+09     399.329E+06     222.914E+06     5.42526E+09    -2.09014E+09     5.33267E+09     255.666E+06     5.59886E+09     415.888E+06     418.978E+06    -27.0900E+06    -294.005E+06
            3118               1     4.87269E+09     5.18984E+09     5.18984E+09     443.591E+06     199.872E+06     4.98997E+09    -1.94444E+09     4.85894E+09     243.004E+06     5.18525E+09     405.055E+06     98.3042E+06    -93.5653E+06    -110.560E+06
            3119               1     6.25050E+09     6.63946E+09     6.63946E+09     465.917E+06     314.742E+06     6.32472E+09    -2.47337E+09     6.24639E+09     369.441E+06     6.63226E+09     418.415E+06     212.112E+06    -69.7493E+06     14.0607E+06
            3120               1     6.36711E+09     6.88549E+09     6.88549E+09     624.463E+06     417.359E+06     6.46813E+09    -2.64244E+09     6.35952E+09     458.747E+06     6.87276E+09     595.806E+06     242.059E+06     80.7506E+06     147.723E+06
            3121               1     5.04684E+09     5.26087E+09     5.26087E+09     303.040E+06     129.485E+06     5.13138E+09    -1.89780E+09     5.04012E+09     147.337E+06     5.25700E+09     289.056E+06     104.365E+06     51.7096E+06     91.9200E+06
            3122               1     6.69110E+09     8.47279E+09     8.47279E+09     2.42647E+09     1.28401E+09     7.18878E+09    -4.06109E+09     6.46619E+09     1.92940E+09     7.98779E+09     2.26608E+09     1.69106E+09    -293.183E+06     620.807E+06
            3123               1     3.23886E+09     3.08447E+09     3.08447E+09     196.180E+06    -417.242E+06     3.50171E+09    -954.469E+06     3.10411E+09     173.480E+06     3.06136E+09    -371.435E+06     257.904E+06    -157.599E+06     43.7076E+06
            3124               1     2.10236E+09     2.07173E+09     2.07173E+09     40.3365E+06    -95.0512E+06     2.16678E+09    -672.340E+06     2.09252E+09     42.7527E+06     2.03230E+09    -58.0334E+06     71.4331E+06     5.57230E+06     280.211E+06
            3125               1     2.18420E+09     2.08885E+09     2.08885E+09    -24.5128E+06    -159.896E+06     2.24874E+09    -634.812E+06     2.17473E+09    -21.7882E+06     2.07150E+09    -145.271E+06     80.9977E+06    -530.561E+03     178.392E+06
            3126               1     1.29520E+09     1.29793E+09     1.29793E+09     58.3515E+06    -46.5168E+06     1.34445E+09    -436.589E+06      1.2856E+09    -23.7772E+06     1.29067E+09     42.8715E+06     19.6486E+06     44.5176E+06     92.7956E+06
            3127               1     6.50512E+09     8.41747E+09     8.41747E+09     2.52200E+09     1.43871E+09     6.97877E+09    -4.12606E+09     6.29738E+09     1.81343E+09     8.04342E+09     2.52134E+09    -1.57150E+09    -33.5074E+06     16.7599E+06
            3128               1     5.05277E+09     5.02132E+09     5.02132E+09     734.524E+06    -549.612E+06     5.57093E+09    -1.73541E+09     4.66396E+09     640.547E+06     4.91601E+09    -350.323E+06    -665.767E+06    -433.998E+06    -214.360E+06
            3129               1     1.77823E+09     1.77564E+09     1.77564E+09     94.7512E+06     -86.109E+06     1.86175E+09    -594.762E+06     1.75736E+09     40.6523E+06     1.68604E+09     57.5957E+06     47.4180E+06    -96.7578E+06    -386.257E+06
            3130               1     5.41432E+09     5.57341E+09     5.57341E+09     908.508E+06    -363.743E+06     5.93716E+09    -2.03939E+09     5.06135E+09     813.485E+06     5.40695E+09    -102.257E+06     797.963E+06    -413.725E+06     498.734E+06
            3131               1     6.87217E+09     7.64574E+09     7.64574E+09     1.05897E+09     519.935E+06     7.12581E+09    -3.07488E+09     6.82436E+09     585.830E+06     7.58303E+09     1.05578E+09     665.008E+06    -43.5651E+06    -17.2523E+06
            3132               1     4.32192E+09     4.09861E+09     4.09861E+09     562.154E+06    -719.062E+06     4.81767E+09    -1.31390E+09     3.85867E+09     523.671E+06     4.02316E+09    -605.132E+06     494.552E+06     376.122E+06     129.053E+06
            3133               1     982.535E+06     1.15223E+09     1.15223E+09     426.123E+06     34.2305E+06     1.11800E+09    -537.529E+06     774.899E+06     188.787E+06     956.101E+06     467.700E+06     26.2339E+06     226.153E+06     345.122E+06
            3134               1     1.99089E+09     2.03477E+09     2.03477E+09     94.5961E+06    -3.23578E+06     2.03801E+09    -708.711E+06     1.98548E+09     58.6317E+06     2.01519E+09     52.3119E+06    -61.2768E+06     53.6967E+06    -185.500E+06
            3135               1     3.21615E+09     3.00703E+09     3.00703E+09     320.171E+06    -556.574E+06     3.56361E+09    -923.543E+06     2.92866E+09     282.250E+06     2.93638E+09    -448.001E+06    -275.469E+06     271.212E+06    -355.630E+06
            3136               1     2.33975E+09     2.23052E+09     2.23052E+09     217.726E+06    -336.630E+06     2.56715E+09    -703.871E+06     2.18454E+09     157.395E+06     2.06412E+09    -109.907E+06    -143.187E+06    -236.862E+06     585.342E+06
            3137               1     2.13337E+09     2.10062E+09     2.10062E+09     42.1653E+06    -100.517E+06     2.20113E+09    -680.755E+06     2.12260E+09     31.5606E+06     2.09832E+09    -87.6115E+06    -64.0915E+06    -41.2671E+06     24.9742E+06
            3138               1     6.35792E+09     7.95491E+09     7.95491E+09     2.09300E+09     1.19621E+09     6.75870E+09    -3.74804E+09     6.21323E+09     1.58210E+09     7.58764E+09     2.07438E+09    -1.42422E+09    -113.113E+06    -561.868E+06
            3139               1     6.08549E+09     6.90389E+09     6.90389E+09     1.39827E+09     369.643E+06     6.53425E+09    -2.89060E+09     5.88511E+09     1.21885E+09     6.60594E+09     847.007E+06    -1.14305E+09     371.616E+06     715.773E+06
            3140               1     2.61332E+09     2.71681E+09     2.71681E+09     248.140E+06    -20.4171E+06     2.73722E+09    -981.510E+06     2.58200E+09     45.8307E+06     2.71328E+09     185.423E+06    -21.6276E+06    -116.481E+06     91.1296E+06
            3141               1     1.06784E+09     1.23914E+09     1.23914E+09     393.400E+06     39.1984E+06     1.19994E+09    -557.244E+06     921.050E+06     159.843E+06     1.10601E+09     405.884E+06    -25.0256E+06    -187.531E+06     321.424E+06
            3142               1     2.12177E+09     2.13216E+09     2.13216E+09     43.7293E+06    -21.4587E+06     2.15361E+09    -718.142E+06     2.11952E+09     39.2448E+06     2.13007E+09    -14.8905E+06     64.7787E+06    -19.1066E+06     13.5852E+06
            3143               1     6.41522E+09     7.92874E+09     7.92874E+09     2.01000E+09     1.11173E+09     6.81701E+09    -3.68349E+09     6.27139E+09     1.54941E+09     7.57165E+09     1.92942E+09    -1.41307E+09     192.792E+06     556.783E+06
            3144               1     1.51520E+09     1.57739E+09     1.57739E+09     146.773E+06    -10.1852E+06     1.58757E+09    -571.325E+06     1.49675E+09     89.1830E+06     1.51059E+09     114.201E+06     37.7388E+06    -85.8427E+06    -307.676E+06
            3145               1     1.68840E+09     1.71304E+09     1.71304E+09     243.876E+06    -131.443E+06     1.84448E+09    -608.490E+06     1.59043E+09     149.651E+06     1.39545E+09     280.371E+06    -64.7871E+06     218.367E+06    -655.442E+06
            3146               1     4.35806E+09     4.24937E+09     4.24937E+09     482.817E+06    -523.967E+06     4.77334E+09    -1.40274E+09     4.08392E+09     469.614E+06     4.17321E+09    -434.608E+06     531.777E+06    -270.771E+06     117.186E+06
            3147               1     1.93726E+09     1.88928E+09     1.88928E+09     2.36765E+06    -94.6846E+06     1.98396E+09    -598.987E+06     1.93178E+09     2.40495E+06     1.87742E+09    -82.8599E+06    -46.7564E+06     14.0464E+06    -144.936E+06
            3148               1     1.96330E+09     2.00976E+09     2.00976E+09     167.049E+06    -55.2072E+06     2.06497E+09    -707.201E+06     1.93469E+09     1.69604E+06     2.00007E+09     119.836E+06    -27.0223E+06    -98.8045E+06     131.267E+06
            3149               1     2.53508E+09     2.40516E+09     2.40516E+09    -2.81107E+06    -240.321E+06     2.64548E+09    -720.675E+06     2.50987E+09    -187.973E+03     2.38041E+09    -218.195E+06    -119.196E+06     16.9242E+06     223.164E+06
            3150               1     1.55015E+09     1.50402E+09     1.50402E+09    -18.4554E+06    -72.3948E+06     1.57642E+09    -471.058E+06     1.54804E+09    -27.8629E+06     1.49196E+09    -50.9220E+06     21.4444E+06    -22.7091E+06    -134.923E+06
            3151               1     3.40056E+09     3.11399E+09     3.11399E+09     364.097E+06    -688.373E+06     3.80236E+09    -929.905E+06     2.99991E+09     316.991E+06     2.97872E+09    -505.999E+06     288.945E+06     344.797E+06     578.494E+06
            3152               1     4.18202E+09     4.24337E+09     4.24337E+09     179.518E+06    -47.5570E+06     4.29093E+09    -1.45844E+09     4.16811E+09     4.15955E+06     4.19710E+09     174.075E+06     268.226E+06     103.656E+06     338.646E+06
            3153               1     5.80035E+09     6.44335E+09     6.44335E+09     1.23928E+09     189.978E+06     6.25337E+09    -2.62420E+09     5.58079E+09     1.04723E+09     6.21988E+09     605.498E+06     973.924E+06    -402.464E+06     598.933E+06
            3154               1     5.30850E+09     5.52318E+09     5.52318E+09     812.300E+06    -228.718E+06     5.75189E+09    -2.03559E+09     5.07116E+09     782.470E+06     5.34996E+09    -25.6716E+06     810.960E+06     307.110E+06    -489.225E+06
            3155               1     6.05368E+09     7.05986E+09     7.05986E+09     1.59096E+09     555.069E+06     6.50479E+09    -3.06863E+09     5.84927E+09     1.36648E+09     6.70966E+09     1.12976E+09     1.23552E+09     362.849E+06    -775.058E+06
            3156               1     5.76811E+09     6.66627E+09     6.66627E+09     1.15445E+09     672.146E+06     5.99412E+09    -2.83095E+09     5.72248E+09     845.871E+06     6.49839E+09     1.14860E+09     872.660E+06    -68.3047E+06     462.263E+06
            3157               1     6.23621E+09     6.88384E+09     6.88384E+09     948.127E+06     385.297E+06     6.49854E+09    -2.73909E+09     6.17868E+09     430.061E+06     6.84552E+09     941.684E+06     473.315E+06     84.9778E+06     140.187E+06
            3158               1     6.19876E+09     6.91249E+09     6.91249E+09     1.01090E+09     454.129E+06     6.45836E+09    -2.79251E+09     6.14212E+09     509.699E+06     6.85156E+09     1.01627E+09     567.899E+06     30.9675E+06    -252.289E+06
            3159               1     2.03638E+09     1.99382E+09     1.99382E+09     19.0234E+06    -99.0054E+06     2.09282E+09    -637.946E+06     2.02866E+09     20.9211E+06     1.94680E+09    -53.8804E+06     64.5490E+06    -15.7717E+06    -302.730E+06
            3160               1     2.44298E+09     2.42895E+09     2.42895E+09     54.9704E+06    -77.6188E+06     2.50657E+09    -802.102E+06     2.43486E+09     59.0669E+06     2.38002E+09    -32.7794E+06     109.940E+06    -27.6139E+06    -327.197E+06
            3161               1     2.75701E+09     2.88601E+09     2.88601E+09     261.895E+06     12.9956E+06     2.87302E+09    -1.05363E+09     2.73156E+09     91.1619E+06     2.87125E+09     198.496E+06     116.381E+06     120.362E+06     158.114E+06
            3162               1     986.585E+06     1.13798E+09     1.13798E+09     350.820E+06     31.2192E+06     1.10676E+09    -506.674E+06     857.962E+06     103.115E+06     1.12717E+09     289.734E+06     12.9688E+06     135.213E+06     92.3419E+06
            3163               1     1.94138E+09     1.97224E+09     1.97224E+09     140.063E+06    -62.4513E+06     2.03470E+09    -683.285E+06     1.91740E+09    -8.77831E+06     1.95913E+09     99.5012E+06     3.55812E+06     89.3905E+06    -156.649E+06
            3164               1     2.64758E+09     2.77761E+09     2.77761E+09     268.259E+06     10.6331E+06     2.76698E+09    -1.01883E+09     2.61916E+09     65.8055E+06     2.76861E+09     222.089E+06    -73.1102E+06     107.998E+06    -131.017E+06
            3165               1     2.79769E+09     2.75073E+09     2.75073E+09     23.8178E+06    -112.726E+06     2.86346E+09    -887.275E+06     2.79018E+09    -1.96492E+06     2.72191E+09    -58.1199E+06    -74.0498E+06     62.6781E+06    -272.771E+06
            3166               1     1.94228E+09     1.90287E+09     1.90287E+09     9.41047E+06    -84.8011E+06     1.98767E+09    -609.161E+06     1.93713E+09     9.89753E+06     1.89287E+09    -75.2901E+06    -48.1220E+06     4.98167E+06     131.876E+06
            3167               1     2.76416E+09     2.83544E+09     2.83544E+09     132.438E+06     13.9286E+06     2.82151E+09    -993.934E+06     2.75843E+09     62.8877E+06     2.80018E+09     118.732E+06    -127.817E+06    -70.3514E+06     279.088E+06
            3168               1     1.60906E+09     1.56344E+09     1.56344E+09    -18.7915E+06    -71.1688E+06     1.63461E+09    -491.161E+06     1.60714E+09    -18.7463E+06     1.54858E+09    -56.3521E+06     31.5580E+06     8.60581E+06     151.661E+06
            3169               1     2.62967E+09     2.57281E+09     2.57281E+09     28.4063E+06    -134.560E+06     2.70737E+09    -822.217E+06     2.61828E+09     6.50678E+06     2.51099E+09    -50.8407E+06     130.238E+06     82.3077E+06     376.225E+06
            3170               1     3.58753E+09     3.78067E+09     3.78067E+09     271.216E+06     119.849E+06     3.66082E+09    -1.39058E+09     3.58033E+09     214.798E+06     3.74866E+09     208.273E+06    -198.496E+06    -90.6152E+06     268.478E+06
            3171               1     1.89934E+09     1.90710E+09     1.90710E+09     26.7988E+06    -10.7278E+06     1.91782E+09    -641.056E+06     1.89850E+09     25.5841E+06     1.90417E+09    -6.58737E+06     38.4352E+06    -7.12547E+06     64.1481E+06
            3172               1     2.70800E+09     2.83649E+09     2.83649E+09     278.254E+06     177.549E+03     2.83631E+09    -1.03831E+09     2.67560E+09     65.6024E+06     2.82816E+09     221.154E+06     39.8283E+06    -119.794E+06    -140.533E+06
            3173               1     1.89567E+09     1.90813E+09     1.90813E+09     29.6870E+06    -4.30529E+06     1.91244E+09    -644.505E+06     1.89499E+09     27.8600E+06     1.90448E+09     1.17670E+06     46.4239E+06     7.90013E+06    -69.3624E+06
            3174               1     3.49645E+09     3.65513E+09     3.65513E+09     297.960E+06     34.3083E+06     3.62082E+09    -1.32913E+09     3.47398E+09     87.4408E+06     3.65120E+09     248.753E+06    -59.0060E+06    -106.714E+06     98.4303E+06
            3175               1     3.45040E+09     3.30091E+09     3.30091E+09     14.8024E+06    -293.151E+06     3.59406E+09    -1.00752E+09     3.41928E+09     31.9242E+06     3.24705E+09    -256.415E+06    -240.726E+06     42.2875E+06    -355.367E+06
            3176               1     3.65457E+09     3.86427E+09     3.86427E+09     365.268E+06     71.8228E+06     3.79244E+09    -1.43379E+09     3.62792E+09     141.303E+06     3.85816E+09     301.899E+06     114.142E+06    -125.447E+06    -92.5461E+06
            3177               1     2.97724E+09     2.80320E+09     2.80320E+09     3.01206E+06    -324.066E+06     3.12727E+09    -827.383E+06     2.93641E+09     7.26503E+06     2.78028E+09    -305.392E+06     157.902E+06     27.1924E+06    -210.215E+06
            3178               1     1.05936E+09     1.23360E+09     1.23360E+09     393.428E+06     43.5631E+06     1.19004E+09    -556.865E+06     915.150E+06     159.854E+06     1.10030E+09     410.441E+06    -29.9429E+06     185.859E+06    -318.516E+06
            3179               1     995.994E+06     1.14624E+09     1.14624E+09     344.889E+06     31.1532E+06     1.11509E+09    -507.427E+06     873.989E+06     98.4908E+06     1.13352E+09     290.276E+06     8.91355E+06    -130.423E+06    -101.948E+06
            3180               1     1.77874E+09     1.80238E+09     1.80238E+09     302.252E+06    -162.645E+06     1.96502E+09    -647.327E+06     1.63345E+09     226.724E+06     1.39684E+09     318.419E+06     87.4312E+06    -260.880E+06    -745.321E+06
            3181               1     2.44016E+09     2.28378E+09     2.28378E+09     278.240E+06    -432.971E+06     2.71675E+09    -709.684E+06     2.18811E+09     217.407E+06     1.99476E+09    -83.1166E+06     137.502E+06    -290.934E+06    -787.465E+06
            3182               1     1.76125E+09     1.76474E+09     1.76474E+09     290.079E+06    -185.453E+06     1.95019E+09    -623.121E+06     1.60703E+09     211.039E+06     1.36632E+09     292.009E+06     81.9003E+06     262.921E+06     736.391E+06
            3183               1     1.75961E+09     1.76682E+09     1.76682E+09     117.442E+06    -85.4315E+06     1.85225E+09    -599.610E+06     1.73300E+09     60.7464E+06     1.67942E+09     58.6644E+06     55.3472E+06     107.303E+06     378.159E+06
            3184               1     6.52340E+09     8.32359E+09     8.32359E+09     2.40255E+09     1.33061E+09     6.99298E+09    -4.01892E+09     6.32068E+09     1.91752E+09     7.82436E+09     2.31487E+09     1.66966E+09     206.362E+06    -673.816E+06
            3185               1     2.56074E+09     2.40522E+09     2.40522E+09     310.120E+06    -449.340E+06     2.85456E+09    -755.335E+06     2.28600E+09     257.396E+06     2.12271E+09    -114.101E+06     170.734E+06     304.777E+06     791.814E+06


