********************************************************************************
Field Output Report, written Sun Apr 16 02:27:15 2023

Source 1
---------

   ODB: C:/Temp/YY_displacement.odb
   Step: Loading_step
   Frame: Increment      1: Step Time =    1.000

Loc 1 : Centroidal values from source 1

Output sorted by column "Element Label".

Field Output reported at element centroid for region: PART-1-1.Region_1

         Element         S.Mises     S.Max. Prin  S.Max. Prin(a)     S.Mid. Prin     S.Min. Prin        S.Tresca      S.Pressure     S.Third Inv           S.S11           S.S22           S.S33           S.S12           S.S13           S.S23
           Label          @Loc 1          @Loc 1          @Loc 1          @Loc 1          @Loc 1          @Loc 1          @Loc 1          @Loc 1          @Loc 1          @Loc 1          @Loc 1          @Loc 1          @Loc 1          @Loc 1
-------------------------------------------------------------------------------------------------------------------------------------------------------------------------------------------------------------------------------------------------
               1    1.87654E+007    2.03276E+007    2.03276E+007    1.77594E+006    1.35555E+006    1.89720E+007   -7.81969E+006    1.87548E+007    1.82472E+006    2.02670E+007    1.36738E+006    1.01022E+006    3.38947E+004   -3.23194E+005
               2    1.88128E+007    1.83065E+007    1.83065E+007   -2.54332E+004   -9.52820E+005    1.92593E+007   -5.77608E+006    1.87612E+007   -9.52533E+005    1.83029E+007   -2.21464E+004   -5.33572E+004    1.20420E+004   -2.50545E+005
               3    1.71377E+007    1.74799E+007    1.74799E+007    6.88408E+005    1.58586E+004    1.74641E+007   -6.06139E+006    1.71080E+007    6.93171E+005    1.74724E+007    1.85868E+004    2.95539E+005    1.36937E+004   -2.00124E+005
               4    1.71096E+007    1.67256E+007    1.67256E+007   -3.56316E+005   -4.11719E+005    1.71373E+007   -5.31917E+006    1.71094E+007   -4.10498E+005    1.67245E+007   -3.56519E+005    1.48510E+004    7.97823E+003   -1.31034E+005
               5    1.82517E+007    1.97781E+007    1.97781E+007    1.72529E+006    1.33389E+006    1.84442E+007   -7.61244E+006    1.82422E+007    1.70903E+006    1.96866E+007    1.44170E+006    9.31691E+005    9.90667E+004   -8.98325E+005
               6    1.84159E+007    1.80022E+007    1.80022E+007    9.45178E+004   -8.82881E+005    1.88851E+007   -5.73796E+006    1.83574E+007   -8.81933E+005    1.79722E+007    1.23601E+005   -2.27638E+004    3.08913E+004   -7.32372E+005
               7    1.68639E+007    1.72297E+007    1.72297E+007    6.26884E+005    1.16299E+005    1.71134E+007   -5.99096E+006    1.68465E+007    6.27448E+005    1.72069E+007    1.38496E+005    2.78147E+005    3.62674E+004   -5.56817E+005
               8    1.68053E+007    1.65014E+007    1.65014E+007   -2.25052E+005   -3.81534E+005    1.68829E+007   -5.29828E+006    1.68036E+007   -3.80494E+005    1.64916E+007   -2.16273E+005    2.87219E+004    1.17321E+004   -4.04184E+005
               9    1.73363E+007    1.87770E+007    1.87770E+007    1.64715E+006    1.24130E+006    1.75357E+007   -7.22182E+006    1.73256E+007    1.48489E+006    1.86386E+007    1.54195E+006    7.96329E+005    1.42070E+005   -1.33056E+006
              10    1.76622E+007    1.74425E+007    1.74425E+007    3.30705E+005   -7.22847E+005    1.81654E+007   -5.68346E+006    1.75913E+007   -7.18863E+005    1.73701E+007    3.99134E+005    2.82983E+004    6.26907E+004   -1.11068E+006
              11    1.62888E+007    1.67242E+007    1.67242E+007    5.70693E+005    3.03475E+005    1.64207E+007   -5.86613E+006    1.62838E+007    5.49728E+005    1.66738E+007    3.74893E+005    2.57585E+005    6.41286E+004   -8.71546E+005
              12    1.62393E+007    1.61081E+007    1.61081E+007    2.76971E+004   -2.85652E+005    1.63937E+007   -5.28338E+006    1.62325E+007   -2.81812E+005    1.60855E+007    4.64392E+004    4.71623E+004    3.21624E+004   -6.00538E+005
              13    1.62220E+007    1.75513E+007    1.75513E+007    1.64490E+006    1.03118E+006    1.65201E+007   -6.74245E+006    1.61958E+007    1.18966E+006    1.73738E+007    1.66390E+006    6.02548E+005    1.97676E+005   -1.57793E+006
              14    1.65852E+007    1.65709E+007    1.65709E+007    6.69711E+005   -6.22563E+005    1.71935E+007   -5.53936E+006    1.64713E+007   -6.16713E+005    1.64548E+007    7.80025E+005    8.49177E+004    7.71372E+004   -1.35230E+006
              15    1.55514E+007    1.60720E+007    1.60720E+007    6.68048E+005    3.77123E+005    1.56949E+007   -5.70572E+006    1.55453E+007    4.14424E+005    1.59981E+007    7.04582E+005    2.29246E+005    7.82779E+004   -1.04185E+006
              16    1.54978E+007    1.55224E+007    1.55224E+007    3.45660E+005   -2.77533E+005    1.57999E+007   -5.19685E+006    1.54695E+007   -2.75096E+005    1.54818E+007    3.83866E+005    6.95318E+004    3.29685E+004   -7.81571E+005
              17    1.48188E+007    1.61399E+007    1.61399E+007    1.82702E+006    8.62178E+005    1.52777E+007   -6.27636E+006    1.47479E+007    9.92427E+005    1.59413E+007    1.89530E+006    4.90654E+005    2.60543E+005   -1.62113E+006
              18    1.54745E+007    1.57505E+007    1.57505E+007    1.08120E+006   -4.19779E+005    1.61703E+007   -5.47065E+006    1.53095E+007   -4.10718E+005    1.56198E+007    1.20291E+006    1.28005E+005    9.90219E+004   -1.37470E+006
              19    1.46165E+007    1.52898E+007    1.52898E+007    1.00789E+006    3.60146E+005    1.49296E+007   -5.55260E+006    1.45842E+007    3.93222E+005    1.51947E+007    1.06984E+006    2.14311E+005    1.19936E+005   -1.14515E+006
              20    1.45845E+007    1.48864E+007    1.48864E+007    7.54530E+005   -1.12040E+005    1.49984E+007   -5.17629E+006    1.45264E+007   -1.06129E+005    1.48353E+007    7.99695E+005    8.64111E+004    6.34940E+004   -8.44442E+005
              21    1.38945E+007    1.52013E+007    1.52013E+007    2.05734E+006    6.61703E+005    1.45396E+007   -5.97345E+006    1.37354E+007    7.19568E+005    1.50333E+007    2.16745E+006    2.98945E+005    2.34535E+005   -1.45687E+006
              22    1.43996E+007    1.47793E+007    1.47793E+007    1.44134E+006   -4.87531E+005    1.52668E+007   -5.24437E+006    1.41046E+007   -4.81520E+005    1.46448E+007    1.56988E+006    1.26484E+005    8.69423E+004   -1.32868E+006
              23    1.38428E+007    1.45374E+007    1.45374E+007    1.33509E+006    1.32547E+005    1.44049E+007   -5.33501E+006    1.37246E+007    1.42314E+005    1.44429E+007    1.41986E+006    1.72414E+005    8.28763E+004   -1.10233E+006
              24    1.37251E+007    1.41201E+007    1.41201E+007    1.13255E+006   -2.39513E+005    1.43596E+007   -5.00438E+006    1.35695E+007   -2.37516E+005    1.40548E+007    1.19590E+006    8.22443E+004    4.05327E+004   -9.15942E+005
              25    1.28295E+007    1.42039E+007    1.42039E+007    2.23522E+006    6.59251E+005    1.35447E+007   -5.69947E+006    1.26090E+007    6.98374E+005    1.40783E+007    2.32175E+006    2.56495E+005    2.07697E+005   -1.20177E+006
              26    1.36756E+007    1.44060E+007    1.44060E+007    1.67105E+006   -4.78003E+004    1.44538E+007   -5.34308E+006    1.34294E+007   -3.85460E+004    1.42831E+007    1.78465E+006    9.26998E+004    1.14133E+005   -1.24292E+006
              27    1.28618E+007    1.38404E+007    1.38404E+007    1.71135E+006    3.53714E+005    1.34867E+007   -5.30184E+006    1.26991E+007    3.88791E+005    1.37117E+007    1.80500E+006    1.17658E+005    2.02317E+005   -1.24129E+006
              28    1.24695E+007    1.33244E+007    1.33244E+007    1.69756E+006    1.55658E+005    1.31687E+007   -5.05920E+006    1.22522E+007    1.76103E+005    1.32477E+007    1.75378E+006    7.82816E+004    1.69245E+005   -9.39882E+005
              29    1.16485E+007    1.20126E+007    1.20126E+007    2.07137E+006   -8.04432E+005    1.28170E+007   -4.42650E+006    1.08056E+007   -7.83153E+005    1.19298E+007    2.13280E+006   -2.06903E+005   -2.12529E+005   -8.88805E+005
              30    1.21238E+007    1.22531E+007    1.22531E+007    1.88762E+006   -1.07844E+006    1.33316E+007   -4.35411E+006    1.12632E+007   -1.03850E+006    1.20741E+007    2.02672E+006   -3.42675E+005   -2.69035E+005   -1.32589E+006
              31    1.29911E+007    1.29183E+007    1.29183E+007    1.79076E+006   -1.35756E+006    1.42759E+007   -4.45051E+006    1.20872E+007   -1.30579E+006    1.26197E+007    2.03765E+006   -6.37786E+005   -1.89958E+005   -1.72250E+006
              32    1.48086E+007    1.40681E+007    1.40681E+007    1.71414E+006   -2.34752E+006    1.64156E+007   -4.47824E+006    1.34674E+007   -2.19962E+006    1.37841E+007    1.85028E+006   -1.15660E+006   -3.97752E+005   -1.59790E+006
              33    2.19399E+007    2.03888E+007    2.03888E+007    1.64009E+006   -3.74098E+006    2.41298E+007   -6.09598E+006    2.03743E+007   -3.64504E+006    2.02871E+007    1.64589E+006   -1.51757E+006   -1.09968E+003   -3.33062E+005
              34    2.10426E+007    1.95777E+007    1.95777E+007    1.58466E+006   -3.56015E+006    2.31378E+007   -5.86740E+006    1.95509E+007   -3.46715E+006    1.94381E+007    1.63130E+006   -1.45315E+006   -1.91491E+004   -9.29411E+005
              35    1.96392E+007    1.82891E+007    1.82891E+007    1.50327E+006   -3.30882E+006    2.15980E+007   -5.49453E+006    1.82406E+007   -3.22001E+006    1.80996E+007    1.60397E+006   -1.34882E+006   -5.24388E+004   -1.32639E+006
              36    1.79579E+007    1.67715E+007    1.67715E+007    1.40167E+006   -2.96792E+006    1.97395E+007   -5.06843E+006    1.66978E+007   -2.88435E+006    1.65497E+007    1.53994E+006   -1.18799E+006   -1.29811E+005   -1.51953E+006
              37    1.64711E+007    1.53396E+007    1.53396E+007    1.30251E+006   -2.79277E+006    1.81324E+007   -4.61644E+006    1.52613E+007   -2.70741E+006    1.51036E+007    1.45314E+006   -1.05193E+006   -2.18631E+005   -1.57004E+006
              38    1.52508E+007    1.40138E+007    1.40138E+007    1.32326E+006   -2.90487E+006    1.69187E+007   -4.14408E+006    1.38372E+007   -2.80178E+006    1.38238E+007    1.41020E+006   -9.00650E+005   -4.06035E+005   -1.35804E+006
              39    1.53555E+007    1.38761E+007    1.38761E+007    1.41436E+006   -3.27817E+006    1.71542E+007   -4.00408E+006    1.35963E+007   -3.10072E+006    1.37001E+007    1.41284E+006   -1.09269E+006   -6.26228E+005   -1.18646E+006
              40    1.15029E+007    1.19249E+007    1.19249E+007    2.00959E+006   -6.86767E+005    1.26116E+007   -4.41589E+006    1.07569E+007   -6.67928E+005    1.18973E+007    2.01832E+006   -1.33839E+005   -2.10775E+005   -5.11167E+005
              41    1.14586E+007    1.19288E+007    1.19288E+007    1.90956E+006   -5.64878E+005    1.24937E+007   -4.42449E+006    1.08328E+007   -5.52684E+005    1.19238E+007    1.90235E+006   -7.44588E+004   -1.68857E+005   -2.14345E+005
              42    1.14765E+007    1.19383E+007    1.19383E+007    1.80786E+006   -5.25638E+005    1.24640E+007   -4.40685E+006    1.09235E+007   -5.14212E+005    1.19383E+007    1.79644E+006   -4.52005E+003   -1.62875E+005   -3.15807E+003
              43    1.14576E+007    1.19194E+007    1.19194E+007    1.89645E+006   -5.70786E+005    1.24902E+007   -4.41504E+006    1.08355E+007   -5.57858E+005    1.19147E+007    1.88828E+006    6.40630E+004   -1.74808E+005    2.11643E+005
              44    1.15045E+007    1.19186E+007    1.19186E+007    2.00426E+006   -6.95804E+005    1.26144E+007   -4.40902E+006    1.07564E+007   -6.77056E+005    1.18912E+007    2.01293E+006    1.33034E+005   -2.10520E+005    5.09791E+005
              45    1.16832E+007    1.19907E+007    1.19907E+007    2.02957E+006   -8.68898E+005    1.28596E+007   -4.38378E+006    1.08290E+007   -8.41348E+005    1.19106E+007    2.08204E+006    2.11126E+005   -2.49301E+005    8.74803E+005
              46    1.22007E+007    1.22952E+007    1.22952E+007    1.88985E+006   -1.13274E+006    1.34279E+007   -4.35076E+006    1.13114E+007   -1.09096E+006    1.21361E+007    2.00718E+006    3.76863E+005   -2.71216E+005    1.24333E+006
              47    1.29786E+007    1.27056E+007    1.27056E+007    1.82640E+006   -1.66016E+006    1.43657E+007   -4.29060E+006    1.18544E+007   -1.58373E+006    1.25217E+007    1.93382E+006    6.24226E+005   -3.54454E+005    1.31364E+006
              48    1.37325E+007    1.25159E+007    1.25159E+007    1.78975E+006   -2.96131E+006    1.54772E+007   -3.78144E+006    1.16558E+007   -2.80220E+006    1.23327E+007    1.81382E+006    8.87784E+005   -6.38369E+005    1.22286E+006
              49    1.21075E+007    1.30582E+007    1.30582E+007    1.73717E+006    2.93703E+005    1.27645E+007   -5.02969E+006    1.19116E+007    3.16709E+005    1.30297E+007    1.74265E+006    7.43524E+004    1.75984E+005   -5.64300E+005
              50    1.32330E+007    1.37933E+007    1.37933E+007    1.16973E+006    2.52378E+004    1.37681E+007   -4.99609E+006    1.31210E+007    2.70562E+004    1.37656E+007    1.19566E+006    6.72254E+004    3.84256E+004   -5.87954E+005
              51    1.40942E+007    1.45840E+007    1.45840E+007    7.64397E+005    2.30272E+005    1.43537E+007   -5.19288E+006    1.40714E+007    2.40898E+005    1.45615E+007    7.76263E+005    8.21914E+004    6.98355E+004   -5.51816E+005
              52    1.49188E+007    1.52143E+007    1.52143E+007    4.01137E+005    1.92112E+005    1.50222E+007   -5.26918E+006    1.49155E+007    1.98644E+005    1.52001E+007    4.08824E+005    8.13835E+004    3.27228E+004   -4.51827E+005
              53    1.55725E+007    1.57654E+007    1.57654E+007    3.09396E+005    7.90679E+004    1.56864E+007   -5.38463E+006    1.55686E+007    3.04529E+005    1.57567E+007    9.27066E+004    8.79798E+004    3.27112E+004   -3.60213E+005
              54    1.60675E+007    1.61616E+007    1.61616E+007    3.28715E+005   -1.30713E+005    1.62923E+007   -5.45319E+006    1.60527E+007    3.28561E+005    1.61583E+007   -1.27321E+005    9.08992E+004    1.63951E+004   -2.10465E+005
              55    1.63138E+007    1.63678E+007    1.63678E+007    3.70579E+005   -2.45127E+005    1.66129E+007   -5.49774E+006    1.62876E+007    3.71026E+005    1.63668E+007   -2.44592E+005    9.45316E+004    7.79493E+003   -8.39527E+004
              56    1.20917E+007    1.29252E+007    1.29252E+007    1.64007E+006    1.62744E+005    1.27625E+007   -4.90934E+006    1.18861E+007    1.78335E+005    1.29192E+007    1.63045E+006    3.49138E+004    1.49833E+005   -2.57787E+005
              57    1.31869E+007    1.36193E+007    1.36193E+007    1.12216E+006   -1.63248E+005    1.37826E+007   -4.85941E+006    1.30449E+007   -1.62590E+005    1.36134E+007    1.12740E+006    2.10510E+004    2.79534E+004   -2.70740E+005
              58    1.40670E+007    1.43797E+007    1.43797E+007    7.01005E+005   -4.59774E+004    1.44257E+007   -5.01157E+006    1.40223E+007   -4.27072E+004    1.43758E+007    7.01658E+005    1.88704E+004    4.88346E+004   -2.30957E+005
              59    1.49731E+007    1.50259E+007    1.50259E+007    2.93775E+005   -1.76982E+005    1.52029E+007   -5.04757E+006    1.49564E+007   -1.76388E+005    1.50237E+007    2.95427E+005    1.12649E+004    1.64712E+004   -1.81595E+005
              60    1.56797E+007    1.55809E+007    1.55809E+007   -2.09863E+004   -1.75323E+005    1.57563E+007   -5.12821E+006    1.56780E+007   -1.72582E+005    1.55802E+007   -2.29632E+004    1.99722E+003    2.03679E+004   -1.09133E+005
              61    1.62279E+007    1.59723E+007    1.59723E+007   -2.41142E+005   -2.70004E+005    1.62423E+007   -5.15372E+006    1.62278E+007   -2.41911E+005    1.59720E+007   -2.68889E+005   -3.50220E+003    4.66572E+003   -7.49398E+004
              62    1.65070E+007    1.61820E+007    1.61820E+007   -2.55954E+005   -3.93224E+005    1.65752E+007   -5.17760E+006    1.65057E+007   -2.56187E+005    1.61820E+007   -3.92973E+005   -8.12720E+003    5.69894E+003   -1.56610E+004
              63    1.20072E+007    1.28926E+007    1.28926E+007    1.64774E+006    2.46185E+005    1.26465E+007   -4.92885E+006    1.18210E+007    2.61909E+005    1.28926E+007    1.63205E+006    3.62036E+003    1.47620E+005    1.81152E+004
              64    1.30090E+007    1.35572E+007    1.35572E+007    1.15872E+006    1.33689E+004    1.35438E+007   -4.90977E+006    1.28949E+007    1.43041E+004    1.35570E+007    1.15804E+006   -5.64546E+003    3.26510E+004    5.59463E+004
              65    1.38705E+007    1.43338E+007    1.43338E+007    7.59561E+005    1.84774E+005    1.41490E+007   -5.09270E+006    1.38437E+007    1.90436E+005    1.43331E+007    7.54597E+005   -5.42896E+003    5.67190E+004    9.72124E+004
              66    1.47370E+007    1.49942E+007    1.49942E+007    3.75779E+005    1.41475E+005    1.48527E+007   -5.17049E+006    1.47328E+007    1.44497E+005    1.49930E+007    3.74002E+005   -1.14523E+004    2.62959E+004    1.34424E+005
              67    1.54430E+007    1.55859E+007    1.55859E+007    2.35422E+005    5.21155E+004    1.55338E+007   -5.29116E+006    1.54405E+007    2.30971E+005    1.55849E+007    5.75839E+004   -1.16003E+004    2.81496E+004    1.25151E+005
              68    1.59617E+007    1.59952E+007    1.59952E+007    2.41387E+005   -1.66624E+005    1.61618E+007   -5.35666E+006    1.59500E+007    2.40975E+005    1.59946E+007   -1.65559E+005   -1.36442E+004    1.30554E+004    1.01838E+005
              69    1.62302E+007    1.62183E+007    1.62183E+007    2.75852E+005   -2.85031E+005    1.65033E+007   -5.40304E+006    1.62083E+007    2.75760E+005    1.62182E+007   -2.84879E+005   -1.38958E+004    7.60800E+003    2.80842E+004
              70    1.20656E+007    1.29068E+007    1.29068E+007    1.65864E+006    1.63082E+005    1.27437E+007   -4.90949E+006    1.18544E+007    1.78823E+005    1.28992E+007    1.65042E+006   -3.31779E+004    1.51494E+005    2.89742E+005
              71    1.31519E+007    1.36060E+007    1.36060E+007    1.15794E+006   -1.51886E+005    1.37578E+007   -4.87067E+006    1.30040E+007   -1.50957E+005    1.35948E+007    1.16818E+006   -3.89031E+004    3.17037E+004    3.70921E+005
              72    1.40644E+007    1.43999E+007    1.43999E+007    7.38849E+005   -3.59237E+004    1.44358E+007   -5.03426E+006    1.40163E+007   -3.15951E+004    1.43867E+007    7.47644E+005   -4.58737E+004    5.54584E+004    4.21095E+005
              73    1.50210E+007    1.51022E+007    1.51022E+007    3.34448E+005   -1.59968E+005    1.52621E+007   -5.09221E+006    1.50027E+007   -1.58657E+005    1.50903E+007    3.45024E+005   -4.78257E+004    2.26416E+004    4.16269E+005
              74    1.57931E+007    1.57185E+007    1.57185E+007    8.71798E+003   -1.56733E+005    1.58752E+007   -5.19016E+006    1.57912E+007   -1.52346E+005    1.57097E+007    1.31252E+004   -4.78488E+004    2.50465E+004    3.68646E+005
              75    1.63955E+007    1.61639E+007    1.61639E+007   -2.16319E+005   -2.46742E+005    1.64107E+007   -5.23362E+006    1.63954E+007   -2.18868E+005    1.61602E+007   -2.40479E+005   -4.59640E+004    7.94107E+003    2.42486E+005
              76    1.67004E+007    1.64000E+007    1.64000E+007   -2.30758E+005   -3.69282E+005    1.67693E+007   -5.26665E+006    1.66992E+007   -2.30859E+005    1.63994E+007   -3.68592E+005   -4.53952E+004    5.33858E+003    8.82329E+004
              77    1.20663E+007    1.30109E+007    1.30109E+007    1.75839E+006    2.69064E+005    1.27418E+007   -5.01277E+006    1.18568E+007    2.88709E+005    1.29784E+007    1.77126E+006   -6.19451E+004    1.65897E+005    6.02416E+005
              78    1.31973E+007    1.37725E+007    1.37725E+007    1.22641E+006    8.54083E+003    1.37640E+007   -5.00249E+006    1.30699E+007    1.11034E+004    1.37336E+007    1.26279E+006   -7.72043E+004    4.70317E+004    6.94309E+005
              79    1.41036E+007    1.46158E+007    1.46158E+007    8.40277E+005    2.05643E+005    1.44102E+007   -5.22059E+006    1.40714E+007    2.16240E+005    1.45764E+007    8.69123E+005   -9.33434E+004    7.43531E+004    7.31150E+005
              80    1.50464E+007    1.53560E+007    1.53560E+007    4.58895E+005    1.64614E+005    1.51914E+007   -5.32651E+006    1.50400E+007    1.73802E+005    1.53204E+007    4.85331E+005   -1.03870E+005    4.43325E+004    7.20844E+005
              81    1.58394E+007    1.60423E+007    1.60423E+007    2.87870E+005    1.19309E+005    1.59230E+007   -5.48316E+006    1.58374E+007    2.74454E+005    1.60187E+007    1.56331E+005   -1.08030E+005    4.26522E+004    6.02996E+005
              82    1.64202E+007    1.65199E+007    1.65199E+007    2.94302E+005   -8.83409E+004    1.66082E+007   -5.57528E+006    1.64102E+007    2.93488E+005    1.65092E+007   -7.68170E+004   -1.16601E+005    2.21850E+004    4.04940E+005
              83    1.67264E+007    1.67858E+007    1.67858E+007    3.33879E+005   -2.02200E+005    1.69880E+007   -5.63916E+006    1.67071E+007    3.34430E+005    1.67839E+007   -2.00791E+005   -1.19456E+005    1.20333E+004    1.36292E+005
              84    1.23904E+007    1.32691E+007    1.32691E+007    1.74687E+006    1.62987E+005    1.31062E+007   -5.05967E+006    1.21595E+007    1.84698E+005    1.31917E+007    1.80256E+006   -6.93593E+004    1.78136E+005    9.40706E+005
              85    1.35775E+007    1.40452E+007    1.40452E+007    1.25920E+006   -2.05165E+005    1.42504E+007   -5.03308E+006    1.33981E+007   -2.01852E+005    1.39714E+007    1.32965E+006   -1.05517E+005    5.37711E+004    9.63666E+005
              86    1.45469E+007    1.49147E+007    1.49147E+007    8.65567E+005   -8.35463E+004    1.49982E+007   -5.23223E+006    1.44770E+007   -7.26978E+004    1.48377E+007    9.31680E+005   -1.15110E+005    8.89976E+004    1.03206E+006
              87    1.56477E+007    1.57451E+007    1.57451E+007    4.52649E+005   -2.35037E+005    1.59802E+007   -5.32092E+006    1.56136E+007   -2.30118E+005    1.56811E+007    5.11727E+005   -1.08571E+005    4.68438E+004    9.81974E+005
              88    1.65377E+007    1.64764E+007    1.64764E+007    1.36324E+005   -2.52091E+005    1.67285E+007   -5.45353E+006    1.65274E+007   -2.45503E+005    1.64344E+007    1.71716E+005   -1.01917E+005    4.28051E+004    8.21438E+005
              89    1.72465E+007    1.70204E+007    1.70204E+007   -1.10949E+005   -3.39015E+005    1.73594E+007   -5.52347E+006    1.72431E+007   -3.36548E+005    1.70027E+007   -9.57373E+004   -9.04328E+004    1.84217E+004    5.42812E+005
              90    1.76073E+007    1.73094E+007    1.73094E+007   -2.31807E+005   -3.63081E+005    1.76725E+007   -5.57152E+006    1.76062E+007   -3.62259E+005    1.73071E+007   -2.30299E+005   -8.55052E+004    6.42320E+003    1.83396E+005
              91    1.26502E+007    1.36219E+007    1.36219E+007    1.81134E+006    2.72746E+005    1.33492E+007   -5.23533E+006    1.24371E+007    2.93530E+005    1.35132E+007    1.89922E+006   -1.00001E+005    1.66591E+005    1.12589E+006
              92    1.36308E+007    1.43454E+007    1.43454E+007    1.45518E+006    7.84580E+004    1.42670E+007   -5.29302E+006    1.34731E+007    9.15250E+004    1.42248E+007    1.56278E+006   -1.62213E+005    1.10068E+005    1.23361E+006
              93    1.46714E+007    1.53504E+007    1.53504E+007    1.08574E+006    3.03605E+005    1.50468E+007   -5.57991E+006    1.46243E+007    3.30942E+005    1.52291E+007    1.17969E+006   -1.98782E+005    1.19976E+005    1.29820E+006
              94    1.57237E+007    1.62678E+007    1.62678E+007    7.68525E+005    3.28891E+005    1.59389E+007   -5.78840E+006    1.57099E+007    3.63350E+005    1.61644E+007    8.37410E+005   -2.38798E+005    9.39009E+004    1.24208E+006
              95    1.66494E+007    1.71341E+007    1.71341E+007    5.84101E+005    3.86989E+005    1.67471E+007   -6.03505E+006    1.66468E+007    5.09068E+005    1.70654E+007    5.30675E+005   -2.65198E+005    8.02703E+004    1.03550E+006
              96    1.73307E+007    1.77647E+007    1.77647E+007    5.90425E+005    2.81689E+005    1.74830E+007   -6.21226E+006    1.73245E+007    5.83748E+005    1.77324E+007    3.20645E+005   -2.97311E+005    4.73825E+004    6.88801E+005
              97    1.77219E+007    1.81335E+007    1.81335E+007    6.31238E+005    1.99826E+005    1.79337E+007   -6.32153E+006    1.77101E+007    6.34877E+005    1.81248E+007    2.04923E+005   -3.09897E+005    2.39153E+004    2.41724E+005
              98    1.29439E+007    1.37692E+007    1.37692E+007    1.88342E+006   -2.16528E+004    1.37909E+007   -5.21034E+006    1.26227E+007   -2.57675E+003    1.36285E+007    2.00511E+006   -7.18354E+004    1.81994E+005    1.28599E+006
              99    1.42291E+007    1.46469E+007    1.46469E+007    1.49020E+006   -4.54575E+005    1.51015E+007   -5.22751E+006    1.39254E+007   -4.48509E+005    1.44897E+007    1.64134E+006   -7.22304E+004    9.89364E+004    1.42872E+006
             100    1.53406E+007    1.56950E+007    1.56950E+007    1.18381E+006   -3.58438E+005    1.60535E+007   -5.50680E+006    1.51647E+007   -3.44406E+005    1.55402E+007    1.32459E+006   -1.39574E+005    1.27568E+005    1.48678E+006
             101    1.66880E+007    1.67730E+007    1.67730E+007    8.37080E+005   -5.77102E+005    1.73501E+007   -5.67766E+006    1.65524E+007   -5.70017E+005    1.66426E+007    9.60454E+005   -1.07597E+005    8.64146E+004    1.43312E+006
             102    1.78555E+007    1.77727E+007    1.77727E+007    5.77687E+005   -6.77002E+005    1.84497E+007   -5.89114E+006    1.77559E+007   -6.72286E+005    1.76885E+007    6.57182E+005   -9.56583E+004    6.65485E+004    1.19734E+006
             103    1.88006E+007    1.85440E+007    1.85440E+007    3.77872E+005   -8.32577E+005    1.93766E+007   -6.02977E+006    1.87127E+007   -8.31128E+005    1.85084E+007    4.12065E+005   -6.40125E+004    3.60515E+004    8.01625E+005
             104    1.93349E+007    1.89959E+007    1.89959E+007    2.95224E+005   -9.16267E+005    1.99122E+007   -6.12496E+006    1.92493E+007   -9.16059E+005    1.89918E+007    2.99144E+005   -4.61636E+004    1.03937E+004    2.74174E+005
             105    1.27689E+007    1.38153E+007    1.38153E+007    1.98546E+006    2.78923E+005    1.35363E+007   -5.35988E+006    1.25085E+007    2.83199E+005    1.36358E+007    2.16065E+006    1.43182E+005    8.42278E+004    1.43919E+006
             106    1.36869E+007    1.47584E+007    1.47584E+007    1.92167E+006    3.55936E+005    1.44025E+007   -5.67867E+006    1.34832E+007    3.74236E+005    1.45581E+007    2.10363E+006   -1.92149E+005    1.35632E+005    1.58342E+006
             107    1.48130E+007    1.60878E+007    1.60878E+007    1.80221E+006    7.98512E+005    1.52893E+007   -6.22951E+006    1.47362E+007    8.70931E+005    1.58812E+007    1.93643E+006   -3.59004E+005    2.06483E+005    1.67933E+006
             108    1.61119E+007    1.74584E+007    1.74584E+007    1.75609E+006    9.65913E+005    1.64925E+007   -6.72680E+006    1.60682E+007    1.07027E+006    1.72738E+007    1.83631E+006   -5.46327E+005    1.92920E+005    1.61844E+006
             109    1.73533E+007    1.88665E+007    1.88665E+007    1.79027E+006    1.24873E+006    1.76178E+007   -7.30183E+006    1.73343E+007    1.41917E+006    1.87248E+007    1.76156E+006   -7.13036E+005    1.81295E+005    1.39509E+006
             110    1.83904E+007    2.00196E+007    2.00196E+007    1.79621E+006    1.46662E+006    1.85530E+007   -7.76082E+006    1.83838E+007    1.63906E+006    1.99297E+007    1.71372E+006   -8.61270E+005    1.16867E+005    9.58194E+005
             111    1.89692E+007    2.07009E+007    2.07009E+007    1.81614E+006    1.64836E+006    1.90526E+007   -8.05514E+006    1.89676E+007    1.83262E+006    2.06461E+007    1.68674E+006   -9.55798E+005    4.81170E+004    3.52440E+005
             112    2.23660E+007    2.04457E+007    2.04457E+007    1.71201E+006   -4.31670E+006    2.47624E+007   -5.94701E+006    2.04146E+007   -4.19171E+006    2.03150E+007    1.71771E+006    1.75385E+006   -2.03432E+003    3.30661E+005
             113    2.13265E+007    1.95717E+007    1.95717E+007    1.66037E+006   -4.01984E+006    2.35915E+007   -5.73741E+006    1.95129E+007   -3.90206E+006    1.94083E+007    1.70601E+006    1.65228E+006   -1.95911E+004    9.18854E+005
             114    1.96972E+007    1.81568E+007    1.81568E+007    1.58749E+006   -3.62136E+006    2.17782E+007   -5.37431E+006    1.80476E+007   -3.51430E+006    1.79510E+007    1.68626E+006    1.49096E+006   -5.44967E+004    1.30782E+006
             115    1.79219E+007    1.66099E+007    1.66099E+007    1.50777E+006   -3.19430E+006    1.98042E+007   -4.97446E+006    1.64461E+007   -3.09562E+006    1.63649E+007    1.65413E+006    1.32949E+006   -9.42909E+004    1.53057E+006
             116    1.63075E+007    1.51221E+007    1.51221E+007    1.47390E+006   -2.93723E+006    1.80593E+007   -4.55291E+006    1.48739E+007   -2.84057E+006    1.48602E+007    1.63915E+006    1.19231E+006   -1.66986E+005    1.58082E+006
             117    1.50858E+007    1.39418E+007    1.39418E+007    1.46347E+006   -2.82346E+006    1.67653E+007   -4.19395E+006    1.36109E+007   -2.71939E+006    1.36762E+007    1.62505E+006    1.10889E+006   -2.52103E+005    1.55372E+006
             118    1.44282E+007    1.29188E+007    1.29188E+007    1.58661E+006   -3.32367E+006    1.62425E+007   -3.72725E+006    1.23264E+007   -3.17242E+006    1.26780E+007    1.67614E+006    1.12414E+006   -4.96653E+005    1.38440E+006
             119    1.47919E+007    1.40539E+007    1.40539E+007    1.72575E+006   -2.34787E+006    1.64018E+007   -4.47727E+006    1.34404E+007   -2.19860E+006    1.37736E+007    1.85678E+006   -1.15289E+006    4.06853E+005    1.58429E+006
             120    1.30246E+007    1.29457E+007    1.29457E+007    1.78677E+006   -1.36587E+006    1.43115E+007   -4.45552E+006    1.21207E+007   -1.31424E+006    1.26469E+007    2.03387E+006   -6.39594E+005    1.88695E+005    1.72485E+006
             121    1.21383E+007    1.22685E+007    1.22685E+007    1.88107E+006   -1.07477E+006    1.33433E+007   -4.35826E+006    1.12852E+007   -1.03494E+006    1.20869E+007    2.02284E+006   -3.43495E+005    2.67454E+005    1.33687E+006
             122    1.16588E+007    1.20235E+007    1.20235E+007    2.06775E+006   -8.02359E+005    1.28258E+007   -4.42962E+006    1.08203E+007   -7.80983E+005    1.19393E+007    2.13052E+006   -2.05168E+005    2.13271E+005    8.97626E+005
             123    1.24907E+007    1.33449E+007    1.33449E+007    1.69054E+006    1.59018E+005    1.31858E+007   -5.06481E+006    1.22768E+007    1.79915E+005    1.32676E+007    1.74691E+006    7.89874E+004   -1.70479E+005    9.44690E+005
             124    1.37610E+007    1.41535E+007    1.41535E+007    1.11992E+006   -2.34624E+005    1.43882E+007   -5.01294E+006    1.36098E+007   -2.32677E+005    1.40880E+007    1.18356E+006    8.44170E+004   -3.89637E+004    9.18995E+005
             125    1.46150E+007    1.49133E+007    1.49133E+007    7.42564E+005   -1.08904E+005    1.50222E+007   -5.18231E+006    1.45591E+007   -1.02679E+005    1.48624E+007    7.87171E+005    8.65626E+004   -6.48217E+004    8.43580E+005
             126    1.55257E+007    1.55454E+007    1.55454E+007    3.33641E+005   -2.76205E+005    1.58216E+007   -5.20096E+006    1.54987E+007   -2.73932E+005    1.55053E+007    3.71504E+005    6.93586E+004   -3.12132E+004    7.77569E+005
             127    1.62660E+007    1.61255E+007    1.61255E+007    1.66463E+004   -2.93058E+005    1.64186E+007   -5.28304E+006    1.62593E+007   -2.89355E+005    1.61033E+007    3.51615E+004    4.62827E+004   -3.14079E+004    5.96239E+005
             128    1.68232E+007    1.65133E+007    1.65133E+007   -2.29060E+005   -3.89569E+005    1.69029E+007   -5.29824E+006    1.68215E+007   -3.88389E+005    1.65038E+007   -2.20691E+005    2.74107E+004   -1.28143E+004    3.98830E+005
             129    1.71099E+007    1.67260E+007    1.67260E+007   -3.55333E+005   -4.12186E+005    1.71382E+007   -5.31950E+006    1.71096E+007   -4.10810E+005    1.67251E+007   -3.55740E+005    1.49951E+004   -8.58463E+003    1.27782E+005
             130    1.28968E+007    1.38720E+007    1.38720E+007    1.70426E+006    3.52571E+005    1.35194E+007   -5.30961E+006    1.27360E+007    3.87975E+005    1.37433E+007    1.79760E+006    1.19303E+005   -2.02603E+005    1.24332E+006
             131    1.38801E+007    1.45660E+007    1.45660E+007    1.32689E+006    1.23176E+005    1.44428E+007   -5.33867E+006    1.37620E+007    1.33043E+005    1.44705E+007    1.41243E+006    1.72882E+005   -8.34208E+004    1.10897E+006
             132    1.46756E+007    1.53373E+007    1.53373E+007    9.90286E+005    3.53841E+005    1.49834E+007   -5.56047E+006    1.46445E+007    3.86785E+005    1.52421E+007    1.05247E+006    2.14149E+005   -1.18457E+005    1.14840E+006
             133    1.55915E+007    1.61020E+007    1.61020E+007    6.54483E+005    3.70445E+005    1.57316E+007   -5.70898E+006    1.55857E+007    4.08541E+005    1.60290E+007    6.89367E+005    2.28860E+005   -7.80914E+004    1.03716E+006
             134    1.63082E+007    1.67428E+007    1.67428E+007    5.71845E+005    3.00754E+005    1.64420E+007   -5.87179E+006    1.63031E+007    5.52412E+005    1.66931E+007    3.69884E+005    2.57172E+005   -6.26581E+004    8.65161E+005
             135    1.68772E+007    1.72405E+007    1.72405E+007    6.25142E+005    1.13130E+005    1.71274E+007   -5.99294E+006    1.68598E+007    6.26158E+005    1.72181E+007    1.34598E+005    2.78778E+005   -3.39217E+004    5.52480E+005
             136    1.71470E+007    1.74876E+007    1.74876E+007    6.87815E+005    1.32343E+004    1.74743E+007   -6.06288E+006    1.71171E+007    6.92619E+005    1.74803E+007    1.57516E+004    2.94749E+005   -1.23828E+004    1.93964E+005
             137    1.36703E+007    1.44061E+007    1.44061E+007    1.67881E+006   -4.38700E+004    1.44500E+007   -5.34701E+006    1.34228E+007   -3.41252E+004    1.42843E+007    1.79085E+006    9.36212E+004   -1.17539E+005    1.23711E+006
             138    1.44266E+007    1.48106E+007    1.48106E+007    1.43961E+006   -4.79518E+005    1.52901E+007   -5.25691E+006    1.41352E+007   -4.73307E+005    1.46749E+007    1.56908E+006    1.29510E+005   -8.78612E+004    1.33570E+006
             139    1.55193E+007    1.57961E+007    1.57961E+007    1.07397E+006   -4.13179E+005    1.62093E+007   -5.48564E+006    1.53578E+007   -4.03629E+005    1.56638E+007    1.19673E+006    1.27896E+005   -1.01753E+005    1.38531E+006
             140    1.66376E+007    1.66115E+007    1.66115E+007    6.57226E+005   -6.34081E+005    1.72456E+007   -5.54489E+006    1.65243E+007   -6.28792E+005    1.64957E+007    7.67738E+005    8.15292E+004   -7.32268E+004    1.35260E+006
             141    1.76788E+007    1.74491E+007    1.74491E+007    3.21640E+005   -7.33754E+005    1.81829E+007   -5.67901E+006    1.76078E+007   -7.29683E+005    1.73775E+007    3.89170E+005    2.71562E+004   -6.35683E+004    1.10499E+006
             142    1.84366E+007    1.80161E+007    1.80161E+007    9.17336E+004   -8.93101E+005    1.89092E+007   -5.73826E+006    1.83772E+007   -8.91961E+005    1.79863E+007    1.20397E+005   -2.46050E+004   -3.39915E+004    7.29872E+005
             143    1.88259E+007    1.83176E+007    1.83176E+007   -2.48693E+004   -9.57033E+005    1.92747E+007   -5.77858E+006    1.87739E+007   -9.56703E+005    1.83142E+007   -2.17937E+004   -5.36205E+004   -1.36700E+004    2.44347E+005
             144    1.28135E+007    1.41879E+007    1.41879E+007    2.23968E+006    6.56340E+005    1.35315E+007   -5.69464E+006    1.25905E+007    6.97153E+005    1.40628E+007    2.32393E+006    2.50895E+005   -2.14957E+005    1.19896E+006
             145    1.39132E+007    1.52001E+007    1.52001E+007    2.04204E+006    6.38335E+005    1.45618E+007   -5.96017E+006    1.37525E+007    6.93725E+005    1.50296E+007    2.15720E+006    2.86281E+005   -2.31523E+005    1.47091E+006
             146    1.48594E+007    1.61791E+007    1.61791E+007    1.81488E+006    8.69647E+005    1.53095E+007   -6.28788E+006    1.47916E+007    9.95134E+005    1.59802E+007    1.88828E+006    4.90775E+005   -2.51257E+005    1.62516E+006
             147    1.62540E+007    1.75783E+007    1.75783E+007    1.64631E+006    1.02047E+006    1.65579E+007   -6.74837E+006    1.62268E+007    1.17867E+006    1.74013E+007    1.66515E+006    6.02920E+005   -2.00847E+005    1.57715E+006
             148    1.73741E+007    1.88137E+007    1.88137E+007    1.64263E+006    1.24343E+006    1.75703E+007   -7.23325E+006    1.73638E+007    1.48268E+006    1.86767E+007    1.54040E+006    7.92877E+005   -1.39373E+005    1.32556E+006
             149    1.82702E+007    1.97969E+007    1.97969E+007    1.71807E+006    1.34118E+006    1.84557E+007   -7.61872E+006    1.82614E+007    1.70883E+006    1.97053E+007    1.44199E+006    9.34494E+005   -8.95895E+004    8.96039E+005
             150    1.87615E+007    2.03337E+007    2.03337E+007    1.79205E+006    1.35984E+006    1.89738E+007   -7.82852E+006    1.87502E+007    1.84105E+006    2.02726E+007    1.37188E+006    1.01478E+006   -3.58882E+004    3.20661E+005
             151    2.19458E+007    2.03930E+007    2.03930E+007    1.64567E+006   -3.74619E+006    2.41392E+007   -6.09750E+006    2.03740E+007   -3.64952E+006    2.02902E+007    1.65183E+006   -1.52359E+006    6.10549E+002    3.43017E+005
             152    2.10767E+007    1.95971E+007    1.95971E+007    1.59755E+006   -3.58858E+006    2.31857E+007   -5.86868E+006    1.95623E+007   -3.49513E+006    1.94569E+007    1.64433E+006   -1.45897E+006    1.64691E+004    9.29840E+005
             153    1.96638E+007    1.83275E+007    1.83275E+007    1.50785E+006   -3.29183E+006    2.16193E+007   -5.51451E+006    1.82749E+007   -3.20369E+006    1.81398E+007    1.60744E+006   -1.34368E+006    5.40767E+004    1.32120E+006
             154    1.79790E+007    1.67965E+007    1.67965E+007    1.40022E+006   -2.96228E+006    1.97588E+007   -5.07815E+006    1.67248E+007   -2.88087E+006    1.65763E+007    1.53903E+006   -1.17616E+006    1.24196E+005    1.51982E+006
             155    1.65033E+007    1.53708E+007    1.53708E+007    1.30770E+006   -2.79756E+006    1.81684E+007   -4.62700E+006    1.52899E+007   -2.71222E+006    1.51336E+007    1.45965E+006   -1.06325E+006    2.09849E+005    1.57145E+006
             156    1.52360E+007    1.40189E+007    1.40189E+007    1.32860E+006   -2.87856E+006    1.68975E+007   -4.15632E+006    1.38359E+007   -2.77595E+006    1.38247E+007    1.42019E+006   -9.01144E+005    4.01078E+005    1.37653E+006
             157    1.53298E+007    1.38444E+007    1.38444E+007    1.42148E+006   -3.28743E+006    1.71319E+007   -3.99282E+006    1.35534E+007   -3.11071E+006    1.36676E+007    1.42162E+006   -1.08905E+006    6.26205E+005    1.19160E+006
             158    1.89661E+007    2.07067E+007    2.07067E+007    1.82485E+006    1.65749E+006    1.90492E+007   -8.06301E+006    1.89644E+007    1.84242E+006    2.06517E+007    1.69490E+006   -9.54789E+005   -4.67998E+004   -3.57983E+005
             159    1.93336E+007    1.90050E+007    1.90050E+007    3.04023E+005   -9.04567E+005    1.99096E+007   -6.13482E+006    1.92484E+007   -9.04321E+005    1.90003E+007    3.08466E+005   -5.15297E+004   -1.08705E+004   -2.91868E+005
             160    1.77263E+007    1.81347E+007    1.81347E+007    6.24009E+005    2.00258E+005    1.79344E+007   -6.31965E+006    1.77149E+007    6.27518E+005    1.81256E+007    2.05787E+005   -3.07403E+005   -2.37459E+004   -2.55903E+005
             161    1.75967E+007    1.73029E+007    1.73029E+007   -2.27917E+005   -3.59025E+005    1.76619E+007   -5.57197E+006    1.75956E+007   -3.57890E+005    1.73001E+007   -2.26319E+005   -8.71768E+004   -8.59703E+003   -2.00973E+005
             162    1.67206E+007    1.67800E+007    1.67800E+007    3.31936E+005   -2.00325E+005    1.69803E+007   -5.63721E+006    1.67015E+007    3.32477E+005    1.67779E+007   -1.98705E+005   -1.18603E+005   -1.18629E+004   -1.48974E+005
             163    1.66939E+007    1.63946E+007    1.63946E+007   -2.30510E+005   -3.67134E+005    1.67617E+007   -5.26566E+006    1.66926E+007   -2.30720E+005    1.63939E+007   -3.66251E+005   -4.57212E+004   -6.50067E+003   -9.57846E+004
             164    1.62277E+007    1.62167E+007    1.62167E+007    2.76205E+005   -2.83696E+005    1.65004E+007   -5.40308E+006    1.62060E+007    2.76116E+005    1.62167E+007   -2.83534E+005   -1.31304E+004   -7.44462E+003   -3.20233E+004
             165    1.65049E+007    1.61811E+007    1.61811E+007   -2.54213E+005   -3.92552E+005    1.65737E+007   -5.17812E+006    1.65036E+007   -2.54423E+005    1.61811E+007   -3.92327E+005   -8.09034E+003   -5.43500E+003    1.37362E+004
             166    1.63172E+007    1.63710E+007    1.63710E+007    3.71170E+005   -2.45955E+005    1.66170E+007   -5.49875E+006    1.62909E+007    3.71631E+005    1.63701E+007   -2.45459E+005    9.49918E+004   -7.51868E+003    8.07979E+004
             167    1.83696E+007    2.00096E+007    2.00096E+007    1.81279E+006    1.47200E+006    1.85376E+007   -7.76481E+006    1.83625E+007    1.64888E+006    1.99179E+007    1.72764E+006   -8.60989E+005   -1.21554E+005   -9.74701E+005
             168    1.87769E+007    1.85393E+007    1.85393E+007    3.94681E+005   -8.11698E+005    1.93510E+007   -6.04076E+006    1.86894E+007   -8.10300E+005    1.85019E+007    4.30715E+005   -6.97524E+004   -3.42265E+004   -8.20649E+005
             169    1.73109E+007    1.77411E+007    1.77411E+007    5.81466E+005    2.82723E+005    1.74584E+007   -6.20176E+006    1.73051E+007    5.72485E+005    1.77069E+007    3.25888E+005   -2.95271E+005   -5.10651E+004   -7.12845E+005
             170    1.72105E+007    1.69911E+007    1.69911E+007   -1.02711E+005   -3.33769E+005    1.73248E+007   -5.51820E+006    1.72070E+007   -3.31260E+005    1.69724E+007   -8.65671E+004   -8.99421E+004   -1.87378E+004   -5.57394E+005
             171    1.63913E+007    1.64940E+007    1.64940E+007    2.93653E+005   -8.18238E+004    1.65758E+007   -5.56860E+006    1.63816E+007    2.92610E+005    1.64827E+007   -6.95045E+004   -1.16596E+005   -2.35332E+004   -4.15955E+005
             172    1.63772E+007    1.61481E+007    1.61481E+007   -2.16600E+005   -2.41697E+005    1.63898E+007   -5.22992E+006    1.63772E+007   -2.19893E+005    1.61443E+007   -2.34637E+005   -4.54764E+004   -7.93139E+003   -2.44250E+005
             173    1.59531E+007    1.59887E+007    1.59887E+007    2.42835E+005   -1.63754E+005    1.61525E+007   -5.35593E+006    1.59414E+007    2.42408E+005    1.59881E+007   -1.62656E+005   -1.36228E+004   -1.32658E+004   -1.03146E+005
             174    1.62289E+007    1.59745E+007    1.59745E+007   -2.39281E+005   -2.69347E+005    1.62439E+007   -5.15530E+006    1.62288E+007   -2.40046E+005    1.59742E+007   -2.68218E+005   -3.06693E+003   -4.74837E+003    7.69274E+004
             175    1.60757E+007    1.61697E+007    1.61697E+007    3.30248E+005   -1.32279E+005    1.63020E+007   -5.45589E+006    1.60607E+007    3.30166E+005    1.61664E+007   -1.28948E+005    9.12200E+004   -1.55483E+004    2.10737E+005
             176    1.73160E+007    1.88262E+007    1.88262E+007    1.78917E+006    1.24402E+006    1.75821E+007   -7.28645E+006    1.72967E+007    1.41227E+006    1.86823E+007    1.76475E+006   -7.07670E+005   -1.81137E+005   -1.40846E+006
             177    1.77840E+007    1.77185E+007    1.77185E+007    5.93338E+005   -6.58193E+005    1.83767E+007   -5.88454E+006    1.76845E+007   -6.53100E+005    1.76317E+007    6.75044E+005   -9.86649E+004   -6.90420E+004   -1.21292E+006
             178    1.65837E+007    1.70674E+007    1.70674E+007    5.83215E+005    3.85879E+005    1.66815E+007   -6.01216E+006    1.65811E+007    4.99436E+005    1.69963E+007    5.40735E+005   -2.62061E+005   -8.15710E+004   -1.05302E+006
             179    1.64667E+007    1.64117E+007    1.64117E+007    1.49560E+005   -2.52075E+005    1.66638E+007   -5.43640E+006    1.64556E+007   -2.45472E+005    1.63690E+007    1.85649E+005   -1.00552E+005   -4.37587E+004   -8.26624E+005
             180    1.57887E+007    1.59977E+007    1.59977E+007    2.89757E+005    1.29550E+005    1.58682E+007   -5.47235E+006    1.57869E+007    2.75405E+005    1.59742E+007    1.67450E+005   -1.06280E+005   -4.27333E+004   -6.01456E+005
             181    1.57662E+007    1.56934E+007    1.56934E+007    1.51733E+004   -1.59190E+005    1.58526E+007   -5.18314E+006    1.57640E+007   -1.55060E+005    1.56850E+007    1.95006E+004   -4.62943E+004   -2.50369E+004   -3.61221E+005
             182    1.54344E+007    1.55798E+007    1.55798E+007    2.37595E+005    5.49569E+004    1.55249E+007   -5.29079E+006    1.54319E+007    2.33133E+005    1.55789E+007    6.03288E+004   -1.01897E+004   -2.81371E+004   -1.18447E+005
             183    1.56867E+007    1.55876E+007    1.55876E+007   -2.28530E+004   -1.74353E+005    1.57619E+007   -5.13013E+006    1.56851E+007   -1.71588E+005    1.55867E+007   -2.47504E+004    3.48757E+003   -2.02516E+004    1.16341E+005
             184    1.55874E+007    1.57822E+007    1.57822E+007    3.16366E+005    7.59799E+004    1.57062E+007   -5.39151E+006    1.55832E+007    3.11412E+005    1.57733E+007    8.98696E+004    8.86445E+004   -3.37466E+004    3.63854E+005
             185    1.60574E+007    1.73933E+007    1.73933E+007    1.75157E+006    9.50153E+005    1.64431E+007   -6.69833E+006    1.60123E+007    1.05448E+006    1.72067E+007    1.83379E+006   -5.36251E+005   -1.96180E+005   -1.62765E+006
             186    1.65831E+007    1.66829E+007    1.66829E+007    8.51446E+005   -5.61287E+005    1.72442E+007   -5.65770E+006    1.64469E+007   -5.54001E+005    1.65512E+007    9.75889E+005   -1.07688E+005   -8.77245E+004   -1.43528E+006
             187    1.56188E+007    1.61688E+007    1.61688E+007    7.83573E+005    3.26619E+005    1.58422E+007   -5.75968E+006    1.56037E+007    3.61171E+005    1.60648E+007    8.53052E+005   -2.35834E+005   -9.66594E+004   -1.24215E+006
             188    1.55616E+007    1.56660E+007    1.56660E+007    4.68505E+005   -2.35652E+005    1.59017E+007   -5.29963E+006    1.55257E+007   -2.31052E+005    1.56032E+007    5.26743E+005   -1.05012E+005   -4.59491E+004   -9.70256E+005
             189    1.49894E+007    1.53059E+007    1.53059E+007    4.70800E+005    1.66849E+005    1.51390E+007   -5.31451E+006    1.49824E+007    1.75881E+005    1.52715E+007    4.96123E+005   -1.02313E+005   -4.49188E+004   -7.06381E+005
             190    1.49995E+007    1.50812E+007    1.50812E+007    3.39063E+005   -1.63034E+005    1.52442E+007   -5.08574E+006    1.49806E+007   -1.61847E+005    1.50702E+007    3.48872E+005   -4.60596E+004   -2.17149E+004   -4.00007E+005
             191    1.47357E+007    1.49935E+007    1.49935E+007    3.75063E+005    1.43207E+005    1.48503E+007   -5.17059E+006    1.47316E+007    1.46303E+005    1.49925E+007    3.73001E+005   -1.08075E+004   -2.64885E+004   -1.22506E+005
             192    1.49901E+007    1.50401E+007    1.50401E+007    2.88798E+005   -1.77877E+005    1.52180E+007   -5.05035E+006    1.49738E+007   -1.77284E+005    1.50377E+007    2.90657E+005    1.13935E+004   -1.63677E+004    1.89870E+005
             193    1.49382E+007    1.52324E+007    1.52324E+007    3.93317E+005    1.97071E+005    1.50353E+007   -5.27426E+006    1.49353E+007    2.03931E+005    1.52182E+007    4.00691E+005    8.29297E+004   -3.23802E+004    4.52209E+005
             194    1.47509E+007    1.60179E+007    1.60179E+007    1.80299E+006    7.83937E+005    1.52340E+007   -6.20163E+006    1.46714E+007    8.54887E+005    1.58108E+007    1.93920E+006   -3.53379E+005   -2.06759E+005   -1.67814E+006
             195    1.52347E+007    1.55958E+007    1.55958E+007    1.19826E+006   -3.56717E+005    1.59526E+007   -5.47913E+006    1.50546E+007   -3.42656E+005    1.54424E+007    1.33764E+006   -1.37046E+005   -1.28768E+005   -1.47447E+006
             196    1.45699E+007    1.52566E+007    1.52566E+007    1.10090E+006    3.05123E+005    1.49514E+007   -5.55420E+006    1.45209E+007    3.31509E+005    1.51380E+007    1.19310E+006   -1.96578E+005   -1.19050E+005   -1.27874E+006
             197    1.44741E+007    1.48449E+007    1.48449E+007    8.77549E+005   -8.77118E+004    1.49326E+007   -5.21157E+006    1.44014E+007   -7.72759E+004    1.47708E+007    9.41157E+005   -1.11771E+005   -8.83955E+004   -1.00953E+006
             198    1.40638E+007    1.45822E+007    1.45822E+007    8.47351E+005    2.11170E+005    1.43711E+007   -5.21358E+006    1.40313E+007    2.21463E+005    1.45451E+007    8.74162E+005   -9.08182E+004   -7.36370E+004   -7.08109E+005
             199    1.40595E+007    1.43931E+007    1.43931E+007    7.36841E+005   -3.74837E+004    1.44306E+007   -5.03083E+006    1.40114E+007   -3.31012E+004    1.43810E+007    7.44558E+005   -4.35792E+004   -5.60145E+004   -4.04330E+005
             200    1.38818E+007    1.43446E+007    1.43446E+007    7.54220E+005    1.88730E+005    1.41559E+007   -5.09586E+006    1.38558E+007    1.94367E+005    1.43441E+007    7.49118E+005   -3.94578E+003   -5.61492E+004   -8.51579E+004
             201    1.40933E+007    1.44008E+007    1.44008E+007    6.89743E+005   -4.58856E+004    1.44467E+007   -5.01488E+006    1.40500E+007   -4.23918E+004    1.43967E+007    6.90381E+005    2.04090E+004   -5.00395E+004    2.37248E+005
             202    1.41270E+007    1.46125E+007    1.46125E+007    7.51122E+005    2.33931E+005    1.43785E+007   -5.19917E+006    1.41057E+007    2.44520E+005    1.45900E+007    7.62941E+005    8.28476E+004   -6.84728E+004    5.51496E+005
             203    1.36372E+007    1.47108E+007    1.47108E+007    1.93260E+006    3.52388E+005    1.43584E+007   -5.66527E+006    1.34289E+007    3.70865E+005    1.45138E+007    2.11115E+006   -1.93621E+005   -1.36994E+005   -1.56690E+006
             204    1.41651E+007    1.45843E+007    1.45843E+007    1.49737E+006   -4.56086E+005    1.50404E+007   -5.20853E+006    1.38572E+007   -4.50042E+005    1.44306E+007    1.64508E+006   -6.87128E+004   -9.96513E+004   -1.40945E+006
             205    1.35599E+007    1.42829E+007    1.42829E+007    1.46651E+006    8.50862E+004    1.41978E+007   -5.27816E+006    1.34003E+007    9.79899E+004    1.41655E+007    1.57100E+006   -1.61249E+005   -1.09694E+005   -1.21322E+006
             206    1.35453E+007    1.40102E+007    1.40102E+007    1.26364E+006   -2.12856E+005    1.42230E+007   -5.02032E+006    1.33624E+007   -2.09839E+005    1.39395E+007    1.33133E+006   -1.01395E+005   -5.15110E+004   -9.42369E+005
             207    1.31893E+007    1.37632E+007    1.37632E+007    1.22421E+006    7.78552E+003    1.37554E+007   -4.99839E+006    1.30622E+007    1.02865E+004    1.37260E+007    1.25891E+006   -7.71762E+004   -4.63488E+004   -6.78326E+005
             208    1.31726E+007    1.36184E+007    1.36184E+007    1.14732E+006   -1.58394E+005    1.37768E+007   -4.86912E+006    1.30258E+007   -1.57597E+005    1.36079E+007    1.15704E+006   -3.88898E+004   -2.89378E+004   -3.60314E+005
             209    1.30412E+007    1.35814E+007    1.35814E+007    1.14278E+006    1.12064E+004    1.35701E+007   -4.91178E+006    1.29301E+007    1.20884E+004    1.35811E+007    1.14212E+006   -6.89181E+003   -3.14908E+004   -5.24370E+004
             210    1.32189E+007    1.36442E+007    1.36442E+007    1.10649E+006   -1.64230E+005    1.38084E+007   -4.86214E+006    1.30805E+007   -1.63648E+005    1.36383E+007    1.11179E+006    2.00821E+004   -2.61139E+004    2.70763E+005
             211    1.32638E+007    1.38165E+007    1.38165E+007    1.15605E+006    2.22368E+004    1.37943E+007   -4.99827E+006    1.31541E+007    2.39841E+004    1.37885E+007    1.18229E+006    6.65900E+004   -3.73537E+004    5.91383E+005
             212    1.27649E+007    1.38119E+007    1.38119E+007    1.98463E+006    2.80605E+005    1.35313E+007   -5.35906E+006    1.25052E+007    2.84325E+005    1.36345E+007    2.15837E+006    1.36744E+005   -7.79156E+004   -1.43163E+006
             213    1.29144E+007    1.37342E+007    1.37342E+007    1.88235E+006   -2.94627E+004    1.37637E+007   -5.19570E+006    1.25901E+007   -1.08450E+004    1.35949E+007    2.00303E+006   -7.31470E+004   -1.79849E+005   -1.27737E+006
             214    1.26179E+007    1.35970E+007    1.35970E+007    1.81954E+006    2.79988E+005    1.33170E+007   -5.23217E+006    1.24039E+007    3.00380E+005    1.34911E+007    1.90501E+006   -9.98262E+004   -1.65057E+005   -1.10976E+006
             215    1.23784E+007    1.32597E+007    1.32597E+007    1.75067E+006    1.64834E+005    1.30949E+007   -5.05840E+006    1.21467E+007    1.87295E+005    1.31843E+007    1.80361E+006   -7.04751E+004   -1.81319E+005   -9.27910E+005
             216    1.20756E+007    1.30228E+007    1.30228E+007    1.75576E+006    2.75178E+005    1.27477E+007   -5.01792E+006    1.18689E+007    2.95376E+005    1.29913E+007    1.76705E+006   -6.23774E+004   -1.67755E+005   -5.93263E+005
             217    1.20873E+007    1.29268E+007    1.29268E+007    1.65046E+006    1.65746E+005    1.27611E+007   -4.91434E+006    1.18796E+007    1.82135E+005    1.29193E+007    1.64159E+006   -3.24958E+004   -1.54046E+005   -2.90126E+005
             218    1.20331E+007    1.29138E+007    1.29138E+007    1.63516E+006    2.46715E+005    1.26671E+007   -4.93189E+006    1.18508E+007    2.62600E+005    1.29138E+007    1.61930E+006    4.76058E+003   -1.47657E+005   -1.66840E+004
             219    1.21167E+007    1.29467E+007    1.29467E+007    1.62796E+006    1.64915E+005    1.27818E+007   -4.91321E+006    1.19156E+007    1.81034E+005    1.29407E+007    1.61788E+006    3.72693E+004   -1.51484E+005    2.59668E+005
             220    1.21306E+007    1.30785E+007    1.30785E+007    1.72669E+006    2.96007E+005    1.27825E+007   -5.03374E+006    1.19386E+007    3.19581E+005    1.30499E+007    1.73179E+006    7.45285E+004   -1.77348E+005    5.66999E+005
             221    1.15035E+007    1.19319E+007    1.19319E+007    2.00552E+006   -6.75296E+005    1.26072E+007   -4.42071E+006    1.07665E+007   -6.57037E+005    1.19041E+007    2.01507E+006   -1.30916E+005    2.07026E+005    5.14180E+005
             222    1.14603E+007    1.19338E+007    1.19338E+007    1.90172E+006   -5.55962E+005    1.24898E+007   -4.42652E+006    1.08433E+007   -5.44190E+005    1.19290E+007    1.89478E+006   -7.21535E+004    1.65472E+005    2.11413E+005
             223    1.14761E+007    1.19437E+007    1.19437E+007    1.80705E+006   -5.16373E+005    1.24601E+007   -4.41146E+006    1.09280E+007   -5.05471E+005    1.19437E+007    1.79615E+006   -5.13324E+003    1.58765E+005   -4.37649E+002
             224    1.14661E+007    1.19294E+007    1.19294E+007    1.89323E+006   -5.67207E+005    1.24966E+007   -4.41848E+006    1.08481E+007   -5.54343E+005    1.19246E+007    1.88524E+006    6.29328E+004    1.74204E+005   -2.14631E+005
             225    1.15074E+007    1.19264E+007    1.19264E+007    2.00451E+006   -6.88766E+005    1.26152E+007   -4.41404E+006    1.07634E+007   -6.70465E+005    1.18989E+007    2.01367E+006    1.31290E+005    2.07760E+005   -5.10715E+005
             226    1.16841E+007    1.19956E+007    1.19956E+007    2.03595E+006   -8.66052E+005    1.28616E+007   -4.38849E+006    1.08278E+007   -8.38588E+005    1.19166E+007    2.08746E+006    2.10210E+005    2.49319E+005   -8.68910E+005
             227    1.21840E+007    1.22873E+007    1.22873E+007    1.89342E+006   -1.12097E+006    1.34083E+007   -4.35326E+006    1.12985E+007   -1.07978E+006    1.21298E+007    2.00977E+006    3.73880E+005    2.69047E+005   -1.23669E+006
             228    1.29652E+007    1.27040E+007    1.27040E+007    1.83541E+006   -1.64666E+006    1.43507E+007   -4.29759E+006    1.18428E+007   -1.57066E+006    1.25220E+007    1.94145E+006    6.19250E+005    3.54810E+005   -1.30720E+006
             229    1.37145E+007    1.25237E+007    1.25237E+007    1.77606E+006   -2.92249E+006    1.54462E+007   -3.79242E+006    1.16862E+007   -2.76862E+006    1.23402E+007    1.80564E+006    8.82059E+005    6.19326E+005   -1.22637E+006
             230    2.23740E+007    2.04630E+007    2.04630E+007    1.70937E+006   -4.30290E+006    2.47659E+007   -5.95649E+006    2.04348E+007   -4.17787E+006    2.03321E+007    1.71521E+006    1.75429E+006    1.45112E+003   -3.34865E+005
             231    2.13286E+007    1.95568E+007    1.95568E+007    1.66059E+006   -4.04401E+006    2.36008E+007   -5.72447E+006    1.94984E+007   -3.92592E+006    1.93925E+007    1.70678E+006    1.65481E+006    1.90342E+004   -9.23740E+005
             232    1.96814E+007    1.81289E+007    1.81289E+007    1.59223E+006   -3.63987E+006    2.17688E+007   -5.36042E+006    1.80144E+007   -3.53048E+006    1.79204E+007    1.69133E+006    1.50570E+006    5.76114E+004   -1.31031E+006
             233    1.78758E+007    1.65620E+007    1.65620E+007    1.50685E+006   -3.19476E+006    1.97567E+007   -4.95803E+006    1.63960E+007   -3.09514E+006    1.63150E+007    1.65419E+006    1.33072E+006    9.98596E+004   -1.53603E+006
             234    1.62543E+007    1.50727E+007    1.50727E+007    1.47010E+006   -2.92824E+006    1.80009E+007   -4.53817E+006    1.48243E+007   -2.83075E+006    1.48098E+007    1.63542E+006    1.18927E+006    1.74046E+005   -1.58306E+006
             235    1.50477E+007    1.39045E+007    1.39045E+007    1.46170E+006   -2.81993E+006    1.67245E+007   -4.18211E+006    1.35724E+007   -2.71599E+006    1.36421E+007    1.62021E+006    1.09689E+006    2.61086E+005   -1.54493E+006
             236    1.44817E+007    1.29363E+007    1.29363E+007    1.58248E+006   -3.37258E+006    1.63088E+007   -3.71538E+006    1.23462E+007   -3.21775E+006    1.26968E+007    1.66711E+006    1.13957E+006    5.06203E+005   -1.37365E+006
             237    1.46564E+007    1.48989E+007    1.48989E+007    8.86494E+005   -3.26060E+005    1.52250E+007   -5.15313E+006    1.45429E+007    8.98506E+005    1.48763E+007   -3.15411E+005   -4.11669E+005    6.63871E+002   -4.00738E+005
             238    1.65047E+007    1.63199E+007    1.63199E+007    9.39540E+004   -4.50161E+005    1.67700E+007   -5.32122E+006    1.64845E+007    1.13322E+005    1.62939E+007   -4.43574E+005    5.91957E+005    2.51387E+004   -2.70418E+005
             239    1.59420E+007    1.55530E+007    1.55530E+007   -6.48075E+004   -6.94684E+005    1.62476E+007   -4.93116E+006    1.59140E+007   -6.48908E+004    1.55499E+007   -6.91552E+005   -4.37342E+004    1.19939E+004   -2.18009E+005
             240    1.57125E+007    1.55559E+007    1.55559E+007    2.99101E+005   -5.75680E+005    1.61316E+007   -5.09311E+006    1.56575E+007    3.05138E+005    1.55487E+007   -5.74472E+005    3.04841E+005    4.27739E+003   -1.36381E+005
             241    1.44002E+007    1.45308E+007    1.45308E+007    7.08183E+005   -3.84756E+005    1.49156E+007   -4.95141E+006    1.43065E+007    7.23000E+005    1.44310E+007   -2.99742E+005   -4.63849E+005    6.99589E+003   -1.11755E+006
             242    1.60960E+007    1.59411E+007    1.59411E+007    1.45685E+005   -4.39536E+005    1.63807E+007   -5.21576E+006    1.60721E+007    1.42878E+005    1.58827E+007   -3.78335E+005    5.44268E+005    8.26743E+004   -8.07179E+005
             243    1.56518E+007    1.53126E+007    1.53126E+007   -5.58275E+004   -6.07971E+005    1.59205E+007   -4.88292E+006    1.56298E+007   -6.10310E+004    1.52894E+007   -5.79585E+005   -2.18009E+004    5.44068E+004   -6.06492E+005
             244    1.54221E+007    1.53085E+007    1.53085E+007    2.97262E+005   -4.93974E+005    1.58024E+007   -5.03725E+006    1.53763E+007    2.99810E+005    1.52919E+007   -4.79997E+005    2.88223E+005    4.05594E+004   -4.17326E+005
             245    1.39457E+007    1.38330E+007    1.38330E+007    3.48351E+005   -5.32020E+005    1.43650E+007   -4.54977E+006    1.38829E+007    3.62349E+005    1.36063E+007   -3.19325E+005   -5.74477E+005   -2.47772E+004   -1.69265E+006
             246    1.53402E+007    1.52353E+007    1.52353E+007    1.94247E+005   -3.87366E+005    1.56227E+007   -5.01407E+006    1.53153E+007    1.58949E+005    1.51219E+007   -2.38633E+005    4.53825E+005    1.24471E+005   -1.24624E+006
             247    1.51040E+007    1.48263E+007    1.48263E+007   -7.56957E+004   -4.72000E+005    1.52983E+007   -4.75952E+006    1.50923E+007   -8.51678E+004    1.47657E+007   -4.01937E+005    1.22462E+004    5.98945E+004   -9.60532E+005
             248    1.48779E+007    1.48345E+007    1.48345E+007    2.60237E+005   -3.29495E+005    1.51640E+007   -4.92174E+006    1.48516E+007    2.59406E+005    1.48024E+007   -2.96581E+005    2.60521E+005    4.51840E+004   -6.45001E+005
             249    1.33329E+007    1.29479E+007    1.29479E+007   -4.64564E+004   -6.99586E+005    1.36474E+007   -4.06727E+006    1.32968E+007   -4.54016E+004    1.25954E+007   -3.48212E+005   -7.05446E+005   -4.15419E+004   -2.04593E+006
             250    1.43169E+007    1.42724E+007    1.42724E+007    2.54049E+005   -3.25467E+005    1.45979E+007   -4.73367E+006    1.42905E+007    1.84129E+005    1.40924E+007   -7.54855E+004    3.54364E+005    1.60070E+005   -1.57097E+006
             251    1.43174E+007    1.41554E+007    1.41554E+007   -2.64885E+004   -2.93822E+005    1.44492E+007   -4.61170E+006    1.43118E+007   -6.90280E+004    1.40541E+007   -1.49981E+005    3.22947E+004    9.54557E+004   -1.20356E+006
             252    1.41254E+007    1.41989E+007    1.41989E+007    2.88196E+005   -1.31684E+005    1.43306E+007   -4.78515E+006    1.41113E+007    2.66587E+005    1.41455E+007   -5.66227E+004    2.30653E+005    8.63681E+004   -8.42579E+005
             253    1.26758E+007    1.18964E+007    1.18964E+007   -4.42500E+005   -1.09139E+006    1.29878E+007   -3.45418E+006    1.26384E+007   -5.84619E+005    1.14325E+007   -4.85325E+005   -8.53509E+005   -1.47283E+005   -2.25084E+006
             254    1.32501E+007    1.32054E+007    1.32054E+007    1.36543E+005   -2.18642E+005    1.34241E+007   -4.37445E+006    1.32393E+007    8.93951E+004    1.29691E+007    6.47976E+004    1.80739E+005    9.97149E+004   -1.75412E+006
             255    1.34198E+007    1.33092E+007    1.33092E+007   -5.05893E+004   -1.69714E+005    1.34789E+007   -4.36298E+006    1.34186E+007   -1.43658E+005    1.31668E+007    6.57605E+004    2.60645E+004    4.67827E+004   -1.37313E+006
             256    1.32656E+007    1.33983E+007    1.33983E+007    1.97231E+005    6.91242E+004    1.33292E+007   -4.55490E+006    1.32642E+007    1.75444E+005    1.33237E+007    1.65546E+005    1.74861E+005    3.72024E+004   -9.78770E+005
             257    1.22419E+007    1.10723E+007    1.10723E+007   -6.61644E+005   -1.62100E+006    1.26933E+007   -2.92990E+006    1.21569E+007   -1.08500E+006    1.05233E+007   -6.48615E+005   -1.07560E+006   -2.74780E+005   -2.33015E+006
             258    1.21537E+007    1.20860E+007    1.20860E+007    6.59590E+003   -1.40635E+005    1.22267E+007   -3.98400E+006    1.21517E+007   -2.58331E+004    1.18075E+007    1.70354E+005   -3.10789E+004    6.65689E+004   -1.82142E+006
             259    1.24728E+007    1.24186E+007    1.24186E+007    7.52532E+004   -1.79778E+005    1.25984E+007   -4.10470E+006    1.24670E+007   -1.60913E+005    1.22438E+007    2.31211E+005   -5.38890E+004    7.31669E+004   -1.45837E+006
             260    1.23124E+007    1.25530E+007    1.25530E+007    3.82901E+005    1.03065E+005    1.24499E+007   -4.34631E+006    1.23052E+007    1.60040E+005    1.24561E+007    4.22836E+005    9.89713E+004    1.03836E+005   -1.08058E+006
             261    1.19082E+007    1.01566E+007    1.01566E+007   -5.64881E+005   -2.66016E+006    1.28167E+007   -2.31051E+006    1.14824E+007   -2.04366E+006    9.48549E+006   -5.10296E+005   -1.48787E+006   -5.69646E+005   -2.35197E+006
             262    1.16913E+007    1.10542E+007    1.10542E+007   -1.56424E+005   -1.06488E+006    1.21191E+007   -3.27763E+006    1.16115E+007   -6.45071E+005    1.07096E+007   -2.31597E+005   -6.09564E+005   -3.54470E+005   -1.89669E+006
             263    1.16789E+007    1.14044E+007    1.14044E+007    3.82513E+004   -5.63840E+005    1.19683E+007   -3.62628E+006    1.16439E+007   -4.02667E+005    1.11505E+007    1.30991E+005   -3.60245E+005   -2.11482E+005   -1.66103E+006
             264    1.13844E+007    1.14520E+007    1.14520E+007    2.77124E+005   -1.30909E+005    1.15829E+007   -3.86607E+006    1.13679E+007   -3.88362E+004    1.13123E+007    3.24752E+005   -1.23864E+005   -1.57153E+005   -1.24239E+006
             265    1.09758E+007    1.00527E+007    1.00527E+007    2.65798E+005   -1.81433E+006    1.18670E+007   -2.83471E+006    1.05185E+007   -1.63179E+006    9.88408E+006    2.51830E+005   -5.87384E+005   -4.85813E+005   -1.19058E+006
             266    1.14084E+007    9.99327E+006    9.99327E+006   -1.76316E+005   -2.34321E+006    1.23365E+007   -2.49125E+006    1.09310E+007   -2.11499E+006    9.67696E+006   -8.82197E+004   -8.71695E+005   -4.61046E+005   -1.63064E+006
             267    1.23343E+007    1.02632E+007    1.02632E+007   -5.75869E+005   -3.15770E+006    1.34209E+007   -2.17653E+006    1.17029E+007   -2.84169E+006    9.74868E+006   -3.77401E+005   -1.40012E+006   -4.17734E+005   -2.01385E+006
             268    1.36460E+007    1.04482E+007    1.04482E+007   -1.34884E+006   -4.49662E+006    1.49449E+007   -1.53426E+006    1.27903E+007   -4.02198E+006    9.90479E+006   -1.28002E+006   -1.90287E+006   -5.58193E+005   -1.92615E+006
             269    1.82849E+007    1.31325E+007    1.31325E+007   -1.42147E+006   -7.39118E+006    2.05237E+007   -1.43996E+006    1.58592E+007   -6.79005E+006    1.25186E+007   -1.40872E+006   -3.45792E+006    1.92176E+004   -4.42793E+005
             270    1.75778E+007    1.26372E+007    1.26372E+007   -1.48373E+006   -7.04976E+006    1.96869E+007   -1.36790E+006    1.53994E+007   -6.47203E+006    1.19574E+007   -1.38169E+006   -3.29697E+006    3.46826E+004   -1.24106E+006
             271    1.64882E+007    1.18921E+007    1.18921E+007   -1.54205E+006   -6.50847E+006    1.84006E+007   -1.28054E+006    1.46582E+007   -5.96945E+006    1.11439E+007   -1.33280E+006   -3.03460E+006    6.87392E+003   -1.75308E+006
             272    1.51889E+007    1.10245E+007    1.10245E+007   -1.59780E+006   -5.83228E+006    1.68568E+007   -1.19815E+006    1.37640E+007   -5.34305E+006    1.02586E+007   -1.32114E+006   -2.68156E+006   -8.75928E+004   -2.02221E+006
             273    1.40440E+007    1.01771E+007    1.01771E+007   -1.62890E+006   -5.35390E+006    1.55310E+007   -1.06478E+006    1.28603E+007   -4.91688E+006    9.47111E+006   -1.35990E+006   -2.29724E+006   -2.28575E+005   -2.06219E+006
             274    1.31936E+007    9.29546E+006    9.29546E+006   -1.71413E+006   -5.32863E+006    1.46241E+007   -7.50900E+005    1.20016E+007   -4.88613E+006    8.67999E+006   -1.54116E+006   -2.04105E+006   -4.33940E+005   -1.92848E+006
             275    1.34119E+007    9.31834E+006    9.31834E+006   -2.05608E+006   -5.47091E+006    1.47893E+007   -5.97116E+005    1.23759E+007   -4.95292E+006    8.82035E+006   -2.07608E+006   -1.99005E+006   -6.44863E+005   -1.67293E+006
             276    1.08338E+007    1.01798E+007    1.01798E+007    4.28743E+005   -1.48250E+006    1.16623E+007   -3.04200E+006    1.04444E+007   -1.33578E+006    1.01133E+007    3.48440E+005   -3.73806E+005   -4.66009E+005   -7.44935E+005
             277    1.07672E+007    1.02868E+007    1.02868E+007    5.07066E+005   -1.25124E+006    1.15381E+007   -3.18089E+006    1.04368E+007   -1.12674E+006    1.02709E+007    3.98560E+005   -2.01688E+005   -4.38964E+005   -3.58062E+005
             278    1.07686E+007    1.03302E+007    1.03302E+007    4.81158E+005   -1.16778E+006    1.14980E+007   -3.21452E+006    1.04789E+007   -1.05409E+006    1.03302E+007    3.67472E+005   -3.36570E+003   -4.17777E+005    2.29114E+002
             279    1.07645E+007    1.02763E+007    1.02763E+007    4.97413E+005   -1.25791E+006    1.15342E+007   -3.17194E+006    1.04352E+007   -1.13337E+006    1.02616E+007    3.87620E+005    1.93511E+005   -4.39578E+005    3.43879E+005
             280    1.08320E+007    1.01591E+007    1.01591E+007    4.25350E+005   -1.51017E+006    1.16693E+007   -3.02477E+006    1.04323E+007   -1.35932E+006    1.00900E+007    3.43573E+005    3.86031E+005   -4.73795E+005    7.57453E+005
             281    1.10094E+007    1.00111E+007    1.00111E+007    2.05158E+005   -1.89838E+006    1.19095E+007   -2.77261E+006    1.05430E+007   -1.70703E+006    9.84538E+006    1.79491E+005    6.07761E+005   -4.99218E+005    1.17317E+006
             282    1.14821E+007    9.97613E+006    9.97613E+006   -1.76226E+005   -2.48492E+006    1.24610E+007   -2.43833E+006    1.09415E+007   -2.23725E+006    9.66539E+006   -1.13159E+005    9.36713E+005   -4.93694E+005    1.58883E+006
             283    1.22085E+007    9.84687E+006    9.84687E+006   -7.88029E+005   -3.48446E+006    1.33313E+007   -1.85812E+006    1.15096E+007   -3.10431E+006    9.42609E+006   -7.47402E+005    1.36498E+006   -5.79584E+005    1.77179E+006
             284    1.24987E+007    9.27444E+006    9.27444E+006   -1.26308E+006   -4.53465E+006    1.38091E+007   -1.15890E+006    1.14745E+007   -4.16388E+006    8.84573E+006   -1.20515E+006    1.63546E+006   -5.34478E+005    1.61486E+006
             285    1.12846E+007    1.14578E+007    1.14578E+007    4.34148E+005   -7.06765E+004    1.15285E+007   -3.94043E+006    1.12591E+007   -3.57134E+004    1.13996E+007    4.57456E+005   -7.20467E+004   -1.22693E+005   -7.98239E+005
             286    1.22888E+007    1.24671E+007    1.24671E+007    4.07477E+005   -3.88166E+004    1.25059E+007   -4.27858E+006    1.22706E+007   -2.10393E+004    1.24250E+007    4.31816E+005    3.80570E+004    8.49784E+004   -7.11217E+005
             287    1.32650E+007    1.32932E+007    1.32932E+007    1.14291E+005   -5.61751E+004    1.33494E+007   -4.45045E+006    1.32625E+007   -5.40952E+004    1.32632E+007    1.42232E+005    4.88462E+004    1.56219E+004   -6.26514E+005
             288    1.40965E+007    1.40092E+007    1.40092E+007   -9.57935E+003   -1.63790E+005    1.41729E+007   -4.61193E+006    1.40946E+007   -3.93989E+004    1.39904E+007   -1.15190E+005    4.53001E+004    5.94009E+004   -5.13217E+005
             289    1.48284E+007    1.45777E+007    1.45777E+007   -9.43465E+004   -4.02187E+005    1.49799E+007   -4.69372E+006    1.48212E+007   -9.62714E+004    1.45677E+007   -3.90270E+005    2.48991E+004    2.38829E+004   -3.85948E+005
             290    1.53364E+007    1.49868E+007    1.49868E+007   -1.02885E+005   -5.84981E+005    1.55718E+007   -4.76632E+006    1.53194E+007   -1.04811E+005    1.49833E+007   -5.79583E+005    4.19139E+003    3.03571E+004   -2.32448E+005
             291    1.56136E+007    1.51946E+007    1.51946E+007   -1.28807E+005   -6.93858E+005    1.58885E+007   -4.79065E+006    1.55906E+007   -1.28824E+005    1.51941E+007   -6.93352E+005   -9.73717E+003    3.65990E+003   -8.76076E+004
             292    1.12109E+007    1.14893E+007    1.14893E+007    5.07405E+005    6.26459E+004    1.14266E+007   -4.01978E+006    1.11910E+007    9.30772E+004    1.14765E+007    4.89702E+005   -1.32550E+004   -1.11889E+005   -3.74062E+005
             293    1.21091E+007    1.24339E+007    1.24339E+007    5.24916E+005    1.34102E+005    1.22998E+007   -4.36429E+006    1.20949E+007    1.51639E+005    1.24255E+007    5.15709E+005    4.36019E+004    7.94863E+004   -3.12432E+005
             294    1.30632E+007    1.32404E+007    1.32404E+007    2.03158E+005    1.51304E+005    1.30891E+007   -4.53161E+006    1.30630E+007    1.54820E+005    1.32350E+007    2.04986E+005    5.31933E+004    1.16087E+004   -2.58594E+005
             295    1.38928E+007    1.39773E+007    1.39773E+007    2.33656E+005   -5.99397E+004    1.40373E+007   -4.71701E+006    1.38858E+007    2.23536E+005    1.39746E+007   -4.71401E+004    6.33480E+004    5.34593E+004   -1.83261E+005
             296    1.46002E+007    1.45536E+007    1.45536E+007    2.26342E+005   -3.05142E+005    1.48587E+007   -4.82493E+006    1.45785E+007    2.25994E+005    1.45523E+007   -3.03551E+005    6.77790E+004    1.82772E+004   -1.17171E+005
             297    1.51084E+007    1.49836E+007    1.49836E+007    2.68457E+005   -4.89497E+005    1.54731E+007   -4.92085E+006    1.50655E+007    2.67821E+005    1.49829E+007   -4.88193E+005    7.26127E+004    2.70928E+004   -6.93128E+004
             298    1.53729E+007    1.52000E+007    1.52000E+007    2.76145E+005   -5.85771E+005    1.57857E+007   -4.96344E+006    1.53184E+007    2.76540E+005    1.51995E+007   -5.85751E+005    7.68555E+004   -4.80565E+002   -1.77756E+004
             299    1.12328E+007    1.14827E+007    1.14827E+007    5.21171E+005   -3.01472E+003    1.14857E+007   -4.00028E+006    1.12052E+007    1.98174E+004    1.14827E+007    4.98363E+005   -3.40778E+003   -1.06993E+005    1.60298E+004
             300    1.21536E+007    1.23894E+007    1.23894E+007    4.91764E+005   -5.00145E+003    1.23944E+007   -4.29205E+006    1.21308E+007    4.74147E+003    1.23891E+007    4.82357E+005   -7.40144E+003    6.88322E+004    6.28061E+004
             301    1.31095E+007    1.31838E+007    1.31838E+007    1.82479E+005   -3.12736E+004    1.32151E+007   -4.44500E+006    1.31056E+007   -3.07946E+004    1.31829E+007    1.82862E+005   -2.07395E+004    9.59597E+003    1.03864E+005
             302    1.39729E+007    1.39122E+007    1.39122E+007   -6.08520E+002   -1.19919E+005    1.40321E+007   -4.59723E+006    1.39717E+007   -2.62379E+004    1.39109E+007   -9.30143E+004   -2.86487E+004    4.87745E+004    1.30616E+005
             303    1.47302E+007    1.45016E+007    1.45016E+007   -7.79791E+004   -3.74819E+005    1.48764E+007   -4.68293E+006    1.47235E+007   -7.88884E+004    1.45004E+007   -3.72699E+005   -3.85784E+004    1.69581E+004    1.28427E+005
             304    1.52621E+007    1.49267E+007    1.49267E+007   -8.86410E+004   -5.70615E+005    1.54973E+007   -4.75582E+006    1.52449E+007   -8.98119E+004    1.49260E+007   -5.68730E+005   -4.27378E+004    2.46538E+004    9.58989E+004
             305    1.55521E+007    1.51465E+007    1.51465E+007   -1.14135E+005   -6.81598E+005    1.58281E+007   -4.78359E+006    1.55288E+007   -1.13991E+005    1.51463E+007   -6.81542E+005   -4.69521E+004   -4.07489E+002    2.97795E+004
             306    1.11858E+007    1.14465E+007    1.14465E+007    5.04141E+005    3.22900E+004    1.14142E+007   -3.99432E+006    1.11634E+007    6.66469E+004    1.14301E+007    4.86183E+005    2.67235E+004   -1.21590E+005    4.23393E+005
             307    1.20692E+007    1.23819E+007    1.23819E+007    5.11565E+005    1.23310E+005    1.22586E+007   -4.33893E+006    1.20551E+007    1.40832E+005    1.23649E+007    5.11032E+005   -3.77984E+004    7.90124E+004    4.47772E+005
             308    1.30311E+007    1.32053E+007    1.32053E+007    2.07645E+005    1.40871E+005    1.30644E+007   -4.51792E+006    1.30307E+007    1.48554E+005    1.31877E+007    2.17518E+005   -6.50160E+004    1.85651E+004    4.73182E+005
             309    1.38953E+007    1.39763E+007    1.39763E+007    2.35197E+005   -6.82819E+004    1.40445E+007   -4.71439E+006    1.38878E+007    2.20439E+005    1.39608E+007   -3.80439E+004   -8.59984E+004    6.35639E+004    4.58008E+005
             310    1.46556E+007    1.46040E+007    1.46040E+007    2.27392E+005   -3.15499E+005    1.49195E+007   -4.83865E+006    1.46330E+007    2.26085E+005    1.45933E+007   -3.03411E+005   -9.89537E+004    3.01325E+004    3.88247E+005
             311    1.51985E+007    1.50714E+007    1.50714E+007    2.72327E+005   -4.97390E+005    1.55688E+007   -4.94877E+006    1.51546E+007    2.71376E+005    1.50663E+007   -4.91379E+005   -1.08336E+005    3.47161E+004    2.57963E+005
             312    1.54858E+007    1.53101E+007    1.53101E+007    2.80441E+005   -5.94735E+005    1.59049E+007   -4.99861E+006    1.54300E+007    2.81267E+005    1.53088E+007   -5.94190E+005   -1.13124E+005    4.09133E+003    9.08880E+004
             313    1.12437E+007    1.13665E+007    1.13665E+007    3.97036E+005   -1.32614E+005    1.14991E+007   -3.87698E+006    1.12156E+007   -8.48400E+004    1.13011E+007    4.14732E+005    8.16816E+004   -1.45265E+005    8.43956E+005
             314    1.21898E+007    1.23648E+007    1.23648E+007    4.00990E+005   -3.91013E+004    1.24039E+007   -4.24224E+006    1.21719E+007   -2.14951E+004    1.23064E+007    4.41811E+005   -4.03180E+004    8.34117E+004    8.33958E+005
             315    1.31891E+007    1.32125E+007    1.32125E+007    1.10309E+005   -6.17731E+004    1.32743E+007   -4.42035E+006    1.31866E+007   -5.55362E+004    1.31587E+007    1.57873E+005   -8.18085E+004    2.57731E+004    8.34281E+005
             316    1.41106E+007    1.40206E+007    1.40206E+007    6.18275E+003   -1.84238E+005    1.42048E+007   -4.61418E+006    1.41077E+007   -3.34690E+004    1.39774E+007   -1.01378E+005   -9.44800E+004    7.26612E+004    7.75860E+005
             317    1.49345E+007    1.46850E+007    1.46850E+007   -8.41716E+004   -4.09597E+005    1.50946E+007   -4.73041E+006    1.49266E+007   -8.81134E+004    1.46574E+007   -3.78028E+005   -9.57586E+004    3.41584E+004    6.38031E+005
             318    1.55207E+007    1.51722E+007    1.51722E+007   -9.36124E+004   -5.91253E+005    1.57635E+007   -4.82913E+006    1.55027E+007   -9.61774E+004    1.51606E+007   -5.77049E+005   -8.81527E+004    3.65874E+004    4.18891E+005
             319    1.58377E+007    1.54245E+007    1.54245E+007   -1.21207E+005   -6.89898E+005    1.61144E+007   -4.87113E+006    1.58147E+007   -1.20760E+005    1.54228E+007   -6.88659E+005   -8.38129E+004    9.74265E+002    1.41000E+005
             320    1.13010E+007    1.12926E+007    1.12926E+007    2.64294E+005   -2.62495E+005    1.15551E+007   -3.76482E+006    1.12733E+007   -1.46217E+005    1.11421E+007    2.98584E+005    1.84695E+005   -1.96968E+005    1.27679E+006
             321    1.21390E+007    1.23265E+007    1.23265E+007    3.18939E+005    6.02081E+004    1.22663E+007   -4.23522E+006    1.21328E+007    1.08253E+005    1.22025E+007    3.94897E+005   -5.36644E+004    9.55372E+004    1.21559E+006
             322    1.31551E+007    1.32584E+007    1.32584E+007    1.83076E+005    2.51351E+004    1.32333E+007   -4.48889E+006    1.31529E+007    1.47812E+005    1.31470E+007    1.71817E+005   -1.45792E+005    5.36677E+004    1.19928E+006
             323    1.41005E+007    1.41590E+007    1.41590E+007    2.96747E+005   -1.68189E+005    1.43272E+007   -4.76253E+006    1.40833E+007    2.62853E+005    1.40718E+007   -4.70756E+004   -2.11024E+005    1.09696E+005    1.09412E+006
             324    1.49412E+007    1.49040E+007    1.49040E+007    2.91758E+005   -3.45813E+005    1.52498E+007   -4.94999E+006    1.49106E+007    2.84321E+005    1.48477E+007   -2.82059E+005   -2.58507E+005    7.11405E+004    8.87715E+005
             325    1.55516E+007    1.54681E+007    1.54681E+007    3.45841E+005   -4.80041E+005    1.59481E+007   -5.11128E+006    1.55022E+007    3.45004E+005    1.54414E+007   -4.52526E+005   -2.94027E+005    6.21142E+004    5.78897E+005
             326    1.58791E+007    1.57603E+007    1.57603E+007    3.53662E+005   -5.52444E+005    1.63127E+007   -5.18716E+006    1.58207E+007    3.59699E+005    1.57514E+007   -5.49650E+005   -3.15486E+005    1.56294E+004    1.96872E+005
             327    1.14839E+007    1.10553E+007    1.10553E+007   -3.48948E+004   -7.85487E+005    1.18408E+007   -3.41163E+006    1.14285E+007   -5.72519E+005    1.07951E+007    1.23064E+004    4.19248E+005   -2.73345E+005    1.65440E+006
             328    1.22690E+007    1.21410E+007    1.21410E+007   -1.01549E+004   -2.42617E+005    1.23836E+007   -3.96274E+006    1.22641E+007   -2.31734E+005    1.19244E+007    1.95526E+005    1.14321E+005    6.22266E+004    1.60388E+006
             329    1.33061E+007    1.31278E+007    1.31278E+007   -1.24648E+005   -2.31349E+005    1.33591E+007   -4.25725E+006    1.33051E+007   -2.00355E+005    1.29448E+007    2.73211E+004    2.02677E+004    5.11483E+004    1.54797E+006
             330    1.42745E+007    1.40637E+007    1.40637E+007   -8.25102E+004   -3.35901E+005    1.43996E+007   -4.54842E+006    1.42695E+007   -1.28437E+005    1.39250E+007   -1.51285E+005   -1.39754E+004    9.67076E+004    1.40408E+006
             331    1.51619E+007    1.48578E+007    1.48578E+007   -1.37041E+005   -4.65768E+005    1.53236E+007   -4.75167E+006    1.51539E+007   -1.49446E+005    1.47725E+007   -3.68049E+005   -1.53718E+004    6.16830E+004    1.13968E+006
             332    1.57996E+007    1.54397E+007    1.54397E+007   -1.33008E+005   -5.77401E+005    1.60171E+007   -4.90975E+006    1.57855E+007   -1.39598E+005    1.54052E+007   -5.36353E+005    6.26336E+002    5.38013E+004    7.41960E+005
             333    1.61470E+007    1.57528E+007    1.57528E+007   -1.47369E+005   -6.30254E+005    1.63830E+007   -4.99172E+006    1.61308E+007   -1.47410E+005    1.57488E+007   -6.26261E+005    7.17643E+003    4.74271E+003    2.54299E+005
             334    1.15479E+007    1.06355E+007    1.06355E+007   -2.67630E+005   -1.46412E+006    1.20996E+007   -2.96791E+006    1.14072E+007   -1.01923E+006    1.02240E+007   -3.01061E+005    7.56204E+005   -4.37445E+005    2.01769E+006
             335    1.20828E+007    1.18118E+007    1.18118E+007   -2.04989E+005   -3.36042E+005    1.21478E+007   -3.75692E+006    1.20812E+007   -2.02169E+005    1.14904E+007   -1.75141E+004    2.36307E+005    2.29919E+004    1.93509E+006
             336    1.30215E+007    1.28677E+007    1.28677E+007   -1.52478E+004   -2.88034E+005    1.31558E+007   -4.18815E+006    1.30151E+007   -3.24911E+004    1.25920E+007    4.96878E+003   -2.16514E+003    6.67796E+004    1.88334E+006
             337    1.40448E+007    1.39876E+007    1.39876E+007    2.41575E+005   -3.37925E+005    1.43256E+007   -4.63043E+006    1.40178E+007    1.76209E+005    1.37775E+007   -6.24298E+004   -2.03773E+005    1.62847E+005    1.70819E+006
             338    1.50222E+007    1.49637E+007    1.49637E+007    2.51860E+005   -3.50875E+005    1.53145E+007   -4.95488E+006    1.49950E+007    2.08113E+005    1.48285E+007   -1.72006E+005   -3.47584E+005    1.37006E+005    1.38926E+006
             339    1.57879E+007    1.57434E+007    1.57434E+007    2.86218E+005   -3.55765E+005    1.60991E+007   -5.22461E+006    1.57585E+007    2.66077E+005    1.56778E+007   -2.70068E+005   -4.63174E+005    1.16752E+005    9.13319E+005
             340    1.62028E+007    1.61585E+007    1.61585E+007    2.69138E+005   -3.40541E+005    1.64990E+007   -5.36237E+006    1.61770E+007    2.81196E+005    1.61355E+007   -3.29639E+005   -5.18993E+005    4.42229E+004    3.15843E+005
             341    1.22918E+007    1.00379E+007    1.00379E+007   -9.29779E+005   -3.24783E+006    1.32858E+007   -1.95344E+006    1.17849E+007   -2.63710E+006    9.46300E+006   -9.65585E+005    1.51260E+006   -6.51642E+005    2.15784E+006
             342    1.21294E+007    1.07724E+007    1.07724E+007   -7.06266E+005   -1.91703E+006    1.26894E+007   -2.71636E+006    1.19924E+007   -1.48153E+006    1.02085E+007   -5.77833E+005    1.28528E+006   -2.89518E+005    2.23666E+006
             343    1.26807E+007    1.16498E+007    1.16498E+007   -6.03356E+005   -1.41903E+006    1.30688E+007   -3.20914E+006    1.26214E+007   -1.03079E+006    1.11394E+007   -4.81217E+005    1.11149E+006   -1.93472E+005    2.25487E+006
             344    1.32286E+007    1.25490E+007    1.25490E+007   -4.25395E+005   -9.19922E+005    1.34690E+007   -3.73457E+006    1.32078E+007   -5.32776E+005    1.21244E+007   -3.87883E+005    1.02821E+006   -7.39224E+004    2.11487E+006
             345    1.38536E+007    1.33989E+007    1.33989E+007   -2.20850E+005   -6.77194E+005    1.40761E+007   -4.16696E+006    1.38367E+007   -2.26884E+005    1.30974E+007   -3.69616E+005    9.74910E+005   -4.25707E+004    1.78949E+006
             346    1.43112E+007    1.40672E+007    1.40672E+007    1.48400E+004   -4.89511E+005    1.45567E+007   -4.53084E+006    1.42912E+007    6.29623E+004    1.39013E+007   -3.71710E+005    9.53592E+005   -9.42362E+003    1.20820E+006
             347    1.45646E+007    1.44204E+007    1.44204E+007    1.33315E+005   -4.06661E+005    1.48271E+007   -4.71570E+006    1.45421E+007    1.94654E+005    1.43432E+007   -3.90773E+005    9.60433E+005   -1.48079E+004    4.29286E+005
             348    1.87423E+007    1.29598E+007    1.29598E+007   -1.56188E+006   -8.19759E+006    2.11574E+007   -1.06678E+006    1.57540E+007   -7.51892E+006    1.22663E+007   -1.54708E+006    3.72511E+006    2.47065E+004    4.75358E+005
             349    1.79589E+007    1.25034E+007    1.25034E+007   -1.62779E+006   -7.70580E+006    2.02092E+007   -1.05660E+006    1.53755E+007   -7.06357E+006    1.17481E+007   -1.51474E+006    3.51596E+006    3.34009E+004    1.30973E+006
             350    1.67138E+007    1.17737E+007    1.17737E+007   -1.67207E+006   -6.93903E+006    1.87128E+007   -1.05421E+006    1.46645E+007   -6.35552E+006    1.09581E+007   -1.43997E+006    3.17284E+006   -5.04664E+003    1.85558E+006
             351    1.54169E+007    1.10297E+007    1.10297E+007   -1.65574E+006   -6.12932E+006    1.71590E+007   -1.08153E+006    1.38397E+007   -5.61054E+006    1.02038E+007   -1.34868E+006    2.77877E+006   -9.25760E+004    2.13172E+006
             352    1.42255E+007    1.03222E+007    1.03222E+007   -1.56115E+006   -5.44050E+006    1.57627E+007   -1.10685E+006    1.29529E+007   -4.98402E+006    9.55052E+006   -1.24595E+006    2.38924E+006   -1.94702E+005    2.17788E+006
             353    1.34089E+007    9.74381E+006    9.74381E+006   -1.48585E+006   -5.10241E+006    1.48462E+007   -1.05185E+006    1.22374E+007   -4.67682E+006    9.06821E+006   -1.23584E+006    2.06488E+006   -3.61023E+005    2.09330E+006
             354    1.27935E+007    9.22525E+006    9.22525E+006   -1.29206E+006   -5.01746E+006    1.42427E+007   -9.71911E+005    1.14746E+007   -4.65259E+006    8.69586E+006   -1.12754E+006    1.80007E+006   -4.48052E+005    1.80717E+006
             355    1.36370E+007    1.04191E+007    1.04191E+007   -1.36864E+006   -4.51663E+006    1.49357E+007   -1.51127E+006    1.27806E+007   -4.03998E+006    9.87793E+006   -1.30412E+006   -1.90056E+006    5.63304E+005    1.92044E+006
             356    1.23755E+007    1.02887E+007    1.02887E+007   -5.91838E+005   -3.17422E+006    1.34629E+007   -2.17422E+006    1.17461E+007   -2.85277E+006    9.76932E+006   -3.93900E+005   -1.41314E+006    4.20634E+005    2.02519E+006
             357    1.14194E+007    1.00063E+007    1.00063E+007   -1.77364E+005   -2.33958E+006    1.23459E+007   -2.49646E+006    1.09445E+007   -2.11405E+006    9.68605E+006   -8.26268E+004   -8.77719E+005    4.53193E+005    1.64077E+006
             358    1.09810E+007    1.00640E+007    1.00640E+007    2.69217E+005   -1.80680E+006    1.18708E+007   -2.84213E+006    1.05258E+007   -1.62385E+006    9.89375E+006    2.56500E+005   -5.86791E+005    4.85734E+005    1.19817E+006
             359    1.14008E+007    1.14746E+007    1.14746E+007    2.76686E+005   -1.18752E+005    1.15933E+007   -3.87750E+006    1.13853E+007   -3.05560E+004    1.13347E+007    3.28373E+005   -1.21360E+005    1.51462E+005    1.24442E+006
             360    1.23468E+007    1.25836E+007    1.25836E+007    3.78929E+005    9.93299E+004    1.24842E+007   -4.35394E+006    1.23397E+007    1.58488E+005    1.24863E+007    4.17082E+005    9.89892E+004   -1.05371E+005    1.08447E+006
             361    1.33008E+007    1.34282E+007    1.34282E+007    1.93249E+005    6.25026E+004    1.33657E+007   -4.56131E+006    1.32993E+007    1.73455E+005    1.33542E+007    1.56256E+005    1.76357E+005   -3.61372E+004    9.75383E+005
             362    1.41551E+007    1.42246E+007    1.42246E+007    2.86103E+005   -1.37586E+005    1.43622E+007   -4.79104E+006    1.41408E+007    2.65750E+005    1.41720E+007   -6.46523E+004    2.31183E+005   -8.46058E+004    8.36028E+005
             363    1.48978E+007    1.48535E+007    1.48535E+007    2.63583E+005   -3.34167E+005    1.51877E+007   -4.92764E+006    1.48708E+007    2.63372E+005    1.48217E+007   -3.02155E+005    2.63887E+005   -4.28474E+004    6.40804E+005
             364    1.54334E+007    1.53215E+007    1.53215E+007    3.02334E+005   -4.95334E+005    1.58168E+007   -5.04282E+006    1.53869E+007    3.04888E+005    1.53050E+007   -4.81473E+005    2.90523E+005   -4.14116E+004    4.13824E+005
             365    1.57142E+007    1.55566E+007    1.55566E+007    2.98920E+005   -5.77522E+005    1.61341E+007   -5.09267E+006    1.56591E+007    3.04968E+005    1.55494E+007   -5.76394E+005    3.04766E+005   -3.46966E+003    1.32415E+005
             366    1.16959E+007    1.14248E+007    1.14248E+007    3.59829E+004   -5.55856E+005    1.19806E+007   -3.63497E+006    1.16622E+007   -3.93064E+005    1.11700E+007    1.28008E+005   -3.56523E+005    2.09954E+005    1.66652E+006
             367    1.24986E+007    1.24463E+007    1.24463E+007    7.70543E+004   -1.77792E+005    1.26241E+007   -4.11519E+006    1.24928E+007   -1.55885E+005    1.22709E+007    2.30578E+005   -4.66290E+004   -7.71665E+004    1.46287E+006
             368    1.34624E+007    1.33508E+007    1.33508E+007   -5.21403E+004   -1.70389E+005    1.35212E+007   -4.37608E+006    1.34613E+007   -1.38169E+005    1.32085E+007    5.78868E+004    2.98187E+004   -4.98220E+004    1.37487E+006
             369    1.43509E+007    1.41866E+007    1.41866E+007   -2.30945E+004   -3.01364E+005    1.44880E+007   -4.62071E+006    1.43448E+007   -6.59311E+004    1.40864E+007   -1.58282E+005    3.36722E+004   -9.80043E+004    1.19889E+006
             370    1.51252E+007    1.48449E+007    1.48449E+007   -7.65410E+004   -4.76218E+005    1.53211E+007   -4.76404E+006    1.51133E+007   -8.56940E+004    1.47855E+007   -4.07720E+005    1.13962E+004   -5.92049E+004    9.51377E+005
             371    1.56628E+007    1.53220E+007    1.53220E+007   -5.71437E+004   -6.09832E+005    1.59318E+007   -4.88499E+006    1.56408E+007   -6.16560E+004    1.52993E+007   -5.82708E+005   -2.03697E+004   -5.07135E+004    5.99266E+005
             372    1.59474E+007    1.55592E+007    1.55592E+007   -6.54905E+004   -6.92480E+005    1.62517E+007   -4.93375E+006    1.59197E+007   -6.56154E+004    1.55563E+007   -6.89438E+005   -4.19376E+004   -1.27765E+004    2.13411E+005
             373    1.16862E+007    1.10463E+007    1.10463E+007   -1.58779E+005   -1.06801E+006    1.21143E+007   -3.27316E+006    1.16062E+007   -6.49038E+005    1.06990E+007   -2.30472E+005   -6.08702E+005    3.54438E+005    1.90407E+006
             374    1.21817E+007    1.21085E+007    1.21085E+007    7.26806E+003   -1.52083E+005    1.22605E+007   -3.98788E+006    1.21793E+007   -2.79652E+004    1.18283E+007    1.63338E+005   -3.98862E+004   -7.31493E+004    1.82875E+006
             375    1.32890E+007    1.32377E+007    1.32377E+007    1.28792E+005   -2.24318E+005    1.34620E+007   -4.38071E+006    1.32784E+007    8.67172E+004    1.30006E+007    5.48301E+004    1.78142E+005   -9.40203E+004    1.76006E+006
             376    1.43557E+007    1.43118E+007    1.43118E+007    2.53050E+005   -3.23339E+005    1.46352E+007   -4.74719E+006    1.43296E+007    1.87014E+005    1.41333E+007   -7.87698E+004    3.58817E+005   -1.55199E+005    1.56526E+006
             377    1.53550E+007    1.52497E+007    1.52497E+007    1.90916E+005   -3.85171E+005    1.56349E+007   -5.01849E+006    1.53306E+007    1.56335E+005    1.51366E+007   -2.37500E+005    4.62792E+005   -1.22798E+005    1.24134E+006
             378    1.61052E+007    1.59516E+007    1.59516E+007    1.51003E+005   -4.41836E+005    1.63934E+007   -5.22026E+006    1.60806E+007    1.46101E+005    1.58931E+007   -3.78445E+005    5.46626E+005   -8.87369E+004    8.07052E+005
             379    1.65081E+007    1.63217E+007    1.63217E+007    9.48135E+004   -4.53908E+005    1.67756E+007   -5.32086E+006    1.64875E+007    1.14387E+005    1.62959E+007   -4.47719E+005    5.90732E+005   -2.30465E+004    2.67224E+005
             380    1.19466E+007    1.01797E+007    1.01797E+007   -5.79620E+005   -2.67657E+006    1.28562E+007   -2.30783E+006    1.15216E+007   -2.05758E+006    9.50539E+006   -5.24333E+005   -1.49250E+006    5.70192E+005    2.36212E+006
             381    1.22533E+007    1.10847E+007    1.10847E+007   -6.57532E+005   -1.62248E+006    1.27072E+007   -2.93491E+006    1.21674E+007   -1.08551E+006    1.05408E+007   -6.50561E+005   -1.07391E+006    2.79006E+005    2.31991E+006
             382    1.26976E+007    1.19182E+007    1.19182E+007   -4.50329E+005   -1.08477E+006    1.30029E+007   -3.46102E+006    1.26619E+007   -5.88160E+005    1.14568E+007   -4.85610E+005   -8.58490E+005    1.40699E+005    2.24362E+006
             383    1.33369E+007    1.29520E+007    1.29520E+007   -5.72414E+004   -6.90072E+005    1.36420E+007   -4.06822E+006    1.33031E+007   -5.35762E+004    1.26004E+007   -3.42143E+005   -7.12551E+005    3.47110E+004    2.04031E+006
             384    1.39548E+007    1.38422E+007    1.38422E+007    3.36324E+005   -5.21798E+005    1.43640E+007   -4.55225E+006    1.38952E+007    3.50840E+005    1.36164E+007   -3.10477E+005   -5.80615E+005    2.29867E+004    1.68698E+006
             385    1.44119E+007    1.45387E+007    1.45387E+007    7.05012E+005   -3.89161E+005    1.49278E+007   -4.95150E+006    1.43180E+007    7.19556E+005    1.44392E+007   -3.04281E+005   -4.65900E+005   -5.71819E+002    1.11469E+006
             386    1.46606E+007    1.49025E+007    1.49025E+007    8.88830E+005   -3.28955E+005    1.52315E+007   -5.15413E+006    1.45461E+007    9.00676E+005    1.48799E+007   -3.18134E+005   -4.08839E+005   -7.10595E+002    4.04092E+005
             387    1.82757E+007    1.31119E+007    1.31119E+007   -1.42876E+006   -7.40335E+006    2.05153E+007   -1.42661E+006    1.58440E+007   -6.80044E+006    1.24950E+007   -1.41475E+006   -3.46201E+006   -2.21422E+004    4.63007E+005
             388    1.75883E+007    1.26112E+007    1.26112E+007   -1.49809E+006   -7.09422E+006    1.97055E+007   -1.33965E+006    1.53853E+007   -6.50985E+006    1.19244E+007   -1.39565E+006   -3.31727E+006   -3.67300E+004    1.24221E+006
             389    1.64856E+007    1.18873E+007    1.18873E+007   -1.55589E+006   -6.50628E+006    1.83936E+007   -1.27506E+006    1.46682E+007   -5.96572E+006    1.11395E+007   -1.34855E+006   -3.03835E+006   -6.32101E+003    1.74674E+006
             390    1.52029E+007    1.10354E+007    1.10354E+007   -1.60142E+006   -5.83578E+006    1.68712E+007   -1.19941E+006    1.37797E+007   -5.34742E+006    1.02709E+007   -1.32528E+006   -2.68009E+006    8.84066E+004    2.02199E+006
             391    1.40877E+007    1.02131E+007    1.02131E+007   -1.62121E+006   -5.36983E+006    1.55829E+007   -1.07401E+006    1.28921E+007   -4.93119E+006    9.50276E+006   -1.34954E+006   -2.31342E+006    2.21170E+005    2.06498E+006
             392    1.32181E+007    9.34070E+006    9.34070E+006   -1.69569E+006   -5.30808E+006    1.46488E+007   -7.78975E+005    1.20302E+007   -4.86802E+006    8.72093E+006   -1.51598E+006   -2.04712E+006    4.23045E+005    1.93780E+006
             393    1.34137E+007    9.33740E+006    9.33740E+006   -2.03383E+006   -5.45589E+006    1.47933E+007   -6.15892E+005    1.23732E+007   -4.94337E+006    8.84402E+006   -2.05298E+006   -1.98261E+006    6.42694E+005    1.66349E+006
             394    1.45593E+007    1.44099E+007    1.44099E+007    1.23123E+005   -4.07464E+005    1.48174E+007   -4.70853E+006    1.45376E+007    1.87065E+005    1.43301E+007   -3.91554E+005    9.73362E+005    7.72688E+003   -4.43204E+005
             395    1.61871E+007    1.61438E+007    1.61438E+007    2.70160E+005   -3.39564E+005    1.64833E+007   -5.35812E+006    1.61612E+007    2.83327E+005    1.61206E+007   -3.29569E+005   -5.10072E+005   -3.36185E+004   -3.34755E+005
             396    1.61428E+007    1.57508E+007    1.57508E+007   -1.44978E+005   -6.28214E+005    1.63790E+007   -4.99254E+006    1.61265E+007   -1.45178E+005    1.57462E+007   -6.23427E+005    4.62364E+003   -9.94065E+003   -2.74025E+005
             397    1.58712E+007    1.57517E+007    1.57517E+007    3.51376E+005   -5.51830E+005    1.63036E+007   -5.18376E+006    1.58133E+007    3.57314E+005    1.57425E+007   -5.48552E+005   -3.13435E+005   -1.56719E+004   -2.15252E+005
             398    1.58300E+007    1.54187E+007    1.54187E+007   -1.20060E+005   -6.87272E+005    1.61060E+007   -4.87045E+006    1.58071E+007   -1.19633E+005    1.54168E+007   -6.85771E+005   -8.48578E+004   -3.70995E+003   -1.53598E+005
             399    1.54808E+007    1.53056E+007    1.53056E+007    2.80172E+005   -5.93490E+005    1.58991E+007   -4.99743E+006    1.54251E+007    2.80997E+005    1.53041E+007   -5.92854E+005   -1.13248E+005   -4.32620E+003   -9.82259E+004
             400    1.55490E+007    1.51442E+007    1.51442E+007   -1.14348E+005   -6.79819E+005    1.58240E+007   -4.78335E+006    1.55259E+007   -1.14201E+005    1.51440E+007   -6.79750E+005   -4.75611E+004   -7.30437E+002   -3.27597E+004
             401    1.53736E+007    1.51994E+007    1.51994E+007    2.74636E+005   -5.86882E+005    1.57863E+007   -4.96239E+006    1.53192E+007    2.75021E+005    1.51990E+007   -5.86862E+005    7.62135E+004    1.87845E+003    1.57114E+004
             402    1.56151E+007    1.51965E+007    1.51965E+007   -1.29099E+005   -6.92883E+005    1.58893E+007   -4.79149E+006    1.55922E+007   -1.29124E+005    1.51960E+007   -6.92394E+005   -9.56766E+003   -4.19215E+003    8.53538E+004
             403    1.42920E+007    1.40370E+007    1.40370E+007   -2.27147E+003   -4.95120E+005    1.45321E+007   -4.51319E+006    1.42729E+007    4.55245E+004    1.38655E+007   -3.71398E+005    9.71999E+005    1.26569E+004   -1.22495E+006
             404    1.57505E+007    1.57049E+007    1.57049E+007    2.87505E+005   -3.58859E+005    1.60638E+007   -5.21119E+006    1.57207E+007    2.65208E+005    1.56375E+007   -2.69167E+005   -4.46227E+005   -1.19911E+005   -9.36471E+005
             405    1.57703E+007    1.54151E+007    1.54151E+007   -1.30116E+005   -5.70883E+005    1.59860E+007   -4.90471E+006    1.57564E+007   -1.36390E+005    1.53783E+007   -5.27751E+005   -2.76880E+003   -5.21388E+004   -7.66562E+005
             406    1.55248E+007    1.54415E+007    1.54415E+007    3.42612E+005   -4.76828E+005    1.59183E+007   -5.10242E+006    1.54760E+007    3.40707E+005    1.54135E+007   -4.46978E+005   -2.91679E+005   -6.68125E+004   -5.96668E+005
             407    1.54944E+007    1.51498E+007    1.51498E+007   -9.33671E+004   -5.84229E+005    1.57340E+007   -4.82406E+006    1.54769E+007   -9.58975E+004    1.51376E+007   -5.69571E+005   -8.76366E+004   -3.60297E+004   -4.27669E+005
             408    1.51820E+007    1.50579E+007    1.50579E+007    2.72949E+005   -4.92262E+005    1.55501E+007   -4.94619E+006    1.51385E+007    2.71838E+005    1.50527E+007   -4.85989E+005   -1.07401E+005   -3.61028E+004   -2.61255E+005
             409    1.52556E+007    1.49208E+007    1.49208E+007   -8.98267E+004   -5.68514E+005    1.54893E+007   -4.75414E+006    1.52387E+007   -9.09992E+004    1.49201E+007   -5.66640E+005   -4.19528E+004   -2.45480E+004   -9.51865E+004
             410    1.51099E+007    1.49846E+007    1.49846E+007    2.67376E+005   -4.89518E+005    1.54742E+007   -4.92083E+006    1.50672E+007    2.66792E+005    1.49840E+007   -4.88246E+005    7.32538E+004   -2.64361E+004    7.08450E+004
             411    1.53447E+007    1.49930E+007    1.49930E+007   -1.04344E+005   -5.87633E+005    1.55807E+007   -4.76702E+006    1.53276E+007   -1.06353E+005    1.49895E+007   -5.82141E+005    4.56830E+003   -3.10335E+004    2.32894E+005
             412    1.38296E+007    1.33630E+007    1.33630E+007   -2.29467E+005   -6.91990E+005    1.40550E+007   -4.14719E+006    1.38121E+007   -2.44475E+005    1.30565E+007   -3.70501E+005    9.83218E+005    5.05771E+004   -1.80181E+006
             413    1.49699E+007    1.49080E+007    1.49080E+007    2.49697E+005   -3.55236E+005    1.52632E+007   -4.93414E+006    1.49424E+007    2.01168E+005    1.47691E+007   -1.67819E+005   -3.32659E+005   -1.44142E+005   -1.41047E+006
             414    1.51022E+007    1.48051E+007    1.48051E+007   -1.32228E+005   -4.56706E+005    1.52618E+007   -4.73873E+006    1.50944E+007   -1.44734E+005    1.47171E+007   -3.56140E+005   -1.62242E+004   -6.14292E+004   -1.15540E+006
             415    1.48878E+007    1.48557E+007    1.48557E+007    2.90528E+005   -3.34989E+005    1.51907E+007   -4.93708E+006    1.48582E+007    2.81750E+005    1.47983E+007   -2.68748E+005   -2.57226E+005   -7.46581E+004   -8.95972E+005
             416    1.48930E+007    1.46488E+007    1.46488E+007   -8.53559E+004   -3.98150E+005    1.50469E+007   -4.72175E+006    1.48856E+007   -8.93245E+004    1.46214E+007   -3.66810E+005   -9.32795E+004   -3.35034E+004   -6.34351E+005
             417    1.46319E+007    1.45849E+007    1.45849E+007    2.28964E+005   -3.08151E+005    1.48931E+007   -4.83525E+006    1.46097E+007    2.27573E+005    1.45745E+007   -2.96300E+005   -9.81785E+004   -3.06176E+004   -3.81869E+005
             418    1.47244E+007    1.44961E+007    1.44961E+007   -7.98544E+004   -3.72362E+005    1.48685E+007   -4.68130E+006    1.47179E+007   -8.07481E+004    1.44950E+007   -3.70406E+005   -3.72860E+004   -1.66737E+004   -1.19994E+005
             419    1.46066E+007    1.45587E+007    1.45587E+007    2.26081E+005   -3.07341E+005    1.48660E+007   -4.82581E+006    1.45847E+007    2.25754E+005    1.45573E+007   -3.05656E+005    6.82710E+004   -1.80486E+004    1.24001E+005
             420    1.48478E+007    1.45918E+007    1.45918E+007   -9.86752E+004   -4.08502E+005    1.50003E+007   -4.69489E+006    1.48406E+007   -1.00723E+005    1.45817E+007   -3.96283E+005    2.36445E+004   -2.47144E+004    3.89770E+005
             421    1.32063E+007    1.25177E+007    1.25177E+007   -4.25142E+005   -9.37089E+005    1.34548E+007   -3.71849E+006    1.31839E+007   -5.45401E+005    1.20902E+007   -3.89357E+005    1.02506E+006    8.34769E+004   -2.12292E+006
             422    1.39839E+007    1.39222E+007    1.39222E+007    2.33552E+005   -3.39356E+005    1.42616E+007   -4.60548E+006    1.39575E+007    1.64690E+005    1.37095E+007   -5.77144E+004   -1.95107E+005   -1.66312E+005   -1.71570E+006
             423    1.41961E+007    1.39938E+007    1.39938E+007   -8.03266E+004   -3.21191E+005    1.43150E+007   -4.53077E+006    1.41915E+007   -1.27197E+005    1.38543E+007   -1.34787E+005   -1.41737E+004   -9.44171E+004   -1.40407E+006
             424    1.40351E+007    1.41024E+007    1.41024E+007    2.97537E+005   -1.52131E+005    1.42545E+007   -4.74926E+006    1.40189E+007    2.61696E+005    1.40165E+007   -3.03800E+004   -2.10061E+005   -1.10486E+005   -1.08289E+006
             425    1.40678E+007    1.39837E+007    1.39837E+007    6.22329E+003   -1.72798E+005    1.41565E+007   -4.60570E+006    1.40652E+007   -3.52794E+004    1.39421E+007   -8.97424E+004   -9.05701E+004   -7.11069E+004   -7.59761E+005
             426    1.38756E+007    1.39614E+007    1.39614E+007    2.37836E+005   -6.13844E+004    1.40228E+007   -4.71261E+006    1.38683E+007    2.22816E+005    1.39470E+007   -3.20069E+004   -8.36367E+004   -6.37251E+004   -4.40590E+005
             427    1.39756E+007    1.39136E+007    1.39136E+007   -2.22737E+003   -1.21066E+005    1.40347E+007   -4.59677E+006    1.39745E+007   -2.78950E+004    1.39125E+007   -9.43519E+004   -2.61458E+004   -4.87165E+004   -1.18273E+005
             428    1.39071E+007    1.39902E+007    1.39902E+007    2.34967E+005   -6.40394E+004    1.40542E+007   -4.72037E+006    1.38999E+007    2.24680E+005    1.39872E+007   -5.08261E+004    6.45601E+004   -5.43710E+004    1.92167E+005
             429    1.41213E+007    1.40277E+007    1.40277E+007   -1.37324E+004   -1.72144E+005    1.41999E+007   -4.61395E+006    1.41193E+007   -4.34640E+004    1.40090E+007   -1.23644E+005    4.49838E+004   -6.03658E+004    5.13568E+005
             430    1.26530E+007    1.16218E+007    1.16218E+007   -6.00008E+005   -1.42230E+006    1.30441E+007   -3.19983E+006    1.25927E+007   -1.03109E+006    1.11117E+007   -4.81144E+005    1.09976E+006    1.99002E+005   -2.25675E+006
             431    1.29628E+007    1.28116E+007    1.28116E+007   -1.79222E+004   -2.80572E+005    1.30922E+007   -4.17103E+006    1.29568E+007   -3.77152E+004    1.25365E+007    1.43120E+004   -2.79547E+003   -6.96697E+004   -1.87626E+006
             432    1.32344E+007    1.30677E+007    1.30677E+007   -1.09588E+005   -2.23038E+005    1.32908E+007   -4.24503E+006    1.32333E+007   -1.98190E+005    1.28882E+007    4.50972E+004    1.99530E+004   -4.95518E+004   -1.52884E+006
             433    1.31007E+007    1.32154E+007    1.32154E+007    1.88894E+005    4.18572E+004    1.31736E+007   -4.48207E+006    1.30988E+007    1.50245E+005    1.31079E+007    1.88068E+005   -1.47127E+005   -5.25255E+004   -1.17517E+006
             434    1.31648E+007    1.31916E+007    1.31916E+007    1.19213E+005   -6.35839E+004    1.32552E+007   -4.41575E+006    1.31619E+007   -5.84438E+004    1.31409E+007    1.64812E+005   -7.94624E+004   -2.40001E+004   -8.09315E+005
             435    1.30284E+007    1.32048E+007    1.32048E+007    2.09052E+005    1.43906E+005    1.30609E+007   -4.51925E+006    1.30281E+007    1.50949E+005    1.31885E+007    2.18259E+005   -6.50918E+004   -1.75543E+004   -4.54863E+005
             436    1.31237E+007    1.31948E+007    1.31948E+007    1.77974E+005   -3.33820E+004    1.32281E+007   -4.44645E+006    1.31199E+007   -3.29716E+004    1.31941E+007    1.78232E+005   -2.06847E+004   -8.78898E+003   -9.10502E+004
             437    1.30891E+007    1.32624E+007    1.32624E+007    1.95274E+005    1.51482E+005    1.31110E+007   -4.53640E+006    1.30890E+007    1.55668E+005    1.32568E+007    1.96717E+005    5.39127E+004   -1.14743E+004    2.65864E+005
             438    1.32985E+007    1.33219E+007    1.33219E+007    1.03989E+005   -5.57098E+004    1.33776E+007   -4.45672E+006    1.32963E+007   -5.38861E+004    1.32920E+007    1.32055E+005    4.87649E+004   -1.38571E+004    6.26063E+005
             439    1.21022E+007    1.07484E+007    1.07484E+007   -6.98937E+005   -1.91661E+006    1.26650E+007   -2.71095E+006    1.19632E+007   -1.47840E+006    1.01863E+007   -5.75064E+005    1.27317E+006    2.96400E+005   -2.23550E+006
             440    1.20411E+007    1.17811E+007    1.17811E+007   -1.99214E+005   -3.19769E+005    1.21009E+007   -3.75405E+006    1.20397E+007   -1.97113E+005    1.14644E+007   -5.11199E+003    2.25307E+005   -2.05215E+004   -1.91884E+006
             441    1.22269E+007    1.21096E+007    1.21096E+007    8.69621E+003   -2.39511E+005    1.23492E+007   -3.95961E+006    1.22213E+007   -2.29553E+005    1.18988E+007    2.09616E+005    1.12692E+005   -6.12538E+004   -1.57967E+006
             442    1.21142E+007    1.23139E+007    1.23139E+007    3.35362E+005    6.83614E+004    1.22455E+007   -4.23920E+006    1.21076E+007    1.16388E+005    1.21949E+007    4.06340E+005   -5.69172E+004   -9.72241E+004   -1.18949E+006
             443    1.21910E+007    1.23689E+007    1.23689E+007    4.08015E+005   -3.98681E+004    1.24087E+007   -4.24568E+006    1.21724E+007   -2.12795E+004    1.23129E+007    4.45360E+005   -3.94277E+004   -8.66338E+004   -8.15995E+005
             444    1.20861E+007    1.24007E+007    1.24007E+007    5.13484E+005    1.25036E+005    1.22757E+007   -4.34640E+006    1.20721E+007    1.44033E+005    1.23847E+007    5.10503E+005   -3.79644E+004   -8.22347E+004   -4.35036E+005
             445    1.21865E+007    1.24196E+007    1.24196E+007    4.87587E+005   -6.30470E+003    1.24259E+007   -4.30030E+006    1.21639E+007    4.42925E+003    1.24193E+007    4.77163E+005   -6.16753E+003   -7.19759E+004   -6.06509E+004
             446    1.21399E+007    1.24610E+007    1.24610E+007    5.19325E+005    1.32157E+005    1.23288E+007   -4.37083E+006    1.21260E+007    1.50740E+005    1.24527E+007    5.09036E+005    4.34790E+004   -8.13597E+004    3.12197E+005
             447    1.23157E+007    1.24932E+007    1.24932E+007    4.04317E+005   -3.75007E+004    1.25307E+007   -4.28666E+006    1.22978E+007   -1.93447E+004    1.24511E+007    4.28231E+005    4.02402E+004   -8.52544E+004    7.11597E+005
             448    1.22584E+007    1.00132E+007    1.00132E+007   -9.18199E+005   -3.24017E+006    1.32533E+007   -1.95160E+006    1.17483E+007   -2.63487E+006    9.43646E+006   -9.46797E+005    1.51407E+006    6.46791E+005   -2.15616E+006
             449    1.15159E+007    1.06205E+007    1.06205E+007   -2.50654E+005   -1.44674E+006    1.20672E+007   -2.97437E+006    1.13749E+007   -1.00496E+006    1.02159E+007   -2.87787E+005    7.41426E+005    4.40147E+005   -2.00093E+006
             450    1.14690E+007    1.10522E+007    1.10522E+007   -2.32585E+004   -7.73572E+005    1.18258E+007   -3.41846E+006    1.14136E+007   -5.63006E+005    1.07975E+007    2.08459E+004    4.12931E+005    2.73651E+005   -1.63634E+006
             451    1.12942E+007    1.12956E+007    1.12956E+007    2.70170E+005   -2.49516E+005    1.15451E+007   -3.77208E+006    1.12673E+007   -1.33675E+005    1.11482E+007    3.01700E+005    1.77479E+005    1.95926E+005   -1.26376E+006
             452    1.12519E+007    1.13810E+007    1.13810E+007    3.96534E+005   -1.20522E+005    1.15015E+007   -3.88565E+006    1.12251E+007   -7.44202E+004    1.13168E+007    4.14547E+005    7.69360E+004    1.41363E+005   -8.36012E+005
             453    1.12030E+007    1.14705E+007    1.14705E+007    5.02621E+005    4.63081E+004    1.14242E+007   -4.00648E+006    1.11821E+007    7.88396E+004    1.14543E+007    4.86298E+005    2.22200E+004    1.16602E+005   -4.21579E+005
             454    1.12559E+007    1.15106E+007    1.15106E+007    5.17420E+005    9.14136E+003    1.15014E+007   -4.01238E+006    1.12300E+007    2.99965E+004    1.15106E+007    4.96586E+005   -3.78675E+003    1.00825E+005   -1.48262E+004
             455    1.12322E+007    1.15179E+007    1.15179E+007    5.06034E+005    7.74705E+004    1.14404E+007   -4.03379E+006    1.12138E+007    1.05010E+005    1.15051E+007    4.91253E+005   -1.16379E+004    1.04745E+005    3.74990E+005
             456    1.13032E+007    1.14825E+007    1.14825E+007    4.31195E+005   -5.68184E+004    1.15393E+007   -3.95228E+006    1.12794E+007   -2.29729E+004    1.14242E+007    4.55608E+005   -6.88326E+004    1.18785E+005    7.99338E+005
             457    1.08332E+007    1.01921E+007    1.01921E+007    4.33622E+005   -1.46482E+006    1.16569E+007   -3.05363E+006    1.04490E+007   -1.32045E+006    1.01262E+007    3.55092E+005   -3.67237E+005    4.61440E+005    7.43695E+005
             458    1.07671E+007    1.02958E+007    1.02958E+007    5.04188E+005   -1.23515E+006    1.15309E+007   -3.18827E+006    1.04440E+007   -1.11135E+006    1.02805E+007    3.95659E+005   -1.93649E+005    4.36004E+005    3.51549E+005
             459    1.07670E+007    1.03365E+007    1.03365E+007    4.81820E+005   -1.15521E+006    1.14917E+007   -3.22105E+006    1.04815E+007   -1.04326E+006    1.03365E+007    3.69878E+005    1.62896E+003    4.13192E+005   -6.99240E+003
             460    1.07718E+007    1.02881E+007    1.02881E+007    4.97250E+005   -1.25085E+006    1.15389E+007   -3.17815E+006    1.04455E+007   -1.12584E+006    1.02730E+007    3.87353E+005    1.95526E+005    4.39138E+005   -3.48459E+005
             461    1.08373E+007    1.01662E+007    1.01662E+007    4.21869E+005   -1.50548E+006    1.16717E+007   -3.02753E+006    1.04412E+007   -1.35483E+006    1.00970E+007    3.40389E+005    3.86135E+005    4.72287E+005   -7.58404E+005
             462    1.10104E+007    1.00139E+007    1.00139E+007    2.03960E+005   -1.89487E+006    1.19088E+007   -2.77433E+006    1.05462E+007   -1.70162E+006    9.85075E+006    1.73850E+005    6.03221E+005    5.03176E+005   -1.16471E+006
             463    1.14684E+007    9.97335E+006    9.97335E+006   -1.69605E+005   -2.47141E+006    1.24448E+007   -2.44411E+006    1.09304E+007   -2.22445E+006    9.66918E+006   -1.12393E+005    9.23608E+005    4.97415E+005   -1.57314E+006
             464    1.21722E+007    9.84235E+006    9.84235E+006   -7.60916E+005   -3.44926E+006    1.32916E+007   -1.87739E+006    1.14753E+007   -3.07119E+006    9.42890E+006   -7.25540E+005    1.35012E+006    5.82591E+005   -1.75515E+006
             465    1.24654E+007    9.26196E+006    9.26196E+006   -1.24390E+006   -4.51189E+006    1.37739E+007   -1.16872E+006    1.14406E+007   -4.14378E+006    8.83133E+006   -1.18138E+006    1.62671E+006    5.31420E+005   -1.62361E+006
             466    1.87455E+007    1.29699E+007    1.29699E+007   -1.56320E+006   -8.18847E+006    2.11584E+007   -1.07276E+006    1.57687E+007   -7.51064E+006    1.22773E+007   -1.54839E+006    3.72288E+006   -2.27240E+004   -4.76582E+005
             467    1.79748E+007    1.24964E+007    1.24964E+007   -1.62925E+006   -7.73623E+006    2.02326E+007   -1.04364E+006    1.53664E+007   -7.09165E+006    1.17378E+007   -1.51527E+006    3.52425E+006   -3.38597E+004   -1.31457E+006
             468    1.67186E+007    1.17687E+007    1.17687E+007   -1.66966E+006   -6.95339E+006    1.87221E+007   -1.04854E+006    1.46556E+007   -6.36859E+006    1.09493E+007   -1.43513E+006    3.17741E+006    2.70714E+003   -1.86284E+006
             469    1.53900E+007    1.10158E+007    1.10158E+007   -1.64613E+006   -6.11371E+006    1.71295E+007   -1.08532E+006    1.38141E+007   -5.59593E+006    1.01894E+007   -1.33750E+006    2.77242E+006    9.32582E+004   -2.13517E+006
             470    1.41748E+007    1.02937E+007    1.02937E+007   -1.55373E+006   -5.41025E+006    1.57040E+007   -1.10991E+006    1.29131E+007   -4.95688E+006    9.52557E+006   -1.23895E+006    2.37100E+006    1.99083E+005   -2.17728E+006
             471    1.33619E+007    9.70351E+006    9.70351E+006   -1.48525E+006   -5.09140E+006    1.47949E+007   -1.04229E+006    1.21930E+007   -4.66746E+006    9.03430E+006   -1.23998E+006    2.04589E+006    3.70419E+005   -2.08559E+006
             472    1.27785E+007    9.20134E+006    9.20134E+006   -1.28500E+006   -5.03174E+006    1.42331E+007   -9.61532E+005    1.14413E+007   -4.66527E+006    8.67227E+006   -1.12240E+006    1.79627E+006    4.56660E+005   -1.80711E+006
             473    1.55697E+007    1.35918E+007    1.35918E+007   -1.54339E+006   -2.37878E+006    1.59706E+007   -3.22321E+006    1.55192E+007   -1.95110E+006    1.31629E+007   -1.54215E+006   -2.55824E+006   -1.66415E+004   -3.47531E+005
             474    1.42839E+007    1.38827E+007    1.38827E+007    4.57700E+005   -1.12776E+006    1.50105E+007   -4.40423E+006    1.40839E+007    4.67515E+005    1.38671E+007   -1.12196E+006   -3.63223E+005    1.84944E+003   -2.94510E+005
             475    1.51499E+007    1.45261E+007    1.45261E+007   -1.12544E+005   -1.08800E+006    1.56141E+007   -4.44185E+006    1.50790E+007   -1.12520E+005    1.45228E+007   -1.08473E+006   -5.01071E+004    1.27578E+004   -2.20511E+005
             476    1.46156E+007    1.41298E+007    1.41298E+007    1.45136E+005   -1.04412E+006    1.51739E+007   -4.41028E+006    1.45062E+007    1.45769E+005    1.41277E+007   -1.04267E+006   -1.00327E+005    1.12017E+004   -1.43481E+005
             477    1.52960E+007    1.32978E+007    1.32978E+007   -1.46631E+006   -2.47987E+006    1.57776E+007   -3.11719E+006    1.52202E+007   -2.02181E+006    1.28318E+007   -1.45839E+006   -2.48630E+006   -7.06147E+004   -9.71477E+005
             478    1.40481E+007    1.35892E+007    1.35892E+007    3.37759E+005   -1.13877E+006    1.47280E+007   -4.26274E+006    1.38719E+007    3.50717E+005    1.35226E+007   -1.08509E+006   -4.44804E+005   -2.56590E+004   -8.71824E+005
             479    1.48235E+007    1.42365E+007    1.42365E+007   -9.81157E+004   -1.03178E+006    1.52683E+007   -4.36886E+006    1.47571E+007   -9.78624E+004    1.42109E+007   -1.00643E+006   -6.48609E+004    8.99183E+003   -6.21167E+005
             480    1.43636E+007    1.39038E+007    1.39038E+007    1.16855E+005   -9.74115E+005    1.48780E+007   -4.34886E+006    1.42699E+007    1.17538E+005    1.38899E+007   -9.60881E+005   -1.02537E+005   -6.08769E+003   -4.42235E+005
             481    1.47787E+007    1.27411E+007    1.27411E+007   -1.38814E+006   -2.61098E+006    1.53521E+007   -2.91401E+006    1.46642E+007   -2.13714E+006    1.22281E+007   -1.34891E+006   -2.34793E+006   -1.12027E+005   -1.43486E+006
             482    1.36002E+007    1.30593E+007    1.30593E+007    1.33468E+005   -1.12738E+006    1.41867E+007   -4.02180E+006    1.34677E+007    1.52084E+005    1.29070E+007   -9.93688E+005   -5.76284E+005   -3.64664E+004   -1.33533E+006
             483    1.42056E+007    1.36816E+007    1.36816E+007   -8.34540E+004   -9.26803E+005    1.46084E+007   -4.22379E+006    1.41491E+007   -8.28768E+004    1.36139E+007   -8.59681E+005   -1.00482E+005    1.88796E+004   -9.86655E+005
             484    1.38643E+007    1.34743E+007    1.34743E+007    8.02400E+004   -8.16689E+005    1.42910E+007   -4.24595E+006    1.37988E+007    8.12047E+004    1.34405E+007   -7.83827E+005   -1.13815E+005    7.91885E+003   -6.84409E+005
             485    1.41719E+007    1.20532E+007    1.20532E+007   -1.29983E+006   -2.81565E+006    1.48688E+007   -2.64590E+006    1.39877E+007   -2.32889E+006    1.15136E+007   -1.24700E+006   -2.18126E+006   -2.01720E+005   -1.69672E+006
             486    1.29830E+007    1.22918E+007    1.22918E+007   -1.56807E+005   -1.16659E+006    1.34584E+007   -3.65615E+006    1.28942E+007   -1.62676E+005    1.20354E+007   -9.04279E+005   -7.40846E+005   -1.21075E+005   -1.68121E+006
             487    1.33972E+007    1.29342E+007    1.29342E+007   -1.04205E+005   -7.95077E+005    1.37292E+007   -4.01163E+006    1.33570E+007   -1.07036E+005    1.28186E+007   -6.76661E+005   -1.73039E+005   -4.30450E+004   -1.24232E+006
             488    1.31972E+007    1.28542E+007    1.28542E+007    1.39368E+004   -6.73224E+005    1.35274E+007   -4.06495E+006    1.31569E+007    1.05835E+004    1.27916E+007   -6.07355E+005   -1.44618E+005   -4.82348E+004   -9.05874E+005
             489    1.34273E+007    1.12151E+007    1.12151E+007   -1.19572E+006   -3.03837E+006    1.42534E+007   -2.32699E+006    1.31383E+007   -2.57230E+006    1.06813E+007   -1.12803E+006   -2.00175E+006   -2.82204E+005   -1.77291E+006
             490    1.23370E+007    1.15068E+007    1.15068E+007   -4.20765E+005   -1.20242E+006    1.27093E+007   -3.29455E+006    1.22811E+007   -5.43000E+005    1.11684E+007   -7.41753E+005   -9.39486E+005   -1.99407E+005   -1.81757E+006
             491    1.24763E+007    1.20483E+007    1.20483E+007   -1.87997E+005   -6.54978E+005    1.27032E+007   -3.73510E+006    1.24566E+007   -2.10417E+005    1.18833E+007   -4.67558E+005   -2.99626E+005   -8.01556E+004   -1.40672E+006
             492    1.23877E+007    1.21066E+007    1.21066E+007   -8.16718E+004   -4.71198E+005    1.25778E+007   -3.85125E+006    1.23739E+007   -9.97853E+004    1.20173E+007   -3.63704E+005   -2.08249E+005   -7.18577E+004   -1.03576E+006
             493    1.30637E+007    1.06940E+007    1.06940E+007   -1.00441E+006   -3.40267E+006    1.40966E+007   -2.09563E+006    1.25540E+007   -2.94162E+006    1.01996E+007   -9.71071E+005   -1.91266E+006   -4.17124E+005   -1.68165E+006
             494    1.17579E+007    1.06503E+007    1.06503E+007   -4.57858E+005   -1.66435E+006    1.23146E+007   -2.84269E+006    1.16174E+007   -1.10347E+006    1.02502E+007   -6.18659E+005   -1.20750E+006   -3.99286E+005   -1.80365E+006
             495    1.17003E+007    1.11577E+007    1.11577E+007   -1.65733E+005   -8.86125E+005    1.20438E+007   -3.36861E+006    1.16502E+007   -4.20302E+005    1.09530E+007   -4.26856E+005   -5.30042E+005   -2.86290E+005   -1.45844E+006
             496    1.15902E+007    1.12738E+007    1.12738E+007   -3.28744E+004   -5.80583E+005    1.18544E+007   -3.55345E+006    1.15611E+007   -2.16518E+005    1.11501E+007   -2.73239E+005   -3.41470E+005   -2.28775E+005   -1.15164E+006
             497    1.24498E+007    1.00797E+007    1.00797E+007   -5.08244E+005   -3.63563E+006    1.37153E+007   -1.97861E+006    1.15152E+007   -3.33064E+006    9.71139E+006   -4.44907E+005   -1.73095E+006   -3.31379E+005   -1.27722E+006
             498    1.19125E+007    1.02573E+007    1.02573E+007   -4.63745E+005   -2.56660E+006    1.28239E+007   -2.40897E+006    1.14837E+007   -2.16087E+006    9.91361E+006   -5.25819E+005   -1.45990E+006   -4.98476E+005   -1.41931E+006
             499    1.13134E+007    1.03605E+007    1.03605E+007   -1.21822E+005   -1.63221E+006    1.19927E+007   -2.86882E+006    1.10832E+007   -1.26883E+006    1.01100E+007   -2.34746E+005   -8.92206E+005   -4.93337E+005   -1.42516E+006
             500    1.09562E+007    1.03193E+007    1.03193E+007    8.07512E+004   -1.23551E+006    1.15548E+007   -3.05485E+006    1.07761E+007   -9.15222E+005    1.01689E+007   -8.91015E+004   -5.86549E+005   -4.88552E+005   -1.14107E+006
             501    1.03792E+007    9.46791E+006    9.46791E+006    4.73435E+005   -1.88880E+006    1.13567E+007   -2.68418E+006    9.74646E+006   -1.76163E+006    9.33312E+006    4.81052E+005   -7.31529E+005   -3.68012E+005   -9.08274E+005
             502    1.09417E+007    9.55638E+006    9.55638E+006    8.16248E+004   -2.41922E+006    1.19756E+007   -2.40626E+006    1.02687E+007   -2.26742E+006    9.30701E+006    1.79194E+005   -1.03182E+006   -2.78224E+005   -1.24617E+006
             503    1.20017E+007    1.01184E+007    1.01184E+007   -1.86200E+005   -3.05900E+006    1.31774E+007   -2.29108E+006    1.11882E+007   -2.88414E+006    9.75679E+006    5.89741E+002   -1.37199E+006   -1.24147E+005   -1.49434E+006
             504    1.34704E+007    1.10322E+007    1.10322E+007   -7.07262E+005   -3.67440E+006    1.47066E+007   -2.21685E+006    1.27036E+007   -3.49107E+006    1.07368E+007   -5.95151E+005   -1.54905E+006   -9.03288E+004   -1.24010E+006
             505    2.06684E+007    1.60125E+007    1.60125E+007   -1.04544E+006   -6.97170E+006    2.29842E+007   -2.66511E+006    1.86080E+007   -6.60568E+006    1.56393E+007   -1.03829E+006   -2.87657E+006    6.33559E+004   -3.45409E+005
             506    1.97498E+007    1.52447E+007    1.52447E+007   -1.09180E+006   -6.70380E+006    2.19485E+007   -2.48302E+006    1.78191E+007   -6.34644E+006    1.48309E+007   -1.03535E+006   -2.77256E+006    1.69667E+005   -9.48119E+005
             507    1.83003E+007    1.40912E+007    1.40912E+007   -1.12656E+006   -6.21477E+006    2.03060E+007   -2.24996E+006    1.65935E+007   -5.87716E+006    1.36405E+007   -1.01345E+006   -2.58703E+006    2.20437E+005   -1.29245E+006
             508    1.65826E+007    1.27451E+007    1.27451E+007   -1.16001E+006   -5.60788E+006    1.83530E+007   -1.99240E+006    1.51510E+007   -5.30903E+006    1.22997E+007   -1.01344E+006   -2.31317E+006    1.97256E+005   -1.40664E+006
             509    1.50582E+007    1.15861E+007    1.15861E+007   -1.15393E+006   -5.03179E+006    1.66178E+007   -1.80011E+006    1.38664E+007   -4.78536E+006    1.11935E+007   -1.00779E+006   -1.99825E+006    1.30435E+005   -1.35236E+006
             510    1.37800E+007    1.05350E+007    1.05350E+007   -1.16277E+006   -4.65516E+006    1.51902E+007   -1.57237E+006    1.27259E+007   -4.47151E+006    1.02528E+007   -1.06423E+006   -1.64654E+006    3.99624E+004   -1.08079E+006
             511    1.35922E+007    1.05262E+007    1.05262E+007   -1.31009E+006   -4.31807E+006    1.48443E+007   -1.63267E+006    1.28109E+007   -4.15658E+006    1.03141E+007   -1.25954E+006   -1.49783E+006   -7.04217E+004   -8.42737E+005
             512    1.01431E+007    9.51807E+006    9.51807E+006    6.37564E+005   -1.53540E+006    1.10535E+007   -2.87341E+006    9.59820E+006   -1.42174E+006    9.46291E+006    5.79063E+005   -4.80579E+005   -4.14657E+005   -5.69405E+005
             513    1.00500E+007    9.58968E+006    9.58968E+006    7.06250E+005   -1.31857E+006    1.09082E+007   -2.99245E+006    9.57481E+006   -1.21743E+006    9.57677E+006    6.18024E+005   -2.46457E+005   -4.23464E+005   -2.65042E+005
             514    1.00409E+007    9.61723E+006    9.61723E+006    6.80317E+005   -1.24803E+006    1.08653E+007   -3.01651E+006    9.61099E+006   -1.14829E+006    9.61723E+006    5.80579E+005   -3.95844E+003   -4.27062E+005   -1.32696E+003
             515    1.00464E+007    9.57902E+006    9.57902E+006    6.98584E+005   -1.32514E+006    1.09042E+007   -2.98415E+006    9.57151E+006   -1.22452E+006    9.56668E+006    6.10307E+005    2.42198E+005   -4.22911E+005    2.58324E+005
             516    1.01470E+007    9.50709E+006    9.50709E+006    6.37898E+005   -1.55813E+006    1.10652E+007   -2.86229E+006    9.59025E+006   -1.44446E+006    9.45090E+006    5.80416E+005    4.88836E+005   -4.14993E+005    5.71943E+005
             517    1.04165E+007    9.45529E+006    9.45529E+006    4.35805E+005   -1.94569E+006    1.14010E+007   -2.64847E+006    9.77537E+006   -1.81884E+006    9.32395E+006    4.40298E+005    7.44092E+005   -3.65900E+005    8.84571E+005
             518    1.10058E+007    9.59034E+006    9.59034E+006    1.09788E+005   -2.47916E+006    1.20695E+007   -2.40699E+006    1.02867E+007   -2.32560E+006    9.35685E+006    1.89718E+005    1.04209E+006   -2.93005E+005    1.18200E+006
             519    1.18544E+007    9.89456E+006    9.89456E+006   -2.97720E+005   -3.11457E+006    1.30091E+007   -2.16076E+006    1.10632E+007   -2.95627E+006    9.64119E+006   -2.02639E+005    1.27489E+006   -1.79554E+005    1.14962E+006
             520    1.22067E+007    9.80916E+006    9.80916E+006   -4.71213E+005   -3.68199E+006    1.34912E+007   -1.88532E+006    1.11960E+007   -3.53923E+006    9.59332E+006   -3.98139E+005    1.33708E+006   -6.86393E+004    9.21193E+005
             521    1.07025E+007    1.03774E+007    1.03774E+007    3.14310E+005   -8.66505E+005    1.12439E+007   -3.27508E+006    1.05545E+007   -5.76849E+005    1.03150E+007    8.71052E+004   -3.21357E+005   -4.81604E+005   -7.52035E+005
             522    1.14525E+007    1.13645E+007    1.13645E+007    1.52845E+005   -3.14595E+005    1.16791E+007   -3.73424E+006    1.14310E+007    2.06766E+004    1.13140E+007   -1.31965E+005   -1.18523E+005   -2.03657E+005   -7.54265E+005
             523    1.23448E+007    1.22416E+007    1.22416E+007    8.49221E+004   -2.83145E+005    1.25248E+007   -4.01446E+006    1.23325E+007    7.30284E+004    1.22078E+007   -2.37485E+005   -2.54835E+004   -6.39558E+004   -6.48739E+005
             524    1.31860E+007    1.29915E+007    1.29915E+007    1.48914E+005   -5.13007E+005    1.35045E+007   -4.20914E+006    1.31486E+007    1.44850E+005    1.29701E+007   -4.87555E+005    2.98160E+004   -5.34355E+004   -5.35913E+005
             525    1.39089E+007    1.36268E+007    1.36268E+007    1.65949E+005   -6.90482E+005    1.43173E+007   -4.36743E+006    1.38494E+007    1.66274E+005    1.36153E+007   -6.79261E+005    6.62906E+004   -5.03696E+002   -4.00617E+005
             526    1.44398E+007    1.40741E+007    1.40741E+007    1.72929E+005   -8.50032E+005    1.49241E+007   -4.46565E+006    1.43579E+007    1.73392E+005    1.40697E+007   -8.46102E+005    8.59189E+004   -9.81995E+003   -2.39987E+005
             527    1.47219E+007    1.43120E+007    1.43120E+007    1.76052E+005   -9.33136E+005    1.52451E+007   -4.51831E+006    1.46275E+007    1.76654E+005    1.43108E+007   -9.32547E+005    9.59620E+004    6.77532E+003   -9.07044E+004
             528    1.06558E+007    1.04037E+007    1.04037E+007    3.55278E+005   -7.70110E+005    1.11738E+007   -3.32963E+006    1.05209E+007   -5.10532E+005    1.03889E+007    1.10542E+005   -1.61823E+005   -4.67441E+005   -3.64458E+005
             529    1.14005E+007    1.13410E+007    1.13410E+007    1.43846E+005   -2.52597E+005    1.15936E+007   -3.74407E+006    1.13850E+007   -2.99033E+004    1.13300E+007   -6.78479E+004   -6.83855E+004   -1.94752E+005   -3.48698E+005
             530    1.22969E+007    1.21707E+007    1.21707E+007   -4.86234E+002   -2.48223E+005    1.24189E+007   -3.97400E+006    1.22913E+007   -2.21956E+004    1.21645E+007   -2.20308E+005   -3.45961E+004   -6.94287E+004   -2.75282E+005
             531    1.31343E+007    1.28915E+007    1.28915E+007    3.13421E+004   -5.00845E+005    1.33923E+007   -4.14065E+006    1.31100E+007    2.58666E+004    1.28883E+007   -4.92240E+005   -2.59525E+004   -5.35531E+004   -2.03043E+005
             532    1.38201E+007    1.34729E+007    1.34729E+007    3.17225E+004   -6.97313E+005    1.41702E+007   -4.26910E+006    1.37767E+007    3.17659E+004    1.34717E+007   -6.96167E+005   -2.68349E+004   -2.46298E+003   -1.26866E+005
             533    1.43336E+007    1.38853E+007    1.38853E+007    3.22687E+004   -8.84769E+005    1.47701E+007   -4.34428E+006    1.42674E+007    3.21378E+004    1.38849E+007   -8.84170E+005   -3.08605E+004   -1.33585E+004   -7.67992E+004
             534    1.45916E+007    1.40966E+007    1.40966E+007    3.37177E+004   -9.71648E+005    1.50682E+007   -4.38622E+006    1.45133E+007    3.37303E+004    1.40965E+007   -9.71549E+005   -3.51921E+004    8.75735E+003   -1.87643E+004
             535    1.05914E+007    1.04244E+007    1.04244E+007    4.20156E+005   -6.69747E+005    1.10942E+007   -3.39161E+006    1.04641E+007   -4.07555E+005    1.04244E+007    1.58010E+005    9.21199E+003   -4.65832E+005    1.99884E+004
             536    1.13319E+007    1.13485E+007    1.13485E+007    2.25377E+005   -1.81233E+005    1.15297E+007   -3.79754E+006    1.13154E+007    7.75836E+004    1.13480E+007   -3.30208E+004    1.76002E+004   -1.95486E+005    6.70028E+004
             537    1.22250E+007    1.21892E+007    1.21892E+007    1.22098E+005   -1.87865E+005    1.23770E+007   -4.04113E+006    1.22161E+007    1.04773E+005    1.21881E+007   -1.69483E+005    1.55298E+004   -7.10983E+004    1.13330E+005
             538    1.30780E+007    1.29325E+007    1.29325E+007    1.77179E+005   -4.45939E+005    1.33784E+007   -4.22125E+006    1.30446E+007    1.72566E+005    1.29310E+007   -4.39854E+005    1.16837E+004   -5.33472E+004    1.39870E+005
             539    1.38020E+007    1.35597E+007    1.35597E+007    1.99778E+005   -6.45660E+005    1.42053E+007   -4.37126E+006    1.37436E+007    1.99775E+005    1.35584E+007   -6.44363E+005    9.52134E+003   -2.75914E+003    1.35223E+005
             540    1.43321E+007    1.40014E+007    1.40014E+007    2.17925E+005   -8.22504E+005    1.48239E+007   -4.46562E+006    1.42467E+007    2.17797E+005    1.40007E+007   -8.21694E+005    6.89731E+003   -1.16501E+004    1.00296E+005
             541    1.46108E+007    1.42374E+007    1.42374E+007    2.29854E+005   -9.09912E+005    1.51473E+007   -4.51911E+006    1.45103E+007    2.29804E+005    1.42373E+007   -9.09795E+005    6.44789E+003    7.77506E+003    3.11651E+004
             542    1.06337E+007    1.03667E+007    1.03667E+007    3.57188E+005   -7.97062E+005    1.11637E+007   -3.30893E+006    1.04914E+007   -5.38862E+005    1.03481E+007    1.17573E+005    1.75443E+005   -4.72930E+005    4.09134E+005
             543    1.13675E+007    1.12804E+007    1.12804E+007    1.30776E+005   -2.93255E+005    1.15736E+007   -3.70596E+006    1.13497E+007   -6.03745E+004    1.12599E+007   -8.16258E+004    8.70763E+004   -2.07581E+005    4.75939E+005
             544    1.22613E+007    1.21137E+007    1.21137E+007   -1.79904E+004   -2.73218E+005    1.23869E+007   -3.94084E+006    1.22553E+007   -4.17948E+004    1.20937E+007   -2.29388E+005    5.05033E+004   -7.25171E+004    4.94843E+005
             545    1.31253E+007    1.28584E+007    1.28584E+007    1.14430E+004   -5.28615E+005    1.33870E+007   -4.11375E+006    1.31003E+007    5.84366E+003    1.28413E+007   -5.05899E+005    2.84049E+004   -5.39879E+004    4.77515E+005
             546    1.38581E+007    1.34835E+007    1.34835E+007    1.36522E+004   -7.32734E+005    1.42162E+007   -4.25479E+006    1.38128E+007    1.36731E+004    1.34720E+007   -7.21285E+005    1.92653E+004   -1.66497E+003    4.03150E+005
             547    1.44017E+007    1.39276E+007    1.39276E+007    1.34735E+004   -9.16536E+005    1.48442E+007   -4.34152E+006    1.43339E+007    1.33481E+004    1.39228E+007   -9.11622E+005    1.65756E+004   -1.13038E+004    2.66036E+005
             548    1.46805E+007    1.41586E+007    1.41586E+007    1.36567E+004   -1.00435E+006    1.51630E+007   -4.38931E+006    1.46007E+007    1.36371E+004    1.41580E+007   -1.00373E+006    1.58177E+004    6.26626E+003    9.40408E+004
             549    1.06723E+007    1.02885E+007    1.02885E+007    2.94063E+005   -9.52296E+005    1.12408E+007   -3.21009E+006    1.05067E+007   -6.60544E+005    1.02171E+007    7.36979E+004    3.68065E+005   -4.94646E+005    7.92193E+005
             550    1.13697E+007    1.12289E+007    1.12289E+007    1.21104E+005   -3.85711E+005    1.16146E+007   -3.65477E+006    1.13443E+007   -4.81383E+004    1.11577E+007   -1.45272E+005    1.90146E+005   -2.25916E+005    8.83029E+005
             551    1.22482E+007    1.20993E+007    1.20993E+007    4.94939E+004   -3.37990E+005    1.24373E+007   -3.93695E+006    1.22344E+007    3.46652E+004    1.20370E+007   -2.60822E+005    9.68483E+004   -6.93455E+004    8.72845E+005
             552    1.31394E+007    1.29026E+007    1.29026E+007    1.29717E+005   -5.74903E+005    1.34775E+007   -4.15247E+006    1.30968E+007    1.26682E+005    1.28530E+007   -5.22219E+005    3.55723E+004   -4.47033E+004    8.15718E+005
             553    1.39048E+007    1.35947E+007    1.35947E+007    1.74910E+005   -7.49080E+005    1.43437E+007   -4.34016E+006    1.38355E+007    1.74690E+005    1.35641E+007   -7.18320E+005   -2.40881E+003    1.41677E+004    6.61152E+005
             554    1.44764E+007    1.40913E+007    1.40913E+007    1.98590E+005   -9.05505E+005    1.49968E+007   -4.46146E+006    1.43812E+007    1.98653E+005    1.40787E+007   -8.92954E+005   -2.97393E+004   -3.59194E+002    4.33665E+005
             555    1.47751E+007    1.43567E+007    1.43567E+007    2.15692E+005   -9.79918E+005    1.53366E+007   -4.53082E+006    1.46657E+007    2.15605E+005    1.43552E+007   -9.78347E+005   -4.16317E+004    1.53840E+004    1.44543E+005
             556    1.09128E+007    1.01987E+007    1.01987E+007    7.81905E+004   -1.36325E+006    1.15619E+007   -2.97120E+006    1.06955E+007   -1.05166E+006    1.00381E+007   -7.28623E+004    6.46775E+005   -5.02608E+005    1.15331E+006
             557    1.14961E+007    1.10629E+007    1.10629E+007   -9.69904E+004   -7.42316E+005    1.18052E+007   -3.40785E+006    1.14553E+007   -3.70491E+005    1.09103E+007   -3.16200E+005    4.29671E+005   -2.75375E+005    1.25613E+006
             558    1.23272E+007    1.19369E+007    1.19369E+007   -1.84751E+005   -5.86133E+005    1.25230E+007   -3.72200E+006    1.23125E+007   -2.17152E+005    1.18031E+007   -4.19994E+005    3.08072E+005   -8.92795E+004    1.24967E+006
             559    1.31994E+007    1.27477E+007    1.27477E+007   -1.00616E+005   -7.76755E+005    1.35244E+007   -3.95677E+006    1.31603E+007   -1.06062E+005    1.26454E+007   -6.69069E+005    2.50814E+005   -6.09598E+004    1.14401E+006
             560    1.39327E+007    1.34352E+007    1.34352E+007   -4.09367E+004   -9.13143E+005    1.43484E+007   -4.16038E+006    1.38711E+007   -3.72702E+004    1.33711E+007   -8.52750E+005    2.27819E+005    2.41050E+003    9.27455E+005
             561    1.44860E+007    1.39312E+007    1.39312E+007   -5.35490E+003   -1.04802E+006    1.49792E+007   -4.29260E+006    1.44012E+007   -2.15573E+003    1.39033E+007   -1.02337E+006    2.20952E+005   -8.42963E+003    6.03473E+005
             562    1.47686E+007    1.41896E+007    1.41896E+007    1.51570E+004   -1.10895E+006    1.52986E+007   -4.36527E+006    1.46719E+007    1.85962E+004    1.41834E+007   -1.10618E+006    2.20812E+005    4.76756E+003    2.05814E+005
             563    1.12368E+007    1.01250E+007    1.01250E+007   -1.47121E+005   -1.87601E+006    1.20010E+007   -2.70063E+006    1.09315E+007   -1.51274E+006    9.87377E+006   -2.59141E+005    9.78391E+005   -5.27050E+005    1.36749E+006
             564    1.16120E+007    1.09058E+007    1.09058E+007   -2.60751E+005   -1.10550E+006    1.20113E+007   -3.17986E+006    1.15426E+007   -6.40828E+005    1.06483E+007   -4.67896E+005    6.89475E+005   -3.30534E+005    1.58777E+006
             565    1.24065E+007    1.18355E+007    1.18355E+007   -3.09080E+005   -8.17212E+005    1.26528E+007   -3.56975E+006    1.23831E+007   -3.54803E+005    1.16204E+007   -5.56386E+005    4.90595E+005   -1.08302E+005    1.56021E+006
             566    1.32715E+007    1.27093E+007    1.27093E+007   -1.98323E+005   -8.98404E+005    1.36077E+007   -3.87086E+006    1.32299E+007   -1.99763E+005    1.25464E+007   -7.34114E+005    3.67542E+005   -5.02769E+004    1.43271E+006
             567    1.40806E+007    1.35095E+007    1.35095E+007   -1.23622E+005   -9.79650E+005    1.44891E+007   -4.13540E+006    1.40219E+007   -1.17546E+005    1.34107E+007   -8.86976E+005    2.86811E+005    2.32348E+004    1.15482E+006
             568    1.47008E+007    1.40989E+007    1.40989E+007   -9.73159E+004   -1.05921E+006    1.51581E+007   -4.31413E+006    1.46298E+007   -9.33426E+004    1.40575E+007   -1.02173E+006    2.37774E+005    1.71272E+004    7.52372E+005
             569    1.50297E+007    1.44115E+007    1.44115E+007   -8.24424E+004   -1.10209E+006    1.55136E+007   -4.40898E+006    1.49516E+007   -7.94174E+004    1.44039E+007   -1.09750E+006    2.25549E+005    2.61974E+004    2.51902E+005
             570    1.17793E+007    9.98061E+006    9.98061E+006   -4.28899E+005   -2.80588E+006    1.27865E+007   -2.24861E+006    1.12205E+007   -2.45338E+006    9.62925E+006   -4.30042E+005    1.43613E+006   -4.75323E+005    1.44331E+006
             571    1.20200E+007    1.05950E+007    1.05950E+007   -6.38275E+005   -2.08139E+006    1.26764E+007   -2.62511E+006    1.18227E+007   -1.53177E+006    1.01788E+007   -7.71685E+005    1.36133E+006   -4.49677E+005    1.77949E+006
             572    1.24210E+007    1.13170E+007    1.13170E+007   -6.80635E+005   -1.48794E+006    1.28050E+007   -3.04948E+006    1.23618E+007   -9.70208E+005    1.09253E+007   -8.06634E+005    1.22200E+006   -2.23807E+005    1.83188E+006
             573    1.30660E+007    1.21003E+007    1.21003E+007   -5.53829E+005   -1.34185E+006    1.34422E+007   -3.40155E+006    1.30124E+007   -6.10871E+005    1.17689E+007   -9.53375E+005    1.13212E+006   -1.62306E+005    1.74930E+006
             574    1.36135E+007    1.28028E+007    1.28028E+007   -3.45582E+005   -1.23247E+006    1.40352E+007   -3.74157E+006    1.35482E+007   -2.95514E+005    1.25669E+007   -1.04671E+006    1.05611E+006   -5.85648E+004    1.44928E+006
             575    1.40643E+007    1.33383E+007    1.33383E+007   -1.70540E+005   -1.22244E+006    1.45607E+007   -3.98177E+006    1.39754E+007   -1.07408E+005    1.31984E+007   -1.14564E+006    1.00479E+006   -4.07505E+004    9.72125E+005
             576    1.42908E+007    1.36175E+007    1.36175E+007   -7.72489E+004   -1.20278E+006    1.48203E+007   -4.11249E+006    1.41906E+007   -3.22972E+003    1.35352E+007   -1.19452E+006    1.00798E+006   -1.42572E+003    3.37597E+005
             577    1.25596E+007    1.01852E+007    1.01852E+007   -6.23621E+005   -3.59311E+006    1.37783E+007   -1.98948E+006    1.17301E+007   -3.35873E+006    9.85690E+006   -5.29753E+005    1.58445E+006   -2.26035E+005    1.26358E+006
             578    1.29576E+007    1.05630E+007    1.05630E+007   -8.79147E+005   -3.50714E+006    1.40701E+007   -2.05889E+006    1.23364E+007   -3.13262E+006    1.01186E+007   -8.09307E+005    1.82046E+006   -3.65899E+005    1.56506E+006
             579    1.36119E+007    1.12751E+007    1.12751E+007   -1.10800E+006   -3.29964E+006    1.45747E+007   -2.28915E+006    1.32062E+007   -2.87266E+006    1.07343E+007   -9.94225E+005    2.07506E+006   -2.44064E+005    1.73857E+006
             580    1.44280E+007    1.20214E+007    1.20214E+007   -1.26237E+006   -3.32819E+006    1.53496E+007   -2.47693E+006    1.40895E+007   -2.84328E+006    1.14412E+007   -1.16713E+006    2.33125E+006   -2.08352E+005    1.71457E+006
             581    1.52778E+007    1.28288E+007    1.28288E+007   -1.39252E+006   -3.32215E+006    1.61509E+007   -2.70470E+006    1.49999E+007   -2.81348E+006    1.22417E+007   -1.31417E+006    2.60348E+006   -1.19408E+005    1.49420E+006
             582    1.60018E+007    1.34762E+007    1.34762E+007   -1.48944E+006   -3.39167E+006    1.68679E+007   -2.86504E+006    1.57444E+007   -2.86289E+006    1.29164E+007   -1.45837E+006    2.83230E+006   -8.38363E+004    1.02880E+006
             583    1.64510E+007    1.38662E+007    1.38662E+007   -1.55491E+006   -3.45047E+006    1.73166E+007   -2.95360E+006    1.62025E+007   -2.91609E+006    1.33268E+007   -1.54994E+006    2.98399E+006   -1.71131E+004    3.71035E+005
             584    2.12097E+007    1.62606E+007    1.62606E+007   -1.01936E+006   -7.40951E+006    2.36701E+007   -2.61056E+006    1.88544E+007   -7.04835E+006    1.58923E+007   -1.01226E+006    2.90021E+006    7.74499E+004    3.47793E+005
             585    2.01670E+007    1.54177E+007    1.54177E+007   -1.07416E+006   -7.06635E+006    2.24840E+007   -2.42573E+006    1.79946E+007   -6.70942E+006    1.50064E+007   -1.01983E+006    2.80194E+006    2.05636E+005    9.37193E+005
             586    1.85071E+007    1.41226E+007    1.41226E+007   -1.11789E+006   -6.47094E+006    2.05936E+007   -2.17793E+006    1.66269E+007   -6.13217E+006    1.36711E+007   -1.00517E+006    2.60702E+006    2.52097E+005    1.29173E+006
             587    1.67094E+007    1.27952E+007    1.27952E+007   -1.09145E+006   -5.74876E+006    1.85440E+007   -1.98501E+006    1.51427E+007   -5.44611E+006    1.23395E+007   -9.38348E+005    2.33730E+006    2.39903E+005    1.43409E+006
             588    1.50638E+007    1.16072E+007    1.16072E+007   -9.92224E+005   -5.07803E+006    1.66852E+007   -1.84565E+006    1.37318E+007   -4.82410E+006    1.11909E+007   -8.29808E+005    2.03237E+006    1.63489E+005    1.41206E+006
             589    1.37888E+007    1.07340E+007    1.07340E+007   -8.05473E+005   -4.53627E+006    1.52703E+007   -1.79742E+006    1.25759E+007   -4.33625E+006    1.03873E+007   -6.58768E+005    1.72612E+006    1.11977E+005    1.29009E+006
             590    1.27759E+007    1.00663E+007    1.00663E+007   -5.31566E+005   -4.12023E+006    1.41865E+007   -1.80482E+006    1.15578E+007   -3.96367E+006    9.80258E+006   -4.24442E+005    1.47410E+006    7.06834E+004    1.06089E+006
             591    1.34540E+007    1.10080E+007    1.10080E+007   -7.14408E+005   -3.68202E+006    1.46900E+007   -2.20386E+006    1.26858E+007   -3.49923E+006    1.07148E+007   -6.03966E+005   -1.54698E+006    8.96997E+004    1.22994E+006
             592    1.20403E+007    1.01487E+007    1.01487E+007   -1.98878E+005   -3.06652E+006    1.32152E+007   -2.29442E+006    1.12327E+007   -2.89047E+006    9.78498E+006   -1.12502E+004   -1.37965E+006    1.22631E+005    1.50010E+006
             593    1.09617E+007    9.57075E+006    9.57075E+006    7.53632E+004   -2.42512E+006    1.19959E+007   -2.40700E+006    1.02902E+007   -2.27300E+006    9.31776E+006    1.76224E+005   -1.03802E+006    2.74742E+005    1.25735E+006
             594    1.03867E+007    9.47631E+006    9.47631E+006    4.70721E+005   -1.88645E+006    1.13628E+007   -2.68686E+006    9.75735E+006   -1.75888E+006    9.33979E+006    4.79676E+005   -7.33660E+005    3.67240E+005    9.16239E+005
             595    1.09675E+007    1.03366E+007    1.03366E+007    7.81894E+004   -1.22379E+006    1.15604E+007   -3.06365E+006    1.07916E+007   -9.02840E+005    1.01854E+007   -9.16386E+004   -5.84147E+005    4.85354E+005    1.14630E+006
             596    1.16189E+007    1.13039E+007    1.13039E+007   -3.38783E+004   -5.77188E+005    1.18810E+007   -3.56426E+006    1.15903E+007   -2.08216E+005    1.11800E+007   -2.79011E+005   -3.38178E+005    2.24376E+005    1.15500E+006
             597    1.24165E+007    1.21356E+007    1.21356E+007   -8.02375E+004   -4.72270E+005    1.26079E+007   -3.86104E+006    1.24026E+007   -9.59220E+004    1.20472E+007   -3.68173E+005   -2.04296E+005    6.73895E+004    1.03205E+006
             598    1.32241E+007    1.28803E+007    1.28803E+007    1.76773E+004   -6.77748E+005    1.35581E+007   -4.07342E+006    1.31828E+007    1.45797E+004    1.28190E+007   -6.13353E+005   -1.42491E+005    4.70176E+004    8.98196E+005
             599    1.38825E+007    1.34894E+007    1.34894E+007    8.13436E+004   -8.23323E+005    1.43127E+007   -4.24913E+006    1.38159E+007    8.23375E+004    1.34560E+007   -7.90974E+005   -1.15316E+005   -6.44079E+003    6.79635E+005
             600    1.43737E+007    1.39126E+007    1.39126E+007    1.16968E+005   -9.76821E+005    1.48894E+007   -4.35091E+006    1.42797E+007    1.17682E+005    1.38989E+007   -9.63813E+005   -1.04380E+005    5.79014E+003    4.38664E+005
             601    1.46167E+007    1.41302E+007    1.41302E+007    1.44163E+005   -1.04464E+006    1.51748E+007   -4.40991E+006    1.45074E+007    1.44771E+005    1.41282E+007   -1.04324E+006   -1.00746E+005   -1.28401E+004    1.39536E+005
             602    1.13317E+007    1.03771E+007    1.03771E+007   -1.28851E+005   -1.63051E+006    1.20076E+007   -2.87258E+006    1.11045E+007   -1.26431E+006    1.01245E+007   -2.42437E+005   -8.98739E+005    4.91442E+005    1.43148E+006
             603    1.17176E+007    1.11756E+007    1.11756E+007   -1.70602E+005   -8.80957E+005    1.20566E+007   -3.37469E+006    1.16690E+007   -4.14669E+005    1.09688E+007   -4.30084E+005   -5.31580E+005    2.79255E+005    1.46744E+006
             604    1.25176E+007    1.20849E+007    1.20849E+007   -1.87380E+005   -6.64444E+005    1.27494E+007   -3.74436E+006    1.24972E+007   -2.07501E+005    1.19197E+007   -4.79086E+005   -3.02002E+005    7.71129E+004    1.41000E+006
             605    1.34292E+007    1.29618E+007    1.29618E+007   -1.03101E+005   -8.04247E+005    1.37661E+007   -4.01816E+006    1.33880E+007   -1.06014E+005    1.28473E+007   -6.86748E+005   -1.72384E+005    4.39847E+004    1.23867E+006
             606    1.42251E+007    1.37020E+007    1.37020E+007   -8.19593E+004   -9.26707E+005    1.46287E+007   -4.23109E+006    1.41685E+007   -8.14410E+004    1.36356E+007   -8.60861E+005   -9.91419E+004   -2.00368E+004    9.77640E+005
             607    1.48301E+007    1.42420E+007    1.42420E+007   -9.73417E+004   -1.03433E+006    1.52764E+007   -4.37012E+006    1.47633E+007   -9.70792E+004    1.42170E+007   -1.00958E+006   -6.45567E+004   -7.95485E+003    6.14053E+005
             608    1.51517E+007    1.45281E+007    1.45281E+007   -1.10292E+005   -1.08946E+006    1.56176E+007   -4.44278E+006    1.50803E+007   -1.10224E+005    1.45249E+007   -1.08635E+006   -5.01698E+004   -1.08144E+004    2.16810E+005
             609    1.19116E+007    1.02500E+007    1.02500E+007   -4.64252E+005   -2.57649E+006    1.28265E+007   -2.40308E+006    1.14789E+007   -2.17042E+006    9.90497E+006   -5.25314E+005   -1.46111E+006    4.99669E+005    1.42334E+006
             610    1.17988E+007    1.06818E+007    1.06818E+007   -4.71729E+005   -1.67064E+006    1.23524E+007   -2.84647E+006    1.16605E+007   -1.10871E+006    1.02799E+007   -6.31811E+005   -1.21231E+006    3.95632E+005    1.81057E+006
             611    1.23682E+007    1.15349E+007    1.15349E+007   -4.26321E+005   -1.20368E+006    1.27385E+007   -3.30162E+006    1.23131E+007   -5.43739E+005    1.11961E+007   -7.47541E+005   -9.46006E+005    1.95154E+005    1.81791E+006
             612    1.30058E+007    1.23182E+007    1.23182E+007   -1.49222E+005   -1.16617E+006    1.34844E+007   -3.66761E+006    1.29159E+007   -1.54399E+005    1.20641E+007   -9.06868E+005   -7.40016E+005    1.20748E+005    1.67446E+006
             613    1.35992E+007    1.30622E+007    1.30622E+007    1.40598E+005   -1.12606E+006    1.41882E+007   -4.02558E+006    1.34656E+007    1.59072E+005    1.29117E+007   -9.94021E+005   -5.70349E+005    3.50377E+004    1.32867E+006
             614    1.40519E+007    1.35947E+007    1.35947E+007    3.40443E+005   -1.13806E+006    1.47327E+007   -4.26568E+006    1.38753E+007    3.53654E+005    1.35279E+007   -1.08453E+006   -4.46686E+005    2.38126E+004    8.71757E+005
             615    1.42851E+007    1.38844E+007    1.38844E+007    4.58215E+005   -1.12730E+006    1.50117E+007   -4.40512E+006    1.40851E+007    4.68310E+005    1.38686E+007   -1.12159E+006   -3.68516E+005   -8.90212E+002    2.91946E+005
             616    1.24661E+007    1.00931E+007    1.00931E+007   -5.12885E+005   -3.63837E+006    1.37315E+007   -1.98061E+006    1.15341E+007   -3.33277E+006    9.72313E+006   -4.48517E+005   -1.73119E+006    3.32602E+005    1.28611E+006
             617    1.30737E+007    1.07043E+007    1.07043E+007   -1.01110E+006   -3.39855E+006    1.41029E+007   -2.09822E+006    1.25691E+007   -2.94111E+006    1.02120E+007   -9.76244E+005   -1.91072E+006    4.12030E+005    1.67705E+006
             618    1.34591E+007    1.12400E+007    1.12400E+007   -1.20340E+006   -3.04519E+006    1.42851E+007   -2.33046E+006    1.31711E+007   -2.58116E+006    1.07056E+007   -1.13308E+006   -2.01293E+006    2.75514E+005    1.76719E+006
             619    1.41890E+007    1.20685E+007    1.20685E+007   -1.29874E+006   -2.81970E+006    1.48882E+007   -2.65004E+006    1.40039E+007   -2.33580E+006    1.15281E+007   -1.24220E+006   -2.18836E+006    1.96473E+005    1.69350E+006
             620    1.48032E+007    1.27611E+007    1.27611E+007   -1.38723E+006   -2.61999E+006    1.53811E+007   -2.91795E+006    1.46871E+007   -2.14777E+006    1.22476E+007   -1.34598E+006   -2.35470E+006    1.09356E+005    1.43040E+006
             621    1.53075E+007    1.33063E+007    1.33063E+007   -1.46696E+006   -2.48471E+006    1.57910E+007   -3.11820E+006    1.52311E+007   -2.02765E+006    1.28403E+007   -1.45810E+006   -2.48846E+006    6.89017E+004    9.68556E+005
             622    1.55744E+007    1.35931E+007    1.35931E+007   -1.54042E+006   -2.38753E+006    1.59806E+007   -3.22171E+006    1.55224E+007   -1.95823E+006    1.31630E+007   -1.53966E+006   -2.56199E+006    1.99634E+004    3.51032E+005
             623    2.06679E+007    1.60077E+007    1.60077E+007   -1.04598E+006   -6.97737E+006    2.29851E+007   -2.66145E+006    1.86036E+007   -6.61166E+006    1.56341E+007   -1.03812E+006   -2.87540E+006   -6.48400E+004    3.62175E+005
             624    1.97701E+007    1.52564E+007    1.52564E+007   -1.08836E+006   -6.71786E+006    2.19743E+007   -2.48341E+006    1.78287E+007   -6.36041E+006    1.48427E+007   -1.03210E+006   -2.77436E+006   -1.71894E+005    9.46756E+005
             625    1.83178E+007    1.41043E+007    1.41043E+007   -1.13394E+006   -6.21882E+006    2.03231E+007   -2.25050E+006    1.66153E+007   -5.87992E+006    1.36537E+007   -1.02232E+006   -2.59309E+006   -2.20239E+005    1.28478E+006
             626    1.66085E+007    1.27642E+007    1.27642E+007   -1.16948E+006   -5.61447E+006    1.83787E+007   -1.99342E+006    1.51814E+007   -5.31460E+006    1.23176E+007   -1.02273E+006   -2.31872E+006   -1.96393E+005    1.40910E+006
             627    1.51049E+007    1.16250E+007    1.16250E+007   -1.14830E+006   -5.04704E+006    1.66721E+007   -1.80989E+006    1.39036E+007   -4.79965E+006    1.12305E+007   -1.00120E+006   -2.00535E+006   -1.31049E+005    1.35852E+006
             628    1.38091E+007    1.05605E+007    1.05605E+007   -1.15447E+006   -4.66509E+006    1.52256E+007   -1.58031E+006    1.27458E+007   -4.47892E+006    1.02717E+007   -1.05188E+006   -1.65987E+006   -4.45941E+004    1.10230E+006
             629    1.35787E+007    1.05161E+007    1.05161E+007   -1.29121E+006   -4.32180E+006    1.48379E+007   -1.63438E+006    1.27841E+007   -4.16081E+006    1.03044E+007   -1.24041E+006   -1.49720E+006    6.71197E+004    8.40064E+005
             630    1.64715E+007    1.38710E+007    1.38710E+007   -1.55980E+006   -3.47393E+006    1.73449E+007   -2.94575E+006    1.62184E+007   -2.93720E+006    1.33285E+007   -1.55408E+006    2.99372E+006    1.21826E+004   -3.79824E+005
             631    1.42935E+007    1.36123E+007    1.36123E+007   -9.41959E+004   -1.20355E+006    1.48159E+007   -4.10486E+006    1.41962E+007   -1.81728E+004    1.35271E+007   -1.19436E+006    1.02364E+006    5.21701E+003   -3.51778E+005
             632    1.50212E+007    1.44022E+007    1.44022E+007   -8.25693E+004   -1.10323E+006    1.55055E+007   -4.40548E+006    1.49428E+007   -7.92559E+004    1.43937E+007   -1.09803E+006    2.29495E+005   -2.25614E+004   -2.74595E+005
             633    1.47622E+007    1.41834E+007    1.41834E+007    1.43680E+004   -1.10776E+006    1.52912E+007   -4.36335E+006    1.46657E+007    1.77879E+004    1.41767E+007   -1.10447E+006    2.20421E+005   -6.94040E+003   -2.23822E+005
             634    1.47677E+007    1.43501E+007    1.43501E+007    2.15198E+005   -9.77984E+005    1.53281E+007   -4.52911E+006    1.46587E+007    2.15110E+005    1.43484E+007   -9.76149E+005   -4.11364E+004   -1.53201E+004   -1.57929E+005
             635    1.46758E+007    1.41544E+007    1.41544E+007    1.33533E+004   -1.00340E+006    1.51578E+007   -4.38810E+006    1.45963E+007    1.33167E+004    1.41537E+007   -1.00268E+006    1.57262E+004   -7.52669E+003   -1.00832E+005
             636    1.46077E+007    1.42354E+007    1.42354E+007    2.30186E+005   -9.08135E+005    1.51435E+007   -4.51915E+006    1.45074E+007    2.30139E+005    1.42353E+007   -9.08006E+005    7.09485E+003   -7.62804E+003   -3.43107E+004
             637    1.45916E+007    1.40964E+007    1.40964E+007    3.39199E+004   -9.72190E+005    1.50686E+007   -4.38605E+006    1.45132E+007    3.39361E+004    1.40963E+007   -9.72100E+005   -3.49071E+004   -8.46521E+003    1.71418E+004
             638    1.47231E+007    1.43140E+007    1.43140E+007    1.77140E+005   -9.32476E+005    1.52465E+007   -4.51957E+006    1.46286E+007    1.77755E+005    1.43129E+007   -9.31922E+005    9.62117E+004   -6.06042E+003    8.85596E+004
             639    1.60185E+007    1.34704E+007    1.34704E+007   -1.49113E+006   -3.42888E+006    1.68992E+007   -2.85011E+006    1.57516E+007   -2.89544E+006    1.29040E+007   -1.45825E+006    2.84686E+006    8.40949E+004   -1.04493E+006
             640    1.40615E+007    1.33207E+007    1.33207E+007   -1.99820E+005   -1.22560E+006    1.45463E+007   -3.96510E+006    1.39770E+007   -1.34964E+005    1.31747E+007   -1.14447E+006    1.02717E+006    4.33405E+004   -9.91992E+005
             641    1.46697E+007    1.40685E+007    1.40685E+007   -9.81965E+004   -1.05716E+006    1.51257E+007   -4.30439E+006    1.45990E+007   -9.40047E+004    1.40243E+007   -1.01709E+006    2.44372E+005   -1.93860E+004   -7.76934E+005
             642    1.44611E+007    1.39093E+007    1.39093E+007   -5.12686E+003   -1.04252E+006    1.49518E+007   -4.28723E+006    1.43770E+007   -2.05394E+003    1.38800E+007   -1.01624E+006    2.18659E+005    9.82305E+003   -6.22048E+005
             643    1.44536E+007    1.40716E+007    1.40716E+007    1.97414E+005   -8.98912E+005    1.49705E+007   -4.45670E+006    1.43596E+007    1.97475E+005    1.40584E+007   -8.85783E+005   -3.05658E+004   -1.83658E+003   -4.43034E+005
             644    1.43865E+007    1.39150E+007    1.39150E+007    1.27248E+004   -9.11188E+005    1.48262E+007   -4.33883E+006    1.43195E+007    1.25851E+004    1.39101E+007   -9.06165E+005    1.58060E+004    1.17653E+004   -2.68559E+005
             645    1.43257E+007    1.39964E+007    1.39964E+007    2.18300E+005   -8.20329E+005    1.48168E+007   -4.46480E+006    1.42406E+007    2.18170E+005    1.39958E+007   -8.19525E+005    6.64365E+003    1.16870E+004   -9.97370E+004
             646    1.43348E+007    1.38871E+007    1.38871E+007    3.25374E+004   -8.83953E+005    1.47710E+007   -4.34522E+006    1.42686E+007    3.24147E+004    1.38866E+007   -8.83344E+005   -3.07462E+004    1.30550E+004    7.86275E+004
             647    1.44461E+007    1.40789E+007    1.40789E+007    1.73800E+005   -8.53300E+005    1.49322E+007   -4.46648E+006    1.43636E+007    1.74243E+005    1.40745E+007   -8.49319E+005    8.52499E+004    1.05007E+004    2.41294E+005
             648    1.52612E+007    1.28032E+007    1.28032E+007   -1.38871E+006   -3.33973E+006    1.61429E+007   -2.69159E+006    1.49768E+007   -2.82956E+006    1.22141E+007   -1.30979E+006    2.60289E+006    1.23416E+005   -1.50283E+006
             649    1.35919E+007    1.27704E+007    1.27704E+007   -3.63354E+005   -1.23735E+006    1.40078E+007   -3.72324E+006    1.35284E+007   -3.16313E+005    1.25294E+007   -1.04335E+006    1.05976E+006    6.34951E+004   -1.46941E+006
             650    1.40308E+007    1.34628E+007    1.34628E+007   -1.26862E+005   -9.70979E+005    1.44338E+007   -4.12165E+006    1.39735E+007   -1.20802E+005    1.33611E+007   -8.75392E+005    2.85899E+005   -2.50904E+004   -1.17044E+006
             651    1.38844E+007    1.33947E+007    1.33947E+007   -3.89244E+004   -9.00355E+005    1.42951E+007   -4.15182E+006    1.38241E+007   -3.55075E+004    1.33294E+007   -8.38471E+005    2.23043E+005    6.06738E+002   -9.36340E+005
             652    1.38690E+007    1.35658E+007    1.35658E+007    1.74756E+005   -7.36338E+005    1.43021E+007   -4.33472E+006    1.38014E+007    1.74500E+005    1.35354E+007   -7.05733E+005   -5.23142E+003   -1.50804E+004   -6.58109E+005
             653    1.38378E+007    1.34666E+007    1.34666E+007    1.26730E+004   -7.25499E+005    1.41921E+007   -4.25126E+006    1.37934E+007    1.26844E+004    1.34555E+007   -7.14420E+005    1.95844E+004    2.98618E+003   -3.96068E+005
             654    1.37957E+007    1.35556E+007    1.35556E+007    2.01204E+005   -6.42629E+005    1.41982E+007   -4.37138E+006    1.37374E+007    2.01204E+005    1.35544E+007   -6.41488E+005    9.53661E+003    2.32562E+003   -1.26912E+005
             655    1.38269E+007    1.34782E+007    1.34782E+007    3.14872E+004   -6.99805E+005    1.41780E+007   -4.26997E+006    1.37833E+007    3.15256E+004    1.34769E+007   -6.98526E+005   -2.64086E+004    2.87158E+003    1.33968E+005
             656    1.39244E+007    1.36415E+007    1.36415E+007    1.68366E+005   -6.94128E+005    1.43356E+007   -4.37191E+006    1.38641E+007    1.68681E+005    1.36297E+007   -6.82700E+005    6.72931E+004   -2.34718E+003    4.04227E+005
             657    1.43870E+007    1.19875E+007    1.19875E+007   -1.25587E+006   -3.32013E+006    1.53077E+007   -2.47052E+006    1.40481E+007   -2.83609E+006    1.14092E+007   -1.16154E+006    2.31577E+006    2.14011E+005   -1.72084E+006
             658    1.30198E+007    1.20565E+007    1.20565E+007   -5.51661E+005   -1.33911E+006    1.33957E+007   -3.38859E+006    1.29661E+007   -6.15432E+005    1.17245E+007   -9.43300E+005    1.11737E+006    1.66298E+005   -1.75683E+006
             659    1.32060E+007    1.26538E+007    1.26538E+007   -1.98065E+005   -8.79863E+005    1.35337E+007   -3.85864E+006    1.31663E+007   -2.00009E+005    1.24906E+007   -7.14706E+005    3.57419E+005    4.99139E+004   -1.43283E+006
             660    1.31401E+007    1.27017E+007    1.27017E+007   -9.57995E+004   -7.56163E+005    1.34578E+007   -3.94990E+006    1.31027E+007   -1.02401E+005    1.26009E+007   -6.48848E+005    2.42931E+005    6.40978E+004   -1.13392E+006
             661    1.31019E+007    1.28746E+007    1.28746E+007    1.31309E+005   -5.58666E+005    1.34333E+007   -4.14908E+006    1.30609E+007    1.28140E+005    1.28269E+007   -5.07766E+005    3.00748E+004    4.53691E+004   -7.98731E+005
             662    1.31100E+007    1.28465E+007    1.28465E+007    1.11632E+004   -5.21771E+005    1.33683E+007   -4.11197E+006    1.30855E+007    5.23706E+003    1.28307E+007   -4.99978E+005    2.65642E+004    5.52236E+004   -4.59500E+005
             663    1.30797E+007    1.29350E+007    1.29350E+007    1.79089E+005   -4.46051E+005    1.33811E+007   -4.22269E+006    1.30460E+007    1.74461E+005    1.29338E+007   -4.40217E+005    1.03448E+004    5.35359E+004   -1.26619E+005
             664    1.31488E+007    1.29034E+007    1.29034E+007    3.11749E+004   -5.05595E+005    1.34090E+007   -4.14298E+006    1.31241E+007    2.59632E+004    1.29000E+007   -4.96965E+005   -2.74108E+004    5.24798E+004    2.12296E+005
             665    1.32090E+007    1.30127E+007    1.30127E+007    1.51814E+005   -5.18918E+005    1.35316E+007   -4.21518E+006    1.31706E+007    1.47825E+005    1.29913E+007   -4.93546E+005    3.23818E+004    5.34857E+004    5.36255E+005
             666    1.35555E+007    1.12365E+007    1.12365E+007   -1.09413E+006   -3.27858E+006    1.45151E+007   -2.28793E+006    1.31507E+007   -2.85299E+006    1.06999E+007   -9.83094E+005    2.05346E+006    2.52068E+005   -1.73941E+006
             667    1.23616E+007    1.12715E+007    1.12715E+007   -6.62070E+005   -1.47763E+006    1.27491E+007   -3.04394E+006    1.23008E+007   -9.59013E+005    1.08841E+007   -7.93298E+005    1.19623E+006    2.31394E+005   -1.82845E+006
             668    1.23428E+007    1.17894E+007    1.17894E+007   -2.98077E+005   -7.93813E+005    1.25832E+007   -3.56583E+006    1.23204E+007   -3.47546E+005    1.15790E+007   -5.33956E+005    4.72581E+005    1.11195E+005   -1.54242E+006
             669    1.22774E+007    1.19025E+007    1.19025E+007   -1.75291E+005   -5.65287E+005    1.24678E+007   -3.72064E+006    1.22635E+007   -2.10427E+005    1.17733E+007   -4.00978E+005    2.98335E+005    9.17375E+004   -1.22651E+006
             670    1.22256E+007    1.20871E+007    1.20871E+007    5.49414E+004   -3.23165E+005    1.24102E+007   -3.93961E+006    1.22124E+007    3.99858E+004    1.20282E+007   -2.49370E+005    8.97704E+004    6.91022E+004   -8.47624E+005
             671    1.22614E+007    1.21158E+007    1.21158E+007   -1.78832E+004   -2.69442E+005    1.23852E+007   -3.94282E+006    1.22556E+007   -4.14411E+004    1.20972E+007   -2.27290E+005    4.89352E+004    7.16972E+004   -4.76811E+005
             672    1.22374E+007    1.22018E+007    1.22018E+007    1.23087E+005   -1.88343E+005    1.23901E+007   -4.04551E+006    1.22285E+007    1.06762E+005    1.22010E+007   -1.71185E+005    1.41540E+004    6.93264E+004   -1.00565E+005
             673    1.23215E+007    1.21919E+007    1.21919E+007   -2.45849E+003   -2.52893E+005    1.24448E+007   -3.97885E+006    1.23158E+007   -2.20059E+004    1.21854E+007   -2.26856E+005   -3.43212E+004    6.65574E+004    2.81968E+005
             674    1.23774E+007    1.22714E+007    1.22714E+007    8.59456E+004   -2.89508E+005    1.25609E+007   -4.02261E+006    1.23646E+007    7.45999E+004    1.22378E+007   -2.44575E+005   -2.40204E+004    6.32124E+004    6.48026E+005
             675    1.29102E+007    1.05323E+007    1.05323E+007   -8.63228E+005   -3.48890E+006    1.40212E+007   -2.06007E+006    1.22878E+007   -3.11556E+006    1.00915E+007   -7.95715E+005    1.80520E+006    3.71463E+005   -1.56145E+006
             676    1.19615E+007    1.05603E+007    1.05603E+007   -6.14556E+005   -2.05702E+006    1.26173E+007   -2.62958E+006    1.17634E+007   -1.50991E+006    1.01507E+007   -7.52046E+005    1.33888E+006    4.54111E+005   -1.76771E+006
             677    1.15668E+007    1.08821E+007    1.08821E+007   -2.39617E+005   -1.08354E+006    1.19656E+007   -3.18631E+006    1.14972E+007   -6.23548E+005    1.06322E+007   -4.49699E+005    6.67480E+005    3.34077E+005   -1.56568E+006
             678    1.14725E+007    1.10537E+007    1.10537E+007   -8.41829E+004   -7.26464E+005    1.17801E+007   -3.41434E+006    1.14319E+007   -3.57178E+005    1.09068E+007   -3.06568E+005    4.18233E+005    2.75858E+005   -1.23232E+006
             679    1.13682E+007    1.12367E+007    1.12367E+007    1.28781E+005   -3.75123E+005    1.16118E+007   -3.66345E+006    1.13431E+007   -3.48873E+004    1.11686E+007   -1.43348E+005    1.80303E+005    2.23846E+005   -8.64940E+005
             680    1.13838E+007    1.12997E+007    1.12997E+007    1.29021E+005   -2.85937E+005    1.15856E+007   -3.71426E+006    1.13668E+007   -5.15325E+004    1.12803E+007   -8.60103E+004    8.28284E+004    2.02590E+005   -4.63669E+005
             681    1.13599E+007    1.13786E+007    1.13786E+007    2.23416E+005   -1.75495E+005    1.15541E+007   -3.80886E+006    1.13442E+007    8.81279E+004    1.13783E+007   -3.98358E+004    1.52478E+004    1.88776E+005   -6.35243E+004
             682    1.14285E+007    1.13694E+007    1.13694E+007    1.39114E+005   -2.47538E+005    1.16170E+007   -3.75367E+006    1.14138E+007   -2.25914E+004    1.13585E+007   -7.49112E+004   -6.73743E+004    1.88819E+005    3.48101E+005
             683    1.14767E+007    1.13898E+007    1.13898E+007    1.51454E+005   -3.11305E+005    1.17011E+007   -3.74332E+006    1.14557E+007    2.66211E+004    1.13393E+007   -1.35986E+005   -1.17639E+005    1.98621E+005    7.55509E+005
             684    1.25334E+007    1.01701E+007    1.01701E+007   -6.11947E+005   -3.58146E+006    1.37515E+007   -1.99222E+006    1.17020E+007   -3.34873E+006    9.84458E+006   -5.19190E+005    1.57532E+006    2.27897E+005   -1.25798E+006
             685    1.17332E+007    9.95548E+006    9.95548E+006   -4.12296E+005   -2.78158E+006    1.27371E+007   -2.25387E+006    1.11758E+007   -2.43066E+006    9.60946E+006   -4.17199E+005    1.42174E+006    4.78472E+005   -1.43078E+006
             686    1.12097E+007    1.01162E+007    1.01162E+007   -1.30404E+005   -1.85642E+006    1.19726E+007   -2.70978E+006    1.09047E+007   -1.49338E+006    9.87128E+006   -2.48567E+005    9.60262E+005    5.31924E+005   -1.35196E+006
             687    1.09042E+007    1.01990E+007    1.01990E+007    8.44549E+004   -1.35251E+006    1.15515E+007   -2.97697E+006    1.06881E+007   -1.03996E+006    1.00419E+007   -7.10851E+004    6.36661E+005    5.04734E+005   -1.14186E+006
             688    1.06785E+007    1.03006E+007    1.03006E+007    2.93741E+005   -9.41998E+005    1.12426E+007   -3.21746E+006    1.05159E+007   -6.47537E+005    1.02307E+007    6.92558E+004    3.60841E+005    4.94543E+005   -7.86344E+005
             689    1.06500E+007    1.03874E+007    1.03874E+007    3.52515E+005   -7.86254E+005    1.11736E+007   -3.31787E+006    1.05117E+007   -5.25504E+005    1.03688E+007    1.10318E+005    1.73475E+005    4.70567E+005   -4.09987E+005
             690    1.06115E+007    1.04489E+007    1.04489E+007    4.12027E+005   -6.56310E+005    1.11052E+007   -3.40155E+006    1.04895E+007   -3.92189E+005    1.04489E+007    1.47953E+005    1.04463E+004    4.60856E+005   -2.00752E+004
             691    1.06745E+007    1.04288E+007    1.04288E+007    3.49956E+005   -7.55424E+005    1.11842E+007   -3.34111E+006    1.05446E+007   -4.94003E+005    1.04140E+007    1.03342E+005   -1.57734E+005    4.63315E+005    3.66033E+005
             692    1.07201E+007    1.03973E+007    1.03973E+007    3.08566E+005   -8.58513E+005    1.12558E+007   -3.28246E+006    1.05757E+007   -5.65287E+005    1.03348E+007    7.78431E+004   -3.18353E+005    4.80170E+005    7.54537E+005
             693    1.01425E+007    9.52508E+006    9.52508E+006    6.38494E+005   -1.52439E+006    1.10495E+007   -2.87973E+006    9.60283E+006   -1.41060E+006    9.46999E+006    5.79795E+005   -4.76306E+005    4.14827E+005    5.71876E+005
             694    1.00505E+007    9.59328E+006    9.59328E+006    6.99341E+005   -1.31017E+006    1.09034E+007   -2.99415E+006    9.58275E+006   -1.20820E+006    9.58085E+006    6.09806E+005   -2.39761E+005    4.24386E+005    2.61901E+005
             695    1.00399E+007    9.62065E+006    9.62065E+006    6.78472E+005   -1.24014E+006    1.08608E+007   -3.01966E+006    9.61441E+006   -1.14006E+006    9.62065E+006    5.78395E+005    8.37309E+002    4.26609E+005   -2.83388E+003
             696    1.00548E+007    9.58728E+006    9.58728E+006    6.93985E+005   -1.32314E+006    1.09104E+007   -2.98604E+006    9.58355E+006   -1.22132E+006    9.57459E+006    6.04860E+005    2.45104E+005    4.24289E+005   -2.62536E+005
             697    1.01506E+007    9.51257E+006    9.51257E+006    6.35983E+005   -1.55444E+006    1.10670E+007   -2.86470E+006    9.59702E+006   -1.44020E+006    9.45618E+006    5.78141E+005    4.89713E+005    4.15418E+005   -5.73248E+005
             698    1.04125E+007    9.45704E+006    9.45704E+006    4.39347E+005   -1.93879E+006    1.13958E+007   -2.65253E+006    9.77302E+006   -1.81156E+006    9.32726E+006    4.41887E+005    7.40030E+005    3.68619E+005   -8.79094E+005
             699    1.09808E+007    9.57963E+006    9.57963E+006    1.19284E+005   -2.46180E+006    1.20414E+007   -2.41237E+006    1.02645E+007   -2.30865E+006    9.34999E+006    1.95771E+005    1.03261E+006    2.97349E+005   -1.17134E+006
             700    1.18210E+007    9.87818E+006    9.87818E+006   -2.79228E+005   -3.09718E+006    1.29754E+007   -2.16726E+006    1.10267E+007   -2.93885E+006    9.62747E+006   -1.86843E+005    1.26951E+006    1.84533E+005   -1.13966E+006
             701    1.21939E+007    9.80245E+006    9.80245E+006   -4.65615E+005   -3.67526E+006    1.34777E+007   -1.88719E+006    1.11828E+007   -3.53217E+006    9.58589E+006   -3.92142E+005    1.33587E+006    7.23272E+004   -9.25601E+005
             702    2.12194E+007    1.62724E+007    1.62724E+007   -1.01983E+006   -7.40693E+006    2.36793E+007   -2.61521E+006    1.88678E+007   -7.04582E+006    1.59040E+007   -1.01256E+006    2.90071E+006   -7.51896E+004   -3.51556E+005
             703    2.01758E+007    1.54202E+007    1.54202E+007   -1.07014E+006   -7.07680E+006    2.24970E+007   -2.42441E+006    1.79929E+007   -6.72061E+006    1.50089E+007   -1.01511E+006    2.79979E+006   -2.06775E+005   -9.43169E+005
             704    1.84940E+007    1.41081E+007    1.41081E+007   -1.10798E+006   -6.47607E+006    2.05842E+007   -2.17469E+006    1.66007E+007   -6.13745E+006    1.36564E+007   -9.94883E+005    2.60547E+006   -2.55299E+005   -1.29295E+006
             705    1.66612E+007    1.27610E+007    1.27610E+007   -1.08086E+006   -5.73139E+006    1.84924E+007   -1.98292E+006    1.50942E+007   -5.42969E+006    1.23058E+007   -9.27301E+005    2.33002E+006   -2.43099E+005   -1.43379E+006
             706    1.50003E+007    1.15607E+007    1.15607E+007   -9.86550E+005   -5.05379E+006    1.66145E+007   -1.84012E+006    1.36748E+007   -4.80179E+006    1.11460E+007   -8.23895E+005    2.02026E+006   -1.61126E+005   -1.41043E+006
             707    1.37323E+007    1.06925E+007    1.06925E+007   -7.99579E+005   -4.51521E+006    1.52077E+007   -1.79258E+006    1.25243E+007   -4.31730E+006    1.03497E+007   -6.54623E+005    1.71362E+006   -1.10565E+005   -1.27985E+006
             708    1.27663E+007    1.00674E+007    1.00674E+007   -5.26862E+005   -4.10661E+006    1.41740E+007   -1.81131E+006    1.15536E+007   -3.95166E+006    9.80617E+006   -4.20583E+005    1.46620E+006   -7.14211E+004   -1.05626E+006
             709    1.70956E+007    1.47443E+007    1.47443E+007   -1.56612E+006   -3.04100E+006    1.77853E+007   -3.37905E+006    1.69516E+007   -2.76895E+006    1.44667E+007   -1.56062E+006   -2.17999E+006    9.54999E+003   -3.16249E+005
             710    1.48764E+007    1.34451E+007    1.34451E+007   -1.16102E+006   -1.68758E+006    1.51327E+007   -3.53218E+006    1.48554E+007   -9.82227E+005    1.32561E+007   -1.67731E+006   -1.63229E+006   -2.64898E+004   -2.60548E+005
             711    1.40889E+007    1.33304E+007    1.33304E+007    4.22053E+004   -1.44175E+006    1.47721E+007   -3.97695E+006    1.39114E+007    5.71978E+004    1.33114E+007   -1.43776E+006   -4.53609E+005   -1.98519E+004   -2.27234E+005
             712    1.43043E+007    1.35251E+007    1.35251E+007   -1.47183E+005   -1.33694E+006    1.48620E+007   -4.01366E+006    1.41924E+007   -1.41525E+005    1.35177E+007   -1.33516E+006   -2.88167E+005   -1.93236E+004   -1.42390E+005
             713    1.66653E+007    1.43393E+007    1.43393E+007   -1.52157E+006   -3.02816E+006    1.73675E+007   -3.26319E+006    1.65111E+007   -2.76550E+006    1.40320E+007   -1.47696E+006   -2.10429E+006    3.89052E+004   -8.70129E+005
             714    1.46659E+007    1.32113E+007    1.32113E+007   -1.20883E+006   -1.68866E+006    1.49000E+007   -3.43794E+006    1.46483E+007   -1.06924E+006    1.29890E+007   -1.60599E+006   -1.61764E+006   -5.27305E+004   -7.66292E+005
             715    1.38435E+007    1.30860E+007    1.30860E+007   -2.73143E+004   -1.38735E+006    1.44733E+007   -3.89044E+006    1.36920E+007   -1.07176E+004    1.30390E+007   -1.35698E+006   -5.05620E+005   -3.91269E+004   -6.31066E+005
             716    1.40206E+007    1.32788E+007    1.32788E+007   -1.57237E+005   -1.26108E+006    1.45399E+007   -3.95350E+006    1.39223E+007   -1.51993E+005    1.32592E+007   -1.24669E+006   -2.95209E+005   -2.75376E+004   -4.37546E+005
             717    1.59049E+007    1.35853E+007    1.35853E+007   -1.48683E+006   -3.03867E+006    1.66239E+007   -3.01992E+006    1.57332E+007   -2.79001E+006    1.32345E+007   -1.38468E+006   -1.97092E+006    3.32186E+004   -1.30000E+006
             718    1.42565E+007    1.27684E+007    1.27684E+007   -1.22031E+006   -1.74157E+006    1.45100E+007   -3.26885E+006    1.42351E+007   -1.22389E+006    1.24945E+007   -1.46407E+006   -1.58644E+006   -1.18168E+005   -1.17039E+006
             719    1.33887E+007    1.26103E+007    1.26103E+007   -1.56373E+005   -1.32397E+006    1.39343E+007   -3.70999E+006    1.32735E+007   -1.47417E+005    1.25113E+007   -1.23390E+006   -5.92328E+005   -1.00468E+005   -9.99776E+005
             720    1.34939E+007    1.28177E+007    1.28177E+007   -1.66600E+005   -1.13378E+006    1.39514E+007   -3.83909E+006    1.34156E+007   -1.69683E+005    1.27775E+007   -1.09053E+006   -3.17162E+005   -8.55178E+004   -6.73670E+005
             721    1.49589E+007    1.26642E+007    1.26642E+007   -1.41288E+006   -3.04302E+006    1.57072E+007   -2.73610E+006    1.47571E+007   -2.81879E+006    1.22862E+007   -1.25908E+006   -1.79874E+006    3.30443E+004   -1.53038E+006
             722    1.36356E+007    1.21060E+007    1.21060E+007   -1.17486E+006   -1.85864E+006    1.39647E+007   -3.02417E+006    1.35970E+007   -1.45835E+006    1.17818E+007   -1.25089E+006   -1.53107E+006   -1.60960E+005   -1.44033E+006
             723    1.27726E+007    1.19868E+007    1.19868E+007   -3.46059E+005   -1.18430E+006    1.31711E+007   -3.48549E+006    1.27105E+007   -3.67387E+005    1.18311E+007   -1.00728E+006   -7.09411E+005   -1.50166E+005   -1.23069E+006
             724    1.27996E+007    1.21868E+007    1.21868E+007   -2.35239E+005   -9.59589E+005    1.31464E+007   -3.66399E+006    1.27534E+007   -2.58847E+005    1.21176E+007   -8.66827E+005   -3.66982E+005   -1.28698E+005   -8.76361E+005
             725    1.39028E+007    1.15932E+007    1.15932E+007   -1.36184E+006   -3.09488E+006    1.46881E+007   -2.37884E+006    1.36567E+007   -2.89533E+006    1.12078E+007   -1.17592E+006   -1.60118E+006   -4.79120E+003   -1.63226E+006
             726    1.29915E+007    1.14185E+007    1.14185E+007   -9.90741E+005   -2.08592E+006    1.35045E+007   -2.78063E+006    1.28871E+007   -1.72377E+006    1.10713E+007   -1.00563E+006   -1.47961E+006   -2.48899E+005   -1.52600E+006
             727    1.21075E+007    1.12550E+007    1.12550E+007   -4.59641E+005   -1.21052E+006    1.24655E+007   -3.19495E+006    1.20550E+007   -6.48907E+005    1.10465E+007   -8.12775E+005   -8.42557E+005   -2.59513E+005   -1.35826E+006
             728    1.20212E+007    1.14454E+007    1.14454E+007   -2.28683E+005   -8.95124E+005    1.23405E+007   -3.44053E+006    1.19795E+007   -3.59019E+005    1.13484E+007   -6.67771E+005   -4.50635E+005   -2.39778E+005   -9.92215E+005
             729    1.31062E+007    1.08297E+007    1.08297E+007   -1.22551E+006   -3.12101E+006    1.39507E+007   -2.16107E+006    1.27923E+007   -2.95633E+006    1.04670E+007   -1.02748E+006   -1.43001E+006    3.31890E+003   -1.59395E+006
             730    1.23278E+007    1.06767E+007    1.06767E+007   -7.07979E+005   -2.41605E+006    1.30928E+007   -2.51757E+006    1.20573E+007   -2.16025E+006    1.03556E+007   -6.42672E+005   -1.39588E+006   -2.54334E+005   -1.41181E+006
             731    1.16042E+007    1.05757E+007    1.05757E+007   -4.29111E+005   -1.54696E+006    1.21227E+007   -2.86654E+006    1.14821E+007   -1.19989E+006    1.03491E+007   -5.49596E+005   -9.97226E+005   -3.67470E+005   -1.28796E+006
             732    1.13328E+007    1.06810E+007    1.06810E+007   -1.59808E+005   -1.08678E+006    1.17678E+007   -3.14482E+006    1.12470E+007   -7.40984E+005    1.05586E+007   -3.83155E+005   -5.91312E+005   -3.87780E+005   -1.02750E+006
             733    1.21301E+007    9.96568E+006    9.96568E+006   -8.55071E+005   -3.14685E+006    1.31125E+007   -1.98792E+006    1.16280E+007   -3.00144E+006    9.60179E+006   -6.36590E+005   -1.33244E+006    4.21901E+004   -1.54693E+006
             734    1.20186E+007    1.02703E+007    1.02703E+007   -7.01955E+005   -2.57478E+006    1.28451E+007   -2.33119E+006    1.16836E+007   -2.41055E+006    1.00040E+007   -5.99863E+005   -1.26580E+006   -1.35736E+005   -1.24698E+006
             735    1.12355E+007    1.00611E+007    1.00611E+007   -2.93177E+005   -1.88565E+006    1.19468E+007   -2.62743E+006    1.09773E+007   -1.69908E+006    9.82376E+006   -2.42381E+005   -1.04098E+006   -2.66070E+005   -1.24644E+006
             736    1.06679E+007    9.91019E+006    9.91019E+006    7.91265E+003   -1.38623E+006    1.12964E+007   -2.84396E+006    1.04600E+007   -1.19664E+006    9.77309E+006   -4.45715E+004   -6.89534E+005   -3.68009E+005   -9.91090E+005
             737    1.01881E+007    9.06278E+006    9.06278E+006    1.42365E+005   -2.03945E+006    1.11022E+007   -2.38857E+006    9.64118E+006   -1.91862E+006    8.91367E+006    1.70652E+005   -8.15124E+005   -2.90734E+005   -9.08830E+005
             738    1.09063E+007    9.25434E+006    9.25434E+006   -3.54327E+005   -2.60001E+006    1.18543E+007   -2.10000E+006    1.03668E+007   -2.45919E+006    8.98848E+006   -2.29282E+005   -1.08218E+006   -1.79204E+005   -1.27064E+006
             739    1.20185E+007    9.91320E+006    9.91320E+006   -7.60721E+005   -3.10458E+006    1.30178E+007   -2.01597E+006    1.14873E+007   -2.94460E+006    9.52786E+006   -5.35364E+005   -1.33883E+006   -3.65265E+004   -1.60680E+006
             740    1.32915E+007    1.05201E+007    1.05201E+007   -1.51375E+006   -3.74631E+006    1.42664E+007   -1.75336E+006    1.28595E+007   -3.54079E+006    1.01505E+007   -1.34967E+006   -1.60683E+006   -3.77918E+004   -1.49010E+006
             741    1.96942E+007    1.54309E+007    1.54309E+007   -1.24597E+006   -6.29689E+006    2.17278E+007   -2.62934E+006    1.81492E+007   -6.05682E+006    1.51814E+007   -1.23661E+006   -2.26963E+006    7.63227E+004   -3.94208E+005
             742    1.88739E+007    1.46680E+007    1.46680E+007   -1.33414E+006   -6.14604E+006    2.08141E+007   -2.39595E+006    1.74118E+007   -5.89935E+006    1.43465E+007   -1.25933E+006   -2.24013E+006    2.12669E+005   -1.08794E+006
             743    1.75752E+007    1.35082E+007    1.35082E+007   -1.43771E+006   -5.85390E+006    1.93621E+007   -2.07221E+006    1.62551E+007   -5.60228E+006    1.31056E+007   -1.28668E+006   -2.17052E+006    2.88389E+005   -1.48689E+006
             744    1.60190E+007    1.21579E+007    1.21579E+007   -1.55601E+006   -5.44865E+006    1.76066E+007   -1.71775E+006    1.48981E+007   -5.20046E+006    1.17028E+007   -1.34909E+006   -2.05302E+006    2.96498E+005   -1.65795E+006
             745    1.45529E+007    1.09132E+007    1.09132E+007   -1.64196E+006   -5.03727E+006    1.59504E+007   -1.41131E+006    1.36183E+007   -4.80624E+006    1.04679E+007   -1.42776E+006   -1.88958E+006    2.46991E+005   -1.61062E+006
             746    1.32373E+007    9.69605E+006    9.69605E+006   -1.78803E+006   -4.78164E+006    1.44777E+007   -1.04213E+006    1.24410E+007   -4.56921E+006    9.30283E+006   -1.60725E+006   -1.72873E+006    1.47031E+005   -1.42317E+006
             747    1.31139E+007    9.56611E+006    9.56611E+006   -2.20478E+006   -4.56909E+006    1.41352E+007   -9.30749E+005    1.26209E+007   -4.34970E+006    9.24274E+006   -2.10079E+006   -1.68776E+006   -3.21901E+004   -1.18059E+006
             748    9.85862E+006    9.05824E+006    9.05824E+006    3.80896E+005   -1.66167E+006    1.07199E+007   -2.59249E+006    9.36463E+006   -1.55872E+006    8.99754E+006    3.38655E+005   -5.45375E+005   -3.56421E+005   -5.51822E+005
             749    9.70402E+006    9.10924E+006    9.10924E+006    5.15403E+005   -1.41484E+006    1.05241E+007   -2.73660E+006    9.25720E+006   -1.32286E+006    9.09490E+006    4.37759E+005   -2.79096E+005   -3.88415E+005   -2.54327E+005
             750    9.69143E+006    9.13940E+006    9.13940E+006    5.07276E+005   -1.34421E+006    1.04836E+007   -2.76749E+006    9.28093E+006   -1.25690E+006    9.13940E+006    4.19970E+005   -3.04395E+003   -3.92457E+005    6.29658E+002
             751    9.70419E+006    9.10138E+006    9.10138E+006    5.06674E+005   -1.42249E+006    1.05239E+007   -2.72852E+006    9.25789E+006   -1.33079E+006    9.08767E+006    4.28679E+005    2.76778E+005   -3.88245E+005    2.45097E+005
             752    9.86730E+006    9.05359E+006    9.05359E+006    3.75212E+005   -1.67918E+006    1.07328E+007   -2.58321E+006    9.36782E+006   -1.57649E+006    8.99125E+006    3.34850E+005    5.51406E+005   -3.54795E+005    5.60362E+005
             753    1.02295E+007    9.05220E+006    9.05220E+006    8.82121E+004   -2.09145E+006    1.11437E+007   -2.34966E+006    9.68613E+006   -1.96968E+006    8.90708E+006    1.11561E+005    8.20173E+005   -2.93153E+005    8.88506E+005
             754    1.09390E+007    9.27855E+006    9.27855E+006   -3.55761E+005   -2.61304E+006    1.18916E+007   -2.10325E+006    1.03955E+007   -2.47364E+006    9.02786E+006   -2.44480E+005    1.07669E+006   -1.85843E+005    1.22012E+006
             755    1.17771E+007    9.52751E+006    9.52751E+006   -9.74282E+005   -3.20565E+006    1.27332E+007   -1.78252E+006    1.12867E+007   -3.04017E+006    9.22660E+006   -8.38862E+005    1.29903E+006   -1.18688E+005    1.32649E+006
             756    1.20566E+007    9.19130E+006    9.19130E+006   -1.37552E+006   -3.94185E+006    1.31332E+007   -1.29131E+006    1.14176E+007   -3.76409E+006    8.88981E+006   -1.25179E+006    1.45557E+006   -4.38108E+004    1.20519E+006
             757    1.03167E+007    9.82875E+006    9.82875E+006    2.57158E+005   -1.09890E+006    1.09276E+007   -2.99567E+006    1.01133E+007   -9.18561E+005    9.76867E+006    1.36893E+005   -4.46110E+005   -4.13614E+005   -6.51278E+005
             758    1.10468E+007    1.05868E+007    1.05868E+007   -2.50261E+003   -8.66789E+005    1.14536E+007   -3.23917E+006    1.09704E+007   -5.22414E+005    1.05311E+007   -2.91121E+005   -3.68164E+005   -3.98143E+005   -7.01070E+005
             759    1.17798E+007    1.13747E+007    1.13747E+007   -6.52766E+004   -7.17662E+005    1.20924E+007   -3.53060E+006    1.17390E+007   -1.70195E+005    1.13340E+007   -5.71960E+005   -2.62853E+005   -2.30663E+005   -6.49895E+005
             760    1.25112E+007    1.20549E+007    1.20549E+007   -5.23362E+004   -8.24583E+005    1.28794E+007   -3.72598E+006    1.24574E+007   -7.59795E+004    1.20293E+007   -7.75380E+005   -2.03095E+005   -1.33146E+005   -5.35408E+005
             761    1.31583E+007    1.26264E+007    1.26264E+007    4.31528E+004   -1.03991E+006    1.36664E+007   -3.87656E+006    1.30574E+007    3.69914E+004    1.26123E+007   -1.01958E+006   -1.58851E+005   -8.85907E+004   -4.08619E+005
             762    1.36175E+007    1.30318E+007    1.30318E+007    8.52509E+004   -1.16973E+006    1.42016E+007   -3.98245E+006    1.34865E+007    8.56801E+004    1.30263E+007   -1.16458E+006   -1.36148E+005   -3.29171E+004   -2.43052E+005
             763    1.38660E+007    1.32411E+007    1.32411E+007    1.16028E+005   -1.26271E+006    1.45038E+007   -4.03149E+006    1.37105E+007    1.16919E+005    1.32394E+007   -1.26185E+006   -1.23657E+005   -1.85616E+004   -9.18799E+004
             764    1.01795E+007    9.84872E+006    9.84872E+006    3.72403E+005   -9.12095E+005    1.07608E+007   -3.10301E+006    9.99476E+006   -7.21135E+005    9.83546E+006    1.94705E+005   -1.99632E+005   -4.47621E+005   -3.10874E+005
             765    1.09138E+007    1.06220E+007    1.06220E+007    1.43740E+005   -6.80633E+005    1.13026E+007   -3.36170E+006    1.08434E+007   -3.42905E+005    1.06111E+007   -1.83073E+005   -1.38831E+005   -4.01233E+005   -3.19408E+005
             766    1.17204E+007    1.14309E+007    1.14309E+007    4.01075E+004   -5.93239E+005    1.20242E+007   -3.62594E+006    1.16818E+007   -6.15015E+004    1.14243E+007   -4.84957E+005   -7.64940E+004   -2.31165E+005   -2.72507E+005
             767    1.25357E+007    1.21612E+007    1.21612E+007    1.54098E+004   -7.31151E+005    1.28923E+007   -3.81514E+006    1.24856E+007   -9.62812E+003    1.21579E+007   -7.02884E+005   -4.29275E+004   -1.34114E+005   -1.99455E+005
             768    1.32316E+007    1.27616E+007    1.27616E+007    6.71457E+004   -9.48653E+005    1.37103E+007   -3.96003E+006    1.31435E+007    5.93151E+004    1.27604E+007   -9.39574E+005   -2.18404E+004   -8.88361E+004   -1.28949E+005
             769    1.37544E+007    1.32037E+007    1.32037E+007    7.20013E+004   -1.09871E+006    1.43024E+007   -4.05898E+006    1.36417E+007    7.11150E+004    1.32032E+007   -1.09738E+006   -1.15224E+004   -3.23149E+004   -7.83562E+004
             770    1.40276E+007    1.34317E+007    1.34317E+007    8.35902E+004   -1.18869E+006    1.46204E+007   -4.10886E+006    1.38969E+007    8.32761E+004    1.34316E+007   -1.18834E+006   -6.28197E+003   -2.00712E+004   -2.08817E+004
             771    1.01363E+007    9.82764E+006    9.82764E+006    4.04584E+005   -8.96240E+005    1.07239E+007   -3.11199E+006    9.94587E+006   -7.14458E+005    9.82760E+006    2.22839E+005    8.47751E+003   -4.51002E+005    1.73566E+004
             772    1.08703E+007    1.05608E+007    1.05608E+007    1.29536E+005   -7.00809E+005    1.12616E+007   -3.32985E+006    1.07986E+007   -3.82136E+005    1.05604E+007   -1.88736E+005    2.34408E+004   -4.03664E+005    6.22343E+004
             773    1.16563E+007    1.13470E+007    1.13470E+007   -2.95551E+002   -5.95389E+005    1.19424E+007   -3.58379E+006    1.16220E+007   -1.11519E+005    1.13460E+007   -4.83088E+005    3.40311E+004   -2.31757E+005    1.08176E+005
             774    1.24490E+007    1.20427E+007    1.20427E+007   -3.42951E+004   -7.47579E+005    1.27903E+007   -3.75362E+006    1.24029E+007   -6.08773E+004    1.20411E+007   -7.19337E+005    3.96148E+004   -1.34974E+005    1.40175E+005
             775    1.31369E+007    1.26282E+007    1.26282E+007    2.38980E+004   -9.83233E+005    1.36115E+007   -3.88963E+006    1.30496E+007    1.61910E+004    1.26267E+007   -9.74038E+005    4.28337E+004   -8.81280E+004    1.35390E+005
             776    1.36275E+007    1.30409E+007    1.30409E+007    3.97547E+004   -1.13670E+006    1.41776E+007   -3.98132E+006    1.35125E+007    3.89035E+004    1.30400E+007   -1.13495E+006    4.49235E+004   -3.40409E+004    1.03131E+005
             777    1.38910E+007    1.32563E+007    1.32563E+007    5.78078E+004   -1.23646E+006    1.44928E+007   -4.02590E+006    1.37543E+007    5.76763E+004    1.32561E+007   -1.23609E+006    4.63520E+004   -1.94031E+004    3.23090E+004
             778    1.01652E+007    9.81673E+006    9.81673E+006    3.70140E+005   -9.40092E+005    1.07568E+007   -3.08226E+006    9.97261E+006   -7.52412E+005    9.79926E+006    1.99929E+005    2.34866E+005   -4.46143E+005    3.52818E+005
             779    1.08902E+007    1.05661E+007    1.05661E+007    1.25359E+005   -7.23901E+005    1.12900E+007   -3.32251E+006    1.08153E+007   -3.89870E+005    1.05443E+007   -1.86883E+005    2.10606E+005   -4.05804E+005    4.44250E+005
             780    1.16964E+007    1.13728E+007    1.13728E+007    8.00260E+003   -6.29160E+005    1.20019E+007   -3.58387E+006    1.16572E+007   -1.02987E+005    1.13505E+007   -4.95923E+005    1.71244E+005   -2.36794E+005    4.86887E+005
             781    1.25248E+007    1.21163E+007    1.21163E+007   -1.50674E+004   -7.67987E+005    1.28843E+007   -3.77776E+006    1.24738E+007   -4.02363E+004    1.20972E+007   -7.23732E+005    1.50970E+005   -1.34359E+005    4.71734E+005
             782    1.32530E+007    1.27474E+007    1.27474E+007    4.47495E+004   -9.94700E+005    1.37421E+007   -3.93249E+006    1.31608E+007    3.82565E+004    1.27343E+007   -9.75103E+005    1.34477E+005   -8.61672E+004    4.01278E+005
             783    1.37941E+007    1.32135E+007    1.32135E+007    6.01513E+004   -1.14251E+006    1.43560E+007   -4.04373E+006    1.36754E+007    6.04696E+004    1.32075E+007   -1.13679E+006    1.25645E+005   -3.00525E+004    2.63599E+005
             784    1.40790E+007    1.34549E+007    1.34549E+007    7.66991E+004   -1.23336E+006    1.46882E+007   -4.09940E+006    1.39409E+007    7.75323E+004    1.34532E+007   -1.23251E+006    1.21348E+005   -1.78861E+004    9.22450E+004
             785    1.03159E+007    9.76835E+006    9.76835E+006    2.27503E+005   -1.17833E+006    1.09467E+007   -2.93918E+006    1.00970E+007   -1.00211E+006    9.70093E+006    1.18713E+005    4.80863E+005   -4.10612E+005    6.83735E+005
             786    1.10332E+007    1.05000E+007    1.05000E+007   -3.91476E+004   -9.68406E+005    1.14684E+007   -3.16416E+006    1.09446E+007   -6.43071E+005    1.04235E+007   -2.87966E+005    4.47517E+005   -4.05955E+005    8.10473E+005
             787    1.17792E+007    1.12752E+007    1.12752E+007   -1.64295E+005   -8.16538E+005    1.20917E+007   -3.43146E+006    1.17384E+007   -3.03853E+005    1.12027E+007   -6.04459E+005    3.79679E+005   -2.48553E+005    8.52725E+005
             788    1.25706E+007    1.20032E+007    1.20032E+007   -1.79214E+005   -9.22627E+005    1.29258E+007   -3.63379E+006    1.25210E+007   -2.06280E+005    1.19430E+007   -8.35305E+005    3.49099E+005   -1.39075E+005    8.07327E+005
             789    1.32728E+007    1.26272E+007    1.26272E+007   -9.33361E+004   -1.13644E+006    1.37636E+007   -3.79912E+006    1.31801E+007   -9.65006E+004    1.25865E+007   -1.09265E+006    3.30080E+005   -9.29429E+004    6.65684E+005
             790    1.37752E+007    1.30745E+007    1.30745E+007   -5.41929E+004   -1.26703E+006    1.43415E+007   -3.91775E+006    1.36543E+007   -4.78849E+004    1.30532E+007   -1.25206E+006    3.21935E+005   -3.32606E+004    4.38619E+005
             791    1.40458E+007    1.33086E+007    1.33086E+007   -2.56281E+004   -1.35426E+006    1.46629E+007   -3.97625E+006    1.39034E+007   -1.83740E+004    1.32994E+007   -1.35228E+006    3.20771E+005   -2.13304E+004    1.49331E+005
             792    1.06538E+007    9.82687E+006    9.82687E+006   -2.06232E+002   -1.49562E+006    1.13225E+007   -2.77701E+006    1.04137E+007   -1.31422E+006    9.68018E+006   -3.49175E+004    7.44303E+005   -3.58453E+005    1.00126E+006
             793    1.12830E+007    1.05190E+007    1.05190E+007   -2.16751E+005   -1.24147E+006    1.17604E+007   -3.02025E+006    1.11776E+007   -9.18984E+005    1.03671E+007   -3.87401E+005    7.01357E+005   -3.90330E+005    1.11275E+006
             794    1.20206E+007    1.13151E+007    1.13151E+007   -3.52487E+005   -1.02990E+006    1.23450E+007   -3.31091E+006    1.19776E+007   -5.30613E+005    1.11700E+007   -7.06631E+005    6.12136E+005   -2.53640E+005    1.18100E+006
             795    1.28448E+007    1.21085E+007    1.21085E+007   -3.74385E+005   -1.06991E+006    1.31784E+007   -3.55474E+006    1.28023E+007   -4.00995E+005    1.19925E+007   -9.27312E+005    5.62113E+005   -1.34372E+005    1.09351E+006
             796    1.35846E+007    1.27907E+007    1.27907E+007   -3.01358E+005   -1.23796E+006    1.40287E+007   -3.75046E+006    1.35117E+007   -2.95883E+005    1.27124E+007   -1.16512E+006    5.28991E+005   -8.54084E+004    8.94836E+005
             797    1.41480E+007    1.33095E+007    1.33095E+007   -2.72931E+005   -1.34320E+006    1.46527E+007   -3.89779E+006    1.40564E+007   -2.55329E+005    1.32668E+007   -1.31811E+006    5.16375E+005   -2.51453E+004    5.81421E+005
             798    1.44478E+007    1.35791E+007    1.35791E+007   -2.55184E+005   -1.41252E+006    1.49917E+007   -3.97047E+006    1.43429E+007   -2.36865E+005    1.35578E+007   -1.40952E+006    5.09587E+005   -1.63571E+004    1.95304E+005
             799    1.11716E+007    9.86660E+006    9.86660E+006   -3.48934E+005   -2.06302E+006    1.19296E+007   -2.48488E+006    1.08699E+007   -1.89114E+006    9.64038E+006   -2.94605E+005    1.03985E+006   -2.56120E+005    1.19029E+006
             800    1.16737E+007    1.04528E+007    1.04528E+007   -5.15400E+005   -1.81710E+006    1.22699E+007   -2.70678E+006    1.15087E+007   -1.51117E+006    1.01892E+007   -5.57706E+005    1.10128E+006   -3.50023E+005    1.36820E+006
             801    1.23074E+007    1.12002E+007    1.12002E+007   -6.90773E+005   -1.48530E+006    1.26855E+007   -3.00803E+006    1.22495E+007   -1.01728E+006    1.09368E+007   -8.95388E+005    1.06699E+006   -2.71724E+005    1.45825E+006
             802    1.29775E+007    1.19293E+007    1.19293E+007   -7.03445E+005   -1.36741E+006    1.32967E+007   -3.28616E+006    1.29392E+007   -7.53114E+005    1.17027E+007   -1.09113E+006    1.03360E+006   -1.56269E+005    1.37415E+006
             803    1.36145E+007    1.25891E+007    1.25891E+007   -5.62475E+005   -1.44547E+006    1.40345E+007   -3.52704E+006    1.35499E+007   -5.30147E+005    1.24199E+007   -1.30861E+006    1.00412E+006   -1.07638E+005    1.14101E+006
             804    1.40786E+007    1.30762E+007    1.30762E+007   -4.56587E+005   -1.49113E+006    1.45673E+007   -3.70950E+006    1.39927E+007   -3.93176E+005    1.29661E+007   -1.44438E+006    9.80879E+005   -3.72835E+004    7.52624E+005
             805    1.43459E+007    1.33425E+007    1.33425E+007   -4.06539E+005   -1.53367E+006    1.48762E+007   -3.80076E+006    1.42457E+007   -3.36493E+005    1.32666E+007   -1.52778E+006    9.87643E+005   -1.91194E+004    2.63830E+005
             806    1.17179E+007    9.93117E+006    9.93117E+006   -6.77933E+005   -2.64622E+006    1.25774E+007   -2.20234E+006    1.13370E+007   -2.50199E+006    9.64299E+006   -5.33994E+005    1.20401E+006   -9.50008E+004    1.34916E+006
             807    1.24648E+007    1.06702E+007    1.06702E+007   -8.15072E+005   -2.58486E+006    1.32551E+007   -2.42343E+006    1.21773E+007   -2.36661E+006    1.03487E+007   -7.11760E+005    1.38238E+006   -1.94652E+005    1.43172E+006
             808    1.31690E+007    1.13956E+007    1.13956E+007   -1.05491E+006   -2.39032E+006    1.37859E+007   -2.65011E+006    1.30154E+007   -2.08311E+006    1.10333E+007   -9.99816E+005    1.54814E+006   -2.18022E+005    1.53702E+006
             809    1.39808E+007    1.22102E+007    1.22102E+007   -1.25508E+006   -2.23461E+006    1.44448E+007   -2.90685E+006    1.39033E+007   -1.91439E+006    1.18450E+007   -1.21006E+006    1.70907E+006   -1.34271E+005    1.47437E+006
             810    1.47395E+007    1.29330E+007    1.29330E+007   -1.42204E+006   -2.16292E+006    1.50960E+007   -3.11603E+006    1.46975E+007   -1.81059E+006    1.25927E+007   -1.43400E+006    1.86118E+006   -1.13797E+005    1.24500E+006
             811    1.53312E+007    1.35114E+007    1.35114E+007   -1.57383E+006   -2.05448E+006    1.55659E+007   -3.29437E+006    1.53143E+007   -1.73665E+006    1.32079E+007   -1.58813E+006    1.98399E+006   -5.03308E+004    8.34369E+005
             812    1.57033E+007    1.38431E+007    1.38431E+007   -1.67740E+006   -2.03678E+006    1.58799E+007   -3.37630E+006    1.56940E+007   -1.74721E+006    1.35617E+007   -1.68556E+006    2.07435E+006   -2.97978E+004    2.93643E+005
             813    1.22712E+007    9.90201E+006    9.90201E+006   -1.17662E+006   -3.28777E+006    1.31898E+007   -1.81254E+006    1.18522E+007   -3.13690E+006    9.55117E+006   -9.76661E+005    1.35493E+006    2.94922E+004    1.50854E+006
             814    1.28748E+007    1.05757E+007    1.05757E+007   -1.07058E+006   -3.24950E+006    1.38252E+007   -2.08520E+006    1.24498E+007   -3.08680E+006    1.02113E+007   -8.68931E+005    1.46238E+006    7.47972E+004    1.53416E+006
             815    1.39276E+007    1.15362E+007    1.15362E+007   -1.24564E+006   -3.30723E+006    1.48435E+007   -2.32779E+006    1.35779E+007   -3.11061E+006    1.11464E+007   -1.05238E+006    1.64264E+006    3.87171E+004    1.60465E+006
             816    1.50355E+007    1.25735E+007    1.25735E+007   -1.32374E+006   -3.38710E+006    1.59606E+007   -2.62088E+006    1.47119E+007   -3.16271E+006    1.21784E+007   -1.15302E+006    1.85244E+006    9.37630E+004    1.54783E+006
             817    1.62218E+007    1.36467E+007    1.36467E+007   -1.41243E+006   -3.52974E+006    1.71764E+007   -2.90151E+006    1.59064E+007   -3.27890E+006    1.32788E+007   -1.29540E+006    2.03975E+006    7.87750E+004    1.34098E+006
             818    1.71989E+007    1.45456E+007    1.45456E+007   -1.45669E+006   -3.64115E+006    1.81868E+007   -3.14926E+006    1.68826E+007   -3.37101E+006    1.42228E+007   -1.40400E+006    2.19473E+006    7.98789E+004    9.18074E+005
             819    1.77939E+007    1.50772E+007    1.50772E+007   -1.48777E+006   -3.73262E+006    1.88098E+007   -3.28561E+006    1.74711E+007   -3.45305E+006    1.47912E+007   -1.48133E+006    2.27493E+006    2.01124E+004    3.31407E+005
             820    1.98935E+007    1.54550E+007    1.54550E+007   -1.24366E+006   -6.55524E+006    2.20102E+007   -2.55203E+006    1.81928E+007   -6.32191E+006    1.52109E+007   -1.23295E+006    2.25168E+006    8.92357E+004    4.23265E+005
             821    1.90365E+007    1.46784E+007    1.46784E+007   -1.36076E+006   -6.35829E+006    2.10367E+007   -2.31979E+006    1.74668E+007   -6.11689E+006    1.43548E+007   -1.27854E+006    2.22468E+006    2.33795E+005    1.14372E+006
             822    1.76241E+007    1.34476E+007    1.34476E+007   -1.48797E+006   -5.99127E+006    1.94389E+007   -1.98945E+006    1.62523E+007   -5.74284E+006    1.30316E+007   -1.32044E+006    2.15479E+006    3.17991E+005    1.56707E+006
             823    1.60726E+007    1.21707E+007    1.21707E+007   -1.57377E+006   -5.50187E+006    1.76725E+007   -1.69834E+006    1.49342E+007   -5.25875E+006    1.16980E+007   -1.34422E+006    2.03188E+006    3.17168E+005    1.74775E+006
             824    1.45767E+007    1.09874E+007    1.09874E+007   -1.54269E+006   -5.01045E+006    1.59979E+007   -1.47809E+006    1.36014E+007   -4.78488E+006    1.05122E+007   -1.29301E+006    1.86696E+006    2.68668E+005    1.73492E+006
             825    1.33924E+007    1.00728E+007    1.00728E+007   -1.51236E+006   -4.59088E+006    1.46636E+007   -1.32317E+006    1.25588E+007   -4.38654E+006    9.62695E+006   -1.27088E+006    1.70422E+006    1.83277E+005    1.64516E+006
             826    1.24860E+007    9.33307E+006    9.33307E+006   -1.39452E+006   -4.37277E+006    1.37058E+007   -1.18859E+006    1.16459E+007   -4.18350E+006    8.95655E+006   -1.20726E+006    1.57578E+006    7.28526E+004    1.41706E+006
             827    1.32744E+007    1.04912E+007    1.04912E+007   -1.52847E+006   -3.75601E+006    1.42472E+007   -1.73557E+006    1.28437E+007   -3.55073E+006    1.01244E+007   -1.36693E+006   -1.60486E+006    3.87985E+004    1.47914E+006
             828    1.20597E+007    9.94407E+006    9.94407E+006   -7.76566E+005   -3.11287E+006    1.30569E+007   -2.01821E+006    1.15340E+007   -2.95140E+006    9.55630E+006   -5.50276E+005   -1.34629E+006    3.67261E+004    1.61451E+006
             829    1.09274E+007    9.27103E+006    9.27103E+006   -3.58410E+005   -2.60503E+006    1.18761E+007   -2.10253E+006    1.03885E+007   -2.46428E+006    9.00189E+006   -2.30016E+005   -1.08700E+006    1.74968E+005    1.28114E+006
             830    1.01961E+007    9.07200E+006    9.07200E+006    1.42290E+005   -2.03779E+006    1.11098E+007   -2.39217E+006    9.65056E+006   -1.91678E+006    8.92128E+006    1.71996E+005   -8.17049E+005    2.89758E+005    9.15979E+005
             831    1.06819E+007    9.92577E+006    9.92577E+006    4.64239E+003   -1.38162E+006    1.13074E+007   -2.84960E+006    1.04767E+007   -1.19070E+006    9.78770E+006   -4.82132E+004   -6.92024E+005    3.67575E+005    9.95624E+005
             832    1.13581E+007    1.07057E+007    1.07057E+007   -1.67050E+005   -1.08231E+006    1.17880E+007   -3.15212E+006    1.12747E+007   -7.31999E+005    1.05825E+007   -3.94189E+005   -5.93005E+005    3.84636E+005    1.03223E+006
             833    1.20471E+007    1.14708E+007    1.14708E+007   -2.28652E+005   -8.96174E+005    1.23670E+007   -3.44867E+006    1.20054E+007   -3.52298E+005    1.13743E+007   -6.75969E+005   -4.48990E+005    2.35547E+005    9.91489E+005
             834    1.28261E+007    1.22127E+007    1.22127E+007   -2.32051E+005   -9.63356E+005    1.31761E+007   -3.67243E+006    1.27790E+007   -2.54659E+005    1.21446E+007   -8.72690E+005   -3.64012E+005    1.27306E+005    8.70568E+005
             835    1.35161E+007    1.28363E+007    1.28363E+007   -1.66756E+005   -1.14022E+006    1.39765E+007   -3.84310E+006    1.34369E+007   -1.69779E+005    1.27967E+007   -1.09759E+006   -3.17078E+005    8.56525E+004    6.68476E+005
             836    1.40339E+007    1.32904E+007    1.32904E+007   -1.58444E+005   -1.26328E+006    1.45537E+007   -3.95623E+006    1.39356E+007   -1.53099E+005    1.32710E+007   -1.24924E+006   -2.96134E+005    2.66426E+004    4.32958E+005
             837    1.43050E+007    1.35254E+007    1.35254E+007   -1.47564E+005   -1.33737E+006    1.48628E+007   -4.01349E+006    1.41931E+007   -1.41875E+005    1.35180E+007   -1.33567E+006   -2.88185E+005    1.85421E+004    1.39702E+005
             838    1.12605E+007    1.00812E+007    1.00812E+007   -3.01786E+005   -1.88851E+006    1.19697E+007   -2.63030E+006    1.10048E+007   -1.70090E+006    9.84265E+006   -2.50839E+005   -1.04514E+006    2.65598E+005    1.25075E+006
             839    1.16306E+007    1.05972E+007    1.05972E+007   -4.38778E+005   -1.54852E+006    1.21457E+007   -2.86997E+006    1.15106E+007   -1.19950E+006    1.03681E+007   -5.58725E+005   -1.00228E+006    3.64820E+005    1.29745E+006
             840    1.21515E+007    1.12938E+007    1.12938E+007   -4.66998E+005   -1.21390E+006    1.25077E+007   -3.20430E+006    1.20997E+007   -6.45795E+005    1.10852E+007   -8.26512E+005   -8.46530E+005    2.54090E+005    1.35961E+006
             841    1.28008E+007    1.20132E+007    1.20132E+007   -3.45424E+005   -1.18819E+006    1.32014E+007   -3.49319E+006    1.27382E+007   -3.64359E+005    1.18592E+007   -1.01524E+006   -7.09879E+005    1.47304E+005    1.22333E+006
             842    1.34053E+007    1.26278E+007    1.26278E+007   -1.53141E+005   -1.32485E+006    1.39527E+007   -3.71661E+006    1.32893E+007   -1.43842E+005    1.25304E+007   -1.23669E+006   -5.90233E+005    9.91161E+004    9.91020E+005
             843    1.38515E+007    1.30922E+007    1.30922E+007   -2.83076E+004   -1.38972E+006    1.44819E+007   -3.89138E+006    1.36997E+007   -1.14942E+004    1.30455E+007   -1.35991E+006   -5.08432E+005    3.91672E+004    6.24979E+005
             844    1.40927E+007    1.33333E+007    1.33333E+007    4.09719E+004   -1.44239E+006    1.47757E+007   -3.97730E+006    1.39154E+007    5.61306E+004    1.33143E+007   -1.43850E+006   -4.56899E+005    2.13891E+004    2.22460E+005
             845    1.20106E+007    1.02612E+007    1.02612E+007   -7.00360E+005   -2.57743E+006    1.28387E+007   -2.32781E+006    1.16738E+007   -2.41375E+006    9.99388E+006   -5.96686E+005   -1.26604E+006    1.33261E+005    1.25009E+006
             846    1.23677E+007    1.07076E+007    1.07076E+007   -7.22642E+005   -2.42190E+006    1.31295E+007   -2.52102E+006    1.21009E+007   -2.16539E+006    1.03836E+007   -6.55174E+005   -1.40356E+006    2.50736E+005    1.42074E+006
             847    1.30329E+007    1.14518E+007    1.14518E+007   -1.00531E+006   -2.08919E+006    1.35410E+007   -2.78576E+006    1.29309E+007   -1.72646E+006    1.11027E+007   -1.01890E+006   -1.48803E+006    2.44509E+005    1.53019E+006
             848    1.36689E+007    1.21360E+007    1.21360E+007   -1.18269E+006   -1.85807E+006    1.39940E+007   -3.03173E+006    1.36312E+007   -1.45845E+006    1.18119E+007   -1.25821E+006   -1.53893E+006    1.57410E+005    1.43461E+006
             849    1.42583E+007    1.27697E+007    1.27697E+007   -1.22188E+006   -1.74113E+006    1.45109E+007   -3.26891E+006    1.42370E+007   -1.22363E+006    1.24962E+007   -1.46587E+006   -1.58835E+006    1.17417E+005    1.16528E+006
             850    1.46769E+007    1.32198E+007    1.32198E+007   -1.21351E+006   -1.68924E+006    1.49090E+007   -3.43901E+006    1.46596E+007   -1.07290E+006    1.29964E+007   -1.60644E+006   -1.62298E+006    5.17952E+004    7.67360E+005
             851    1.48868E+007    1.34509E+007    1.34509E+007   -1.16745E+006   -1.69046E+006    1.51414E+007   -3.53101E+006    1.48661E+007   -9.87579E+005    1.32611E+007   -1.68051E+006   -1.63688E+006    2.58450E+004    2.56517E+005
             852    1.21525E+007    9.98318E+006    9.98318E+006   -8.65451E+005   -3.14910E+006    1.31323E+007   -1.98954E+006    1.16550E+007   -3.00352E+006    9.61635E+006   -6.44196E+005   -1.33533E+006   -4.60925E+004    1.55706E+006
             853    1.31238E+007    1.08395E+007    1.08395E+007   -1.22872E+006   -3.13201E+006    1.39715E+007   -2.15959E+006    1.28077E+007   -2.96645E+006    1.04772E+007   -1.03200E+006   -1.43590E+006   -3.63846E+003    1.58958E+006
             854    1.39408E+007    1.16244E+007    1.16244E+007   -1.36542E+006   -3.10427E+006    1.47287E+007   -2.38490E+006    1.36936E+007   -2.90401E+006    1.12391E+007   -1.18043E+006   -1.60875E+006    2.97941E+003    1.62884E+006
             855    1.49788E+007    1.26810E+007    1.26810E+007   -1.40943E+006   -3.05105E+006    1.57320E+007   -2.74016E+006    1.47744E+007   -2.82642E+006    1.23027E+007   -1.25580E+006   -1.80381E+006   -3.50030E+004    1.52809E+006
             856    1.59292E+007    1.36079E+007    1.36079E+007   -1.48173E+006   -3.04550E+006    1.66534E+007   -3.02690E+006    1.57551E+007   -2.79697E+006    1.32574E+007   -1.37974E+006   -1.97369E+006   -3.46409E+004    1.29763E+006
             857    1.66795E+007    1.43528E+007    1.43528E+007   -1.52046E+006   -3.03029E+006    1.73831E+007   -3.26734E+006    1.65247E+007   -2.76798E+006    1.40459E+007   -1.47593E+006   -2.10407E+006   -3.91129E+004    8.69332E+005
             858    1.70983E+007    1.47487E+007    1.47487E+007   -1.56299E+006   -3.04022E+006    1.77889E+007   -3.38184E+006    1.69538E+007   -2.76865E+006    1.44716E+007   -1.55746E+006   -2.17806E+006   -8.25821E+003    3.19026E+005
             859    1.96825E+007    1.54160E+007    1.54160E+007   -1.24774E+006   -6.30028E+006    2.17163E+007   -2.62265E+006    1.81354E+007   -6.06003E+006    1.51655E+007   -1.23753E+006   -2.26973E+006   -7.92070E+004    4.11386E+005
             860    1.88768E+007    1.46606E+007    1.46606E+007   -1.33715E+006   -6.15964E+006    2.08202E+007   -2.38792E+006    1.74080E+007   -5.91239E+006    1.43384E+007   -1.26228E+006   -2.24276E+006   -2.13934E+005    1.08835E+006
             861    1.75880E+007    1.35167E+007    1.35167E+007   -1.44634E+006   -5.85678E+006    1.93735E+007   -2.07119E+006    1.62726E+007   -5.60454E+006    1.31142E+007   -1.29611E+006   -2.17410E+006   -2.87165E+005    1.48373E+006
             862    1.60450E+007    1.21771E+007    1.21771E+007   -1.56191E+006   -5.45677E+006    1.76339E+007   -1.71949E+006    1.49248E+007   -5.20802E+006    1.17218E+007   -1.35534E+006   -2.05698E+006   -2.96896E+005    1.65813E+006
             863    1.45992E+007    1.09565E+007    1.09565E+007   -1.63283E+006   -5.04734E+006    1.60038E+007   -1.42545E+006    1.36568E+007   -4.81574E+006    1.05104E+007   -1.41835E+006   -1.89492E+006   -2.49199E+005    1.61382E+006
             864    1.32721E+007    9.74009E+006    9.74009E+006   -1.76750E+006   -4.77899E+006    1.45191E+007   -1.06453E+006    1.24681E+007   -4.56668E+006    9.34295E+006   -1.58267E+006   -1.73080E+006   -1.52758E+005    1.43943E+006
             865    1.31112E+007    9.57239E+006    9.57239E+006   -2.18335E+006   -4.56714E+006    1.41395E+007   -9.40636E+005    1.26097E+007   -4.34881E+006    9.24995E+006   -2.07924E+006   -1.68700E+006    2.81822E+004    1.17600E+006
             866    1.78067E+007    1.50835E+007    1.50835E+007   -1.48727E+006   -3.74398E+006    1.88275E+007   -3.28409E+006    1.74807E+007   -3.46457E+006    1.47972E+007   -1.48036E+006    2.27534E+006   -2.16947E+004   -3.42796E+005
             867    1.57157E+007    1.38488E+007    1.38488E+007   -1.67647E+006   -2.05059E+006    1.58994E+007   -3.37393E+006    1.57057E+007   -1.76021E+006    1.35660E+007   -1.68396E+006    2.07917E+006    2.89555E+004   -3.07751E+005
             868    1.43472E+007    1.33404E+007    1.33404E+007   -4.13611E+005   -1.53427E+006    1.48746E+007   -3.79750E+006    1.42482E+007   -3.42879E+005    1.32629E+007   -1.52753E+006    9.94334E+005    2.14229E+004   -2.80102E+005
             869    1.44390E+007    1.35704E+007    1.35704E+007   -2.55788E+005   -1.41188E+006    1.49823E+007   -3.96758E+006    1.43343E+007   -2.37487E+005    1.35485E+007   -1.40823E+006    5.10517E+005    1.78983E+004   -2.15267E+005
             870    1.40398E+007    1.33035E+007    1.33035E+007   -2.61715E+004   -1.35224E+006    1.46558E+007   -3.97504E+006    1.38978E+007   -1.89270E+004    1.32941E+007   -1.35001E+006    3.20269E+005    2.06999E+004   -1.61637E+005
             871    1.40737E+007    1.34502E+007    1.34502E+007    7.63151E+004   -1.23199E+006    1.46822E+007   -4.09818E+006    1.39359E+007    7.71286E+004    1.34485E+007   -1.23104E+006    1.20840E+005    1.81871E+004   -9.95258E+004
             872    1.38884E+007    1.32545E+007    1.32545E+007    5.76015E+004   -1.23510E+006    1.44896E+007   -4.02566E+006    1.37521E+007    5.74881E+004    1.32542E+007   -1.23474E+006    4.61635E+004    1.87264E+004   -3.49944E+004
             873    1.40264E+007    1.34303E+007    1.34303E+007    8.34361E+004   -1.18896E+006    1.46192E+007   -4.10825E+006    1.38956E+007    8.30873E+004    1.34302E+007   -1.18858E+006   -6.93600E+003    2.11630E+004    1.95853E+004
             874    1.38686E+007    1.32433E+007    1.32433E+007    1.15703E+005   -1.26331E+006    1.45066E+007   -4.03188E+006    1.37131E+007    1.16622E+005    1.32415E+007   -1.26251E+006   -1.24386E+005    1.80587E+004    8.90072E+004
             875    1.72012E+007    1.45383E+007    1.45383E+007   -1.45253E+006   -3.66012E+006    1.81985E+007   -3.14189E+006    1.68781E+007   -3.39023E+006    1.42141E+007   -1.39819E+006    2.19448E+006   -8.21652E+004   -9.31456E+005
             876    1.53374E+007    1.35068E+007    1.35068E+007   -1.57196E+006   -2.07680E+006    1.55836E+007   -3.28600E+006    1.53187E+007   -1.75884E+006    1.32005E+007   -1.58362E+006    1.98763E+006    5.16031E+004   -8.53289E+005
             877    1.40636E+007    1.30569E+007    1.30569E+007   -4.66845E+005   -1.49047E+006    1.45474E+007   -3.69987E+006    1.39794E+007   -4.03722E+005    1.29434E+007   -1.44005E+006    9.85761E+005    4.03848E+004   -7.77188E+005
             878    1.41202E+007    1.32849E+007    1.32849E+007   -2.72913E+005   -1.33739E+006    1.46223E+007   -3.89155E+006    1.40295E+007   -2.55510E+005    1.32410E+007   -1.31084E+006    5.14436E+005    2.54189E+004   -5.97787E+005
             879    1.37528E+007    1.30558E+007    1.30558E+007   -5.36575E+004   -1.26076E+006    1.43166E+007   -3.91379E+006    1.36328E+007   -4.76656E+004    1.30340E+007   -1.24491E+006    3.18800E+005    3.53108E+004   -4.49646E+005
             880    1.37790E+007    1.32019E+007    1.32019E+007    6.04182E+004   -1.13665E+006    1.43385E+007   -4.04188E+006    1.36613E+007    6.07221E+004    1.31958E+007   -1.13088E+006    1.24090E+005    2.97300E+004   -2.65383E+005
             881    1.36213E+007    1.30355E+007    1.30355E+007    3.93542E+004   -1.13489E+006    1.41704E+007   -3.97998E+006    1.35067E+007    3.84618E+004    1.30346E+007   -1.13310E+006    4.40330E+004    3.46092E+004   -1.03286E+005
             882    1.37542E+007    1.32037E+007    1.32037E+007    7.25226E+004   -1.09870E+006    1.43024E+007   -4.05917E+006    1.36414E+007    7.16245E+004    1.32032E+007   -1.09733E+006   -1.22191E+004    3.25516E+004    8.07685E+004
             883    1.36241E+007    1.30362E+007    1.30362E+007    8.40174E+004   -1.17270E+006    1.42089E+007   -3.98250E+006    1.34927E+007    8.45381E+004    1.30305E+007   -1.16755E+006   -1.39032E+005    3.23304E+004    2.43824E+005
             884    1.61911E+007    1.36138E+007    1.36138E+007   -1.40695E+006   -3.53683E+006    1.71506E+007   -2.89001E+006    1.58713E+007   -3.28643E+006    1.32448E+007   -1.28834E+006    2.03667E+006   -8.05163E+004   -1.34726E+006
             885    1.46992E+007    1.28950E+007    1.28950E+007   -1.41217E+006   -2.16719E+006    1.50622E+007   -3.10522E+006    1.46555E+007   -1.81465E+006    1.25532E+007   -1.42293E+006    1.85112E+006    1.17141E+005   -1.26295E+006
             886    1.35672E+007    1.25475E+007    1.25475E+007   -5.59080E+005   -1.43761E+006    1.39851E+007   -3.51695E+006    1.35030E+007   -5.30360E+005    1.23766E+007   -1.29538E+006    9.92492E+005    1.10695E+005   -1.15895E+006
             887    1.35331E+007    1.27491E+007    1.27491E+007   -2.97870E+005   -1.22256E+006    1.39717E+007   -3.74291E+006    1.34617E+007   -2.93603E+005    1.26705E+007   -1.14814E+006    5.19036E+005    8.66774E+004   -9.01444E+005
             888    1.32347E+007    1.25980E+007    1.25980E+007   -8.95341E+004   -1.12316E+006    1.37212E+007   -3.79511E+006    1.31434E+007   -9.37357E+004    1.25579E+007   -1.07878E+006    3.21892E+005    9.57622E+004   -6.64056E+005
             889    1.32325E+007    1.27323E+007    1.27323E+007    4.60972E+004   -9.86147E+005    1.37184E+007   -3.93074E+006    1.31415E+007    3.93800E+004    1.27197E+007   -9.66890E+005    1.28847E+005    8.67185E+004   -3.93122E+005
             890    1.31309E+007    1.26237E+007    1.26237E+007    2.38295E+004   -9.80560E+005    1.36043E+007   -3.88899E+006    1.30441E+007    1.59620E+004    1.26224E+007   -9.71382E+005    3.94921E+004    8.88383E+004   -1.27285E+005
             891    1.32372E+007    1.27655E+007    1.27655E+007    6.73782E+004   -9.51797E+005    1.37173E+007   -3.96037E+006    1.31485E+007    5.96241E+004    1.27641E+007   -9.42636E+005   -2.51192E+004    8.85744E+004    1.36567E+005
             892    1.31719E+007    1.26373E+007    1.26373E+007    4.35132E+004   -1.04502E+006    1.36823E+007   -3.87861E+006    1.30701E+007    3.77603E+004    1.26228E+007   -1.02475E+006   -1.62305E+005    8.68068E+004    4.13100E+005
             893    1.49818E+007    1.25261E+007    1.25261E+007   -1.32052E+006   -3.37830E+006    1.59044E+007   -2.60908E+006    1.46588E+007   -3.15493E+006    1.21309E+007   -1.14869E+006    1.84378E+006   -9.13441E+004   -1.55115E+006
             894    1.39016E+007    1.21467E+007    1.21467E+007   -1.23790E+006   -2.21981E+006    1.43666E+007   -2.89634E+006    1.38233E+007   -1.89937E+006    1.17836E+007   -1.19516E+006    1.68661E+006    1.40739E+005   -1.48090E+006
             895    1.29001E+007    1.18695E+007    1.18695E+007   -6.82988E+005   -1.35216E+006    1.32216E+007   -3.27811E+006    1.28609E+007   -7.40608E+005    1.16448E+007   -1.06982E+006    1.00895E+006    1.62588E+005   -1.37790E+006
             896    1.27802E+007    1.20610E+007    1.20610E+007   -3.63395E+005   -1.04745E+006    1.31085E+007   -3.55007E+006    1.27389E+007   -3.93278E+005    1.19478E+007   -9.04281E+005    5.44792E+005    1.37407E+005   -1.08288E+006
             897    1.25289E+007    1.19738E+007    1.19738E+007   -1.71259E+005   -9.06636E+005    1.28804E+007   -3.63196E+006    1.24802E+007   -2.00350E+005    1.19158E+007   -8.19561E+005    3.37737E+005    1.42111E+005   -7.92522E+005
             898    1.25084E+007    1.21063E+007    1.21063E+007   -1.15662E+004   -7.59076E+005    1.28654E+007   -3.77856E+006    1.24580E+007   -3.70861E+004    1.20886E+007   -7.15886E+005    1.43658E+005    1.34749E+005   -4.54096E+005
             899    1.24504E+007    1.20440E+007    1.20440E+007   -3.40770E+004   -7.48092E+005    1.27921E+007   -3.75394E+006    1.24043E+007   -6.06390E+004    1.20426E+007   -7.20152E+005    3.57288E+004    1.35018E+005   -1.27860E+005
             900    1.25498E+007    1.21732E+007    1.21732E+007    1.54150E+004   -7.34897E+005    1.29081E+007   -3.81790E+006    1.24992E+007   -8.80082E+003    1.21697E+007   -7.07149E+005   -4.58954E+004    1.32291E+005    2.08491E+005
             901    1.25305E+007    1.20709E+007    1.20709E+007   -5.16966E+004   -8.31074E+005    1.29020E+007   -3.72937E+006    1.24757E+007   -7.41829E+004    1.20454E+007   -7.83059E+005   -2.03563E+005    1.30865E+005    5.35353E+005
             902    1.38649E+007    1.14867E+007    1.14867E+007   -1.23810E+006   -3.28972E+006    1.47764E+007   -2.31962E+006    1.35171E+007   -3.09428E+006    1.10975E+007   -1.04434E+006    1.63136E+006   -3.50099E+004   -1.60537E+006
             903    1.30753E+007    1.13268E+007    1.13268E+007   -1.02968E+006   -2.36477E+006    1.36916E+007   -2.64412E+006    1.29206E+007   -2.05786E+006    1.09689E+007   -9.78715E+005    1.52331E+006    2.25926E+005   -1.53229E+006
             904    1.22218E+007    1.11424E+007    1.11424E+007   -6.58797E+005   -1.46041E+006    1.26028E+007   -3.00774E+006    1.21624E+007   -9.93901E+005    1.08857E+007   -8.68550E+005    1.03790E+006    2.79129E+005   -1.44399E+006
             905    1.19628E+007    1.12784E+007    1.12784E+007   -3.31817E+005   -1.00836E+006    1.22867E+007   -3.31273E+006    1.19196E+007   -5.16435E+005    1.11391E+007   -6.84510E+005    5.90519E+005    2.58147E+005   -1.15806E+006
             906    1.17506E+007    1.12593E+007    1.12593E+007   -1.52244E+005   -8.03430E+005    1.20627E+007   -3.43453E+006    1.17099E+007   -2.93736E+005    1.11908E+007   -5.93441E+005    3.66198E+005    2.50599E+005   -8.28915E+005
             907    1.16938E+007    1.13752E+007    1.13752E+007    1.36755E+004   -6.24574E+005    1.19998E+007   -3.58812E+006    1.16545E+007   -9.60361E+004    1.13548E+007   -4.94367E+005    1.61794E+005    2.36376E+005   -4.68198E+005
             908    1.16680E+007    1.13585E+007    1.13585E+007   -1.30263E+002   -5.96016E+005    1.19546E+007   -3.58746E+006    1.16337E+007   -1.07836E+005    1.13577E+007   -4.87473E+005    2.92254E+004    2.29129E+005   -9.56804E+004
             909    1.17435E+007    1.14517E+007    1.14517E+007    3.96185E+004   -5.97273E+005    1.20490E+007   -3.63136E+006    1.17046E+007   -5.72026E+004    1.14447E+007   -4.93423E+005   -7.92457E+004    2.27341E+005    2.79786E+005
             910    1.18084E+007    1.14017E+007    1.14017E+007   -6.35362E+004   -7.22303E+005    1.21240E+007   -3.53862E+006    1.17670E+007   -1.63452E+005    1.13612E+007   -5.81855E+005   -2.62072E+005    2.27619E+005    6.48897E+005
             911    1.28215E+007    1.05376E+007    1.05376E+007   -1.06117E+006   -3.23004E+006    1.37676E+007   -2.08212E+006    1.23987E+007   -3.06873E+006    1.01753E+007   -8.60189E+005    1.45158E+006   -7.04655E+004   -1.53006E+006
             912    1.23911E+007    1.06233E+007    1.06233E+007   -7.90672E+005   -2.55568E+006    1.31790E+007   -2.42564E+006    1.21034E+007   -2.33866E+006    1.03074E+007   -6.91811E+005    1.36225E+006    2.02157E+005   -1.41900E+006
             913    1.16058E+007    1.04130E+007    1.04130E+007   -4.86339E+005   -1.78922E+006    1.22023E+007   -2.71250E+006    1.14395E+007   -1.48381E+006    1.01566E+007   -5.35335E+005    1.07806E+006    3.56930E+005   -1.34993E+006
             914    1.12507E+007    1.05050E+007    1.05050E+007   -1.97245E+005   -1.22386E+006    1.17289E+007   -3.02796E+006    1.11446E+007   -9.01285E+005    1.03593E+007   -3.74138E+005    6.81555E+005    3.95091E+005   -1.09152E+006
             915    1.10267E+007    1.05018E+007    1.05018E+007   -3.22386E+004   -9.59031E+005    1.14608E+007   -3.17017E+006    1.09385E+007   -6.31078E+005    1.04283E+007   -2.86717E+005    4.36685E+005    4.07630E+005   -7.95122E+005
             916    1.09039E+007    1.05828E+007    1.05828E+007    1.24636E+005   -7.17963E+005    1.13007E+007   -3.32982E+006    1.08303E+007   -3.78894E+005    1.05621E+007   -1.93751E+005    2.03542E+005    4.04744E+005   -4.34013E+005
             917    1.08973E+007    1.05867E+007    1.05867E+007    1.22837E+005   -6.97582E+005    1.12843E+007   -3.33733E+006    1.08275E+007   -3.72523E+005    1.05864E+007   -2.01854E+005    2.20614E+004    4.01151E+005   -5.97938E+004
             918    1.09394E+007    1.06469E+007    1.06469E+007    1.36801E+005   -6.76379E+005    1.13233E+007   -3.36910E+006    1.08711E+007   -3.33438E+005    1.06360E+007   -1.95271E+005   -1.38094E+005    3.97476E+005    3.19440E+005
             919    1.10694E+007    1.06100E+007    1.06100E+007   -6.33043E+003   -8.62779E+005    1.14728E+007   -3.24696E+006    1.09945E+007   -5.13448E+005    1.05542E+007   -2.99847E+005   -3.66673E+005    3.96215E+005    7.03307E+005
             920    1.22365E+007    9.87760E+006    9.87760E+006   -1.16378E+006   -3.27833E+006    1.31559E+007   -1.81183E+006    1.18149E+007   -3.12798E+006    9.52762E+006   -9.64160E+005    1.35026E+006   -2.81097E+004   -1.50522E+006
             921    1.16734E+007    9.90438E+006    9.90438E+006   -6.60716E+005   -2.62751E+006    1.25319E+007   -2.20539E+006    1.12916E+007   -2.48386E+006    9.62063E+006   -5.20607E+005    1.19273E+006    1.02025E+005   -1.33678E+006
             922    1.11350E+007    9.85098E+006    9.85098E+006   -3.30023E+005   -2.04016E+006    1.18911E+007   -2.49360E+006    1.08336E+007   -1.86849E+006    9.62906E+006   -2.79779E+005    1.02972E+006    2.60424E+005   -1.17651E+006
             923    1.06368E+007    9.82286E+006    9.82286E+006    9.25146E+003   -1.48016E+006    1.13030E+007   -2.78398E+006    1.03983E+007   -1.29858E+006    9.67921E+006   -2.86782E+004    7.33757E+005    3.61138E+005   -9.91906E+005
             924    1.03186E+007    9.77688E+006    9.77688E+006    2.27528E+005   -1.16870E+006    1.09456E+007   -2.94524E+006    1.01028E+007   -9.91151E+005    9.71068E+006    1.16180E+005    4.75678E+005    4.11673E+005   -6.78363E+005
             925    1.01793E+007    9.83377E+006    9.83377E+006    3.65583E+005   -9.32160E+005    1.07659E+007   -3.08906E+006    9.99064E+006   -7.41445E+005    9.81638E+006    1.92256E+005    2.32811E+005    4.46897E+005   -3.53347E+005
             926    1.01547E+007    9.84775E+006    9.84775E+006    3.95892E+005   -8.87714E+005    1.07355E+007   -3.11864E+006    9.96972E+006   -7.02955E+005    9.84772E+006    2.11169E+005    1.00851E+004    4.50555E+005   -1.64882E+004
             927    1.01959E+007    9.86896E+006    9.86896E+006    3.67506E+005   -9.02446E+005    1.07714E+007   -3.11134E+006    1.00157E+007   -7.08595E+005    9.85565E+006    1.86962E+005   -1.97843E+005    4.47550E+005    3.13036E+005
             928    1.03321E+007    9.84611E+006    9.84611E+006    2.51465E+005   -1.09208E+006    1.09382E+007   -3.00183E+006    1.01328E+007   -9.09141E+005    9.78586E+006    1.28772E+005   -4.44615E+005    4.14465E+005    6.54454E+005
             929    9.85710E+006    9.06483E+006    9.06483E+006    3.85206E+005   -1.65153E+006    1.07164E+007   -2.59950E+006    9.36595E+006   -1.54884E+006    9.00460E+006    3.42749E+005   -5.40465E+005    3.56670E+005    5.51913E+005
             930    9.70372E+006    9.11253E+006    9.11253E+006    5.11838E+005   -1.40740E+006    1.05199E+007   -2.73899E+006    9.26215E+006   -1.31474E+006    9.09882E+006    4.32886E+005   -2.71408E+005    3.89911E+005    2.50112E+005
             931    9.69010E+006    9.14146E+006    9.14146E+006    5.07011E+005   -1.33878E+006    1.04802E+007   -2.76990E+006    9.28214E+006   -1.25132E+006    9.14146E+006    4.19557E+005    2.86937E+003    3.92147E+005   -5.45460E+003
             932    9.71202E+006    9.10927E+006    9.10927E+006    5.03759E+005   -1.42102E+006    1.05303E+007   -2.73067E+006    9.26820E+006   -1.32808E+006    9.09517E+006    4.24921E+005    2.80484E+005    3.89892E+005   -2.48912E+005
             933    9.87203E+006    9.05897E+006    9.05897E+006    3.72677E+005   -1.67699E+006    1.07360E+007   -2.58489E+006    9.37519E+006   -1.57395E+006    8.99652E+006    3.32090E+005    5.52337E+005    3.54902E+005   -5.60877E+005
             934    1.02238E+007    9.05263E+006    9.05263E+006    9.01597E+004   -2.08313E+006    1.11358E+007   -2.35322E+006    9.68346E+006   -1.96096E+006    8.90964E+006    1.10971E+005    8.15705E+005    2.96455E+005   -8.80843E+005
             935    1.09158E+007    9.26806E+006    9.26806E+006   -3.45679E+005   -2.59834E+006    1.18664E+007   -2.10801E+006    1.03733E+007   -2.45953E+006    9.02196E+006   -2.38389E+005    1.06886E+006    1.89896E+005   -1.20601E+006
             936    1.17428E+007    9.51524E+006    9.51524E+006   -9.49083E+005   -3.18460E+006    1.26998E+007   -1.79385E+006    1.12490E+007   -3.02010E+006    9.21900E+006   -8.17342E+005    1.29040E+006    1.23165E+005   -1.31199E+006
             937    1.20319E+007    9.18153E+006    9.18153E+006   -1.36058E+006   -3.92622E+006    1.31078E+007   -1.29824E+006    1.13918E+007   -3.74986E+006    8.87923E+006   -1.23464E+006    1.44778E+006    4.35555E+004   -1.21339E+006
             938    1.99004E+007    1.54654E+007    1.54654E+007   -1.24270E+006   -6.55078E+006    2.20162E+007   -2.55730E+006    1.82027E+007   -6.31758E+006    1.52214E+007   -1.23193E+006    2.25145E+006   -8.86129E+004   -4.24558E+005
             939    1.90395E+007    1.46762E+007    1.46762E+007   -1.35869E+006   -6.36677E+006    2.10429E+007   -2.31690E+006    1.74630E+007   -6.12562E+006    1.43520E+007   -1.27563E+006    2.22375E+006   -2.35047E+005   -1.14938E+006
             940    1.76119E+007    1.34359E+007    1.34359E+007   -1.48344E+006   -5.99203E+006    1.94280E+007   -1.98682E+006    1.62356E+007   -5.74387E+006    1.30185E+007   -1.31417E+006    2.15261E+006   -3.19981E+005   -1.57429E+006
             941    1.60337E+007    1.21409E+007    1.21409E+007   -1.56647E+006   -5.49051E+006    1.76314E+007   -1.69464E+006    1.48947E+007   -5.24751E+006    1.16670E+007   -1.33554E+006    2.02886E+006   -3.17842E+005   -1.75043E+006
             942    1.45183E+007    1.09428E+007    1.09428E+007   -1.54073E+006   -4.98935E+006    1.59321E+007   -1.47090E+006    1.35500E+007   -4.76465E+006    1.04675E+007   -1.29012E+006    1.85962E+006   -2.66830E+005   -1.73475E+006
             943    1.33357E+007    1.00236E+007    1.00236E+007   -1.51522E+006   -4.57655E+006    1.46002E+007   -1.31061E+006    1.25079E+007   -4.37308E+006    9.58067E+006   -1.27576E+006    1.69673E+006   -1.77186E+005   -1.63586E+006
             944    1.24709E+007    9.31346E+006    9.31346E+006   -1.39593E+006   -4.37822E+006    1.36917E+007   -1.17977E+006    1.16273E+007   -4.18835E+006    8.93749E+006   -1.20983E+006    1.57546E+006   -6.50386E+004   -1.41434E+006
             945    1.72894E+007    1.45824E+007    1.45824E+007   -1.78928E+006   -3.49779E+006    1.80802E+007   -3.09845E+006    1.70979E+007   -3.24707E+006    1.43253E+007   -1.78292E+006   -2.11326E+006    2.26771E+004   -3.26028E+005
             946    1.55391E+007    1.38423E+007    1.38423E+007   -1.63426E+006   -1.75854E+006    1.56008E+007   -3.48317E+006    1.55380E+007   -1.50429E+006    1.37033E+007   -1.74947E+006   -1.43995E+006   -1.69235E+003   -2.47676E+005
             947    1.44073E+007    1.30952E+007    1.30952E+007   -8.55590E+005   -1.72889E+006    1.48241E+007   -3.50358E+006    1.43476E+007   -7.69157E+005    1.30046E+007   -1.72468E+006   -1.10280E+006   -1.71700E+004   -2.09582E+005
             948    1.37245E+007    1.28163E+007    1.28163E+007   -1.70471E+005   -1.54285E+006    1.43592E+007   -3.70100E+006    1.35689E+007   -1.58134E+005    1.28023E+007   -1.54114E+006   -4.05770E+005   -1.76687E+004   -1.40341E+005
             949    1.68644E+007    1.41787E+007    1.41787E+007   -1.74866E+006   -3.48792E+006    1.76666E+007   -2.98071E+006    1.66608E+007   -3.24145E+006    1.38830E+007   -1.69945E+006   -2.05951E+006    4.41181E+004   -9.05144E+005
             950    1.52694E+007    1.35600E+007    1.35600E+007   -1.60800E+006   -1.80887E+006    1.53689E+007   -3.38104E+006    1.52664E+007   -1.56496E+006    1.33908E+007   -1.68269E+006   -1.41965E+006   -3.05661E+004   -7.43383E+005
             951    1.41855E+007    1.28828E+007    1.28828E+007   -8.96994E+005   -1.67632E+006    1.45591E+007   -3.43650E+006    1.41372E+007   -8.27346E+005    1.27713E+007   -1.63445E+006   -1.10271E+006   -7.44134E+004   -5.81599E+005
             952    1.34874E+007    1.25948E+007    1.25948E+007   -2.16910E+005   -1.47949E+006    1.40743E+007   -3.63280E+006    1.33535E+007   -2.08883E+005    1.25667E+007   -1.45936E+006   -4.35520E+005   -7.76962E+004   -4.35752E+005
             953    1.60908E+007    1.34292E+007    1.34292E+007   -1.69875E+006   -3.47673E+006    1.69059E+007   -2.75124E+006    1.58675E+007   -3.24057E+006    1.30784E+007   -1.58409E+006   -1.95649E+006    6.46041E+004   -1.34127E+006
             954    1.47454E+007    1.30345E+007    1.30345E+007   -1.53020E+006   -1.88506E+006    1.49196E+007   -3.20642E+006    1.47358E+007   -1.67989E+006    1.28183E+007   -1.51915E+006   -1.37816E+006   -3.97290E+004   -1.12989E+006
             955    1.37503E+007    1.24586E+007    1.24586E+007   -9.82683E+005   -1.58122E+006    1.40398E+007   -3.29822E+006    1.37209E+007   -9.62920E+005    1.23099E+007   -1.45230E+006   -1.09772E+006   -1.18750E+005   -9.14908E+005
             956    1.30357E+007    1.21828E+007    1.21828E+007   -3.26743E+005   -1.32196E+006    1.35048E+007   -3.51137E+006    1.29498E+007   -3.30649E+005    1.21315E+007   -1.26672E+006   -4.90379E+005   -1.24379E+005   -6.62034E+005
             957    1.51494E+007    1.25151E+007    1.25151E+007   -1.63432E+006   -3.46753E+006    1.59826E+007   -2.47107E+006    1.48968E+007   -3.24284E+006    1.21235E+007   -1.46749E+006   -1.82395E+006    4.09663E+004   -1.58352E+006
             958    1.39876E+007    1.22626E+007    1.22626E+007   -1.39474E+006   -2.03351E+006    1.42961E+007   -2.94477E+006    1.39548E+007   -1.82961E+006    1.19938E+007   -1.32985E+006   -1.31557E+006   -7.96733E+004   -1.41598E+006
             959    1.31547E+007    1.18913E+007    1.18913E+007   -9.72506E+005   -1.53624E+006    1.34275E+007   -3.12751E+006    1.31275E+007   -1.12154E+006    1.17076E+007   -1.20352E+006   -1.08523E+006   -1.86658E+005   -1.12015E+006
             960    1.24519E+007    1.16243E+007    1.16243E+007   -4.25068E+005   -1.19434E+006    1.28187E+007   -3.33497E+006    1.23982E+007   -4.82041E+005    1.15417E+007   -1.05471E+006   -5.61047E+005   -1.99715E+005   -8.56674E+005
             961    1.40573E+007    1.14355E+007    1.14355E+007   -1.54660E+006   -3.49395E+006    1.49295E+007   -2.13165E+006    1.37489E+007   -3.28371E+006    1.10242E+007   -1.34554E+006   -1.68014E+006    1.78119E+004   -1.67295E+006
             962    1.31782E+007    1.14630E+007    1.14630E+007   -1.15431E+006   -2.21231E+006    1.36753E+007   -2.69879E+006    1.30821E+007   -2.03789E+006    1.11677E+007   -1.03341E+006   -1.25058E+006   -1.00121E+005   -1.50683E+006
             963    1.24827E+007    1.12092E+007    1.12092E+007   -8.26499E+005   -1.67703E+006    1.28862E+007   -2.90188E+006    1.24172E+007   -1.41227E+006    1.10004E+007   -8.82466E+005   -1.07019E+006   -2.41349E+005   -1.21499E+006
             964    1.18122E+007    1.09768E+007    1.09768E+007   -4.77377E+005   -1.16353E+006    1.21403E+007   -3.11197E+006    1.17672E+007   -7.84337E+005    1.08685E+007   -7.48237E+005   -6.49110E+005   -2.92578E+005   -9.37884E+005
             965    1.33097E+007    1.07171E+007    1.07171E+007   -1.42106E+006   -3.51566E+006    1.42328E+007   -1.92679E+006    1.29310E+007   -3.30982E+006    1.03110E+007   -1.22077E+006   -1.58730E+006   -3.34163E+004   -1.64818E+006
             966    1.23043E+007    1.06031E+007    1.06031E+007   -9.13171E+005   -2.36112E+006    1.29642E+007   -2.44293E+006    1.21104E+007   -2.21291E+006    1.02966E+007   -7.54872E+005   -1.19278E+006   -8.50517E+004   -1.49800E+006
             967    1.18608E+007    1.05738E+007    1.05738E+007   -6.41427E+005   -1.84138E+006    1.24152E+007   -2.69701E+006    1.17231E+007   -1.65972E+006    1.03667E+007   -6.15957E+005   -1.02263E+006   -2.27164E+005   -1.18543E+006
             968    1.11966E+007    1.03479E+007    1.03479E+007   -3.37499E+005   -1.29801E+006    1.16459E+007   -2.90412E+006    1.11033E+007   -1.08704E+006    1.02209E+007   -4.21492E+005   -7.07762E+005   -3.05755E+005   -9.64935E+005
             969    1.24477E+007    9.95098E+006    9.95098E+006   -9.36196E+005   -3.61962E+006    1.35706E+007   -1.79839E+006    1.17703E+007   -3.42773E+006    9.59719E+006   -7.74291E+005   -1.52051E+006   -5.29292E+004   -1.39924E+006
             970    1.20886E+007    1.01588E+007    1.01588E+007   -8.81769E+005   -2.75842E+006    1.29172E+007   -2.17286E+006    1.17542E+007   -2.59479E+006    9.88422E+006   -7.70864E+005   -1.25074E+006   -1.43083E+005   -1.30233E+006
             971    1.14283E+007    9.99653E+006    9.99653E+006   -4.76847E+005   -2.19258E+006    1.21891E+007   -2.44237E+006    1.11330E+007   -2.02979E+006    9.76544E+006   -4.08539E+005   -1.03628E+006   -2.40664E+005   -1.23514E+006
             972    1.06762E+007    9.65316E+006    9.65316E+006   -1.54720E+005   -1.71887E+006    1.13720E+007   -2.59319E+006    1.04138E+007   -1.55268E+006    9.50915E+006   -1.76894E+005   -7.73447E+005   -3.39240E+005   -9.66804E+005
             973    1.01429E+007    9.00210E+006    9.00210E+006    2.46967E+005   -2.11269E+006    1.11148E+007   -2.37879E+006    9.49547E+006   -2.02376E+006    8.86492E+006    2.95225E+005   -8.01865E+005   -2.05081E+005   -8.43403E+005
             974    1.09064E+007    9.27786E+006    9.27786E+006   -2.44267E+005   -2.62087E+006    1.18987E+007   -2.13757E+006    1.02993E+007   -2.51760E+006    9.03582E+006   -1.05509E+005   -1.00838E+006   -9.05042E+004   -1.21692E+006
             975    1.20510E+007    9.99362E+006    9.99362E+006   -5.87669E+005   -3.12344E+006    1.31171E+007   -2.09417E+006    1.14273E+007   -3.00164E+006    9.64717E+006   -3.63015E+005   -1.22317E+006    3.85146E+004   -1.54420E+006
             976    1.35319E+007    1.09560E+007    1.09560E+007   -1.21706E+006   -3.61437E+006    1.45703E+007   -2.04152E+006    1.30412E+007   -3.49173E+006    1.06879E+007   -1.07164E+006   -1.32043E+006    8.01125E+004   -1.32403E+006
             977    2.00141E+007    1.65183E+007    1.65183E+007   -9.93637E+005   -5.29766E+006    2.18159E+007   -3.40899E+006    1.89304E+007   -5.17024E+006    1.63822E+007   -9.84964E+005   -1.65986E+006    6.85583E+004   -3.93129E+005
             978    1.92096E+007    1.57011E+007    1.57011E+007   -1.08926E+006   -5.24686E+006    2.09479E+007   -3.12165E+006    1.81554E+007   -5.11251E+006    1.54983E+007   -1.02088E+006   -1.65352E+006    1.88958E+005   -1.07731E+006
             979    1.79346E+007    1.44622E+007    1.44622E+007   -1.19743E+006   -5.10341E+006    1.95656E+007   -2.72046E+006    1.69374E+007   -4.95957E+006    1.41826E+007   -1.06166E+006   -1.63048E+006    2.77332E+005   -1.46505E+006
             980    1.63951E+007    1.30024E+007    1.30024E+007   -1.32311E+006   -4.87881E+006    1.78812E+007   -2.26683E+006    1.54916E+007   -4.73040E+006    1.26776E+007   -1.14667E+006   -1.57159E+006    3.09120E+005   -1.59269E+006
             981    1.49635E+007    1.16989E+007    1.16989E+007   -1.41335E+006   -4.60188E+006    1.63008E+007   -1.89456E+006    1.41686E+007   -4.45829E+006    1.13798E+007   -1.23787E+006   -1.47285E+006    2.99048E+005   -1.51867E+006
             982    1.36852E+007    1.04787E+007    1.04787E+007   -1.53977E+006   -4.41615E+006    1.48948E+007   -1.50758E+006    1.29787E+007   -4.29070E+006    1.02269E+007   -1.41347E+006   -1.32251E+006    2.43653E+005   -1.23716E+006
             983    1.35555E+007    1.03842E+007    1.03842E+007   -1.84900E+006   -4.18899E+006    1.45731E+007   -1.44872E+006    1.30895E+007   -4.07813E+006    1.01993E+007   -1.77505E+006   -1.25214E+006    1.49328E+005   -9.50800E+005
             984    9.72064E+006    8.92304E+006    8.92304E+006    4.90906E+005   -1.70905E+006    1.06321E+007   -2.56830E+006    9.13499E+006   -1.63684E+006    8.86649E+006    4.75240E+005   -5.50795E+005   -2.80667E+005   -4.99169E+005
             985    9.52937E+006    8.93818E+006    8.93818E+006    6.22968E+005   -1.46057E+006    1.03987E+007   -2.70019E+006    8.99521E+006   -1.40114E+006    8.92496E+006    5.76766E+005   -2.85738E+005   -3.17699E+005   -2.19653E+005
             986    9.49339E+006    8.95361E+006    8.95361E+006    6.15054E+005   -1.37812E+006    1.03317E+007   -2.73018E+006    9.00439E+006   -1.32175E+006    8.95361E+006    5.58686E+005   -2.44562E+003   -3.30414E+005   -7.21632E+002
             987    9.53005E+006    8.93321E+006    8.93321E+006    6.14620E+005   -1.46488E+006    1.03981E+007   -2.69432E+006    8.99809E+006   -1.40621E+006    8.92066E+006    5.68507E+005    2.80427E+005   -3.16274E+005    2.11988E+005
             988    9.73099E+006    8.92409E+006    8.92409E+006    4.90679E+005   -1.72304E+006    1.06471E+007   -2.56391E+006    9.13832E+006   -1.65095E+006    8.86679E+006    4.75892E+005    5.54444E+005   -2.79720E+005    5.02860E+005
             989    1.01705E+007    8.99932E+006    8.99932E+006    2.00900E+005   -2.13634E+006    1.11357E+007   -2.35463E+006    9.53776E+006   -2.05015E+006    8.86811E+006    2.45922E+005    7.94721E+005   -1.99353E+005    8.19254E+005
             990    1.09197E+007    9.29574E+006    9.29574E+006   -2.23379E+005   -2.62486E+006    1.19206E+007   -2.14917E+006    1.03002E+007   -2.52111E+006    9.06941E+006   -1.00793E+005    1.01071E+006   -9.89742E+004    1.15492E+006
             991    1.18391E+007    9.69194E+006    9.69194E+006   -7.30371E+005   -3.18052E+006    1.28725E+007   -1.92702E+006    1.12472E+007   -3.06833E+006    9.44738E+006   -5.98006E+005    1.16600E+006    4.16767E+003    1.19133E+006
             992    1.21466E+007    9.63426E+006    9.63426E+006   -9.37816E+005   -3.63390E+006    1.32682E+007   -1.68752E+006    1.14440E+007   -3.52760E+006    9.43247E+006   -8.42321E+005    1.17570E+006    1.26834E+005    9.95519E+005
             993    1.02364E+007    9.54720E+006    9.54720E+006    1.52550E+005   -1.36214E+006    1.09093E+007   -2.77921E+006    9.97959E+006   -1.20181E+006    9.48558E+006    5.38481E+004   -4.92448E+005   -4.07836E+005   -6.27172E+005
             994    1.08860E+007    1.02811E+007    1.02811E+007   -1.20372E+005   -1.03207E+006    1.13131E+007   -3.04288E+006    1.07996E+007   -8.10090E+005    1.02276E+007   -2.88835E+005   -4.21318E+005   -3.57643E+005   -6.42911E+005
             995    1.16321E+007    1.09904E+007    1.09904E+007   -2.90296E+005   -9.63902E+005    1.19543E+007   -3.24539E+006    1.15881E+007   -5.73526E+005    1.09479E+007   -6.38178E+005   -3.78053E+005   -3.15157E+005   -6.02056E+005
             996    1.23392E+007    1.16540E+007    1.16540E+007   -2.97936E+005   -1.03911E+006    1.26931E+007   -3.43897E+006    1.22890E+007   -3.62934E+005    1.16247E+007   -9.44882E+005   -3.24155E+005   -2.08263E+005   -5.13539E+005
             997    1.29953E+007    1.22254E+007    1.22254E+007   -2.81199E+005   -1.20877E+006    1.34342E+007   -3.57849E+006    1.29205E+007   -2.95321E+005    1.22071E+007   -1.17631E+006   -2.95722E+005   -1.29144E+005   -3.93205E+005
             998    1.34784E+007    1.26407E+007    1.26407E+007   -2.31081E+005   -1.37185E+006    1.40125E+007   -3.67925E+006    1.33692E+007   -2.30620E+005    1.26306E+007   -1.36219E+006   -2.82080E+005   -7.54372E+004   -2.36728E+005
             999    1.37403E+007    1.28596E+007    1.28596E+007   -2.22644E+005   -1.45550E+006    1.43151E+007   -3.72717E+006    1.36150E+007   -2.17028E+005    1.28531E+007   -1.45462E+006   -2.78066E+005   -1.72192E+004   -9.13269E+004
            1000    1.00216E+007    9.47545E+006    9.47545E+006    2.63244E+005   -1.19554E+006    1.06710E+007   -2.84772E+006    9.77839E+006   -1.03835E+006    9.46102E+006    1.20474E+005   -2.42427E+005   -4.38610E+005   -2.97368E+005
            1001    1.06249E+007    1.01606E+007    1.01606E+007    1.50188E+004   -8.86157E+005    1.10467E+007   -3.09648E+006    1.05384E+007   -6.64715E+005    1.01491E+007   -1.94940E+005   -1.92188E+005   -3.80886E+005   -2.95694E+005
            1002    1.13670E+007    1.08410E+007    1.08410E+007   -1.74258E+005   -8.47899E+005    1.16889E+007   -3.27294E+006    1.13220E+007   -4.31269E+005    1.08334E+007   -5.83278E+005   -1.49658E+005   -3.24395E+005   -2.57646E+005
            1003    1.20774E+007    1.14985E+007    1.14985E+007   -1.55958E+005   -9.61582E+005    1.24601E+007   -3.46032E+006    1.20168E+007   -2.15048E+005    1.14946E+007   -8.98574E+005   -1.04225E+005   -2.09846E+005   -1.94389E+005
            1004    1.26946E+007    1.20326E+007    1.20326E+007   -1.10784E+005   -1.14944E+006    1.31821E+007   -3.59080E+006    1.25985E+007   -1.27564E+005    1.20310E+007   -1.13108E+006   -7.32324E+004   -1.31898E+005   -1.23108E+005
            1005    1.31610E+007    1.24280E+007    1.24280E+007   -3.66278E+004   -1.33341E+006    1.37614E+007   -3.68598E+006    1.30161E+007   -4.11877E+004    1.24273E+007   -1.32822E+006   -5.17806E+004   -7.82283E+004   -7.66595E+004
            1006    1.33986E+007    1.26295E+007    1.26295E+007   -1.19725E+004   -1.41583E+006    1.40453E+007   -3.73389E+006    1.32317E+007   -1.20913E+004    1.26293E+007   -1.41557E+006   -3.97263E+004   -1.84404E+004   -1.68171E+004
            1007    9.95487E+006    9.48476E+006    9.48476E+006    3.35329E+005   -1.11618E+006    1.06009E+007   -2.90130E+006    9.71251E+006   -9.58587E+005    9.48471E+006    1.77787E+005    1.53382E+004   -4.51514E+005    1.66876E+004
            1008    1.05942E+007    1.01749E+007    1.01749E+007    6.07204E+004   -8.41556E+005    1.10164E+007   -3.13135E+006    1.05072E+007   -6.13356E+005    1.01744E+007   -1.67020E+005    3.89206E+004   -3.91920E+005    5.88426E+004
            1009    1.13779E+007    1.08872E+007    1.08872E+007   -1.39794E+005   -8.11759E+005    1.16990E+007   -3.31190E+006    1.13331E+007   -4.08036E+005    1.08860E+007   -5.42306E+005    5.78529E+004   -3.28630E+005    1.03821E+005
            1010    1.21468E+007    1.15782E+007    1.15782E+007   -1.66495E+005   -9.34351E+005    1.25125E+007   -3.49245E+006    1.20920E+007   -2.30908E+005    1.15764E+007   -8.68111E+005    7.33354E+004   -2.12742E+005    1.31960E+005
            1011    1.28422E+007    1.21692E+007    1.21692E+007   -1.58250E+005   -1.13222E+006    1.33014E+007   -3.62625E+006    1.27587E+007   -1.76261E+005    1.21674E+007   -1.11241E+006    8.26616E+004   -1.32327E+005    1.29018E+005
            1012    1.33524E+007    1.25980E+007    1.25980E+007   -1.15334E+005   -1.31291E+006    1.39109E+007   -3.72324E+006    1.32308E+007   -1.19734E+005    1.25967E+007   -1.30724E+006    8.75025E+004   -7.65727E+004    9.70370E+004
            1013    1.36282E+007    1.28268E+007    1.28268E+007   -1.09024E+005   -1.40180E+006    1.42286E+007   -3.77198E+006    1.34892E+007   -1.08660E+005    1.28261E+007   -1.40148E+006    8.98170E+004   -1.81188E+004    2.85829E+004
            1014    1.00218E+007    9.45681E+006    9.45681E+006    2.62115E+005   -1.22567E+006    1.06825E+007   -2.83108E+006    9.76866E+006   -1.07174E+006    9.43839E+006    1.26605E+005    2.71752E+005   -4.35508E+005    3.37157E+005
            1015    1.06378E+007    1.01296E+007    1.01296E+007   -9.97278E+003   -9.44679E+005    1.10743E+007   -3.05831E+006    1.05448E+007   -7.29093E+005    1.01074E+007   -2.03365E+005    2.66813E+005   -3.79749E+005    4.11043E+005
            1016    1.13987E+007    1.08181E+007    1.08181E+007   -2.27043E+005   -9.04033E+005    1.17221E+007   -3.22900E+006    1.13533E+007   -5.13644E+005    1.07932E+007   -5.92563E+005    2.76536E+005   -3.24537E+005    4.62444E+005
            1017    1.21397E+007    1.14938E+007    1.14938E+007   -2.42669E+005   -1.01261E+006    1.25064E+007   -3.41283E+006    1.20846E+007   -3.06941E+005    1.14706E+007   -9.25184E+005    2.74489E+005   -2.11771E+005    4.61159E+005
            1018    1.28004E+007    1.20627E+007    1.20627E+007   -2.08934E+005   -1.20804E+006    1.32707E+007   -3.54857E+006    1.27123E+007   -2.22855E+005    1.20446E+007   -1.17606E+006    2.79081E+005   -1.31926E+005    3.96874E+005
            1019    1.32898E+007    1.24812E+007    1.24812E+007   -1.38064E+005   -1.39038E+006    1.38716E+007   -3.65092E+006    1.31560E+007   -1.37408E+005    1.24700E+007   -1.37985E+006    2.80066E+005   -7.74420E+004    2.64250E+005
            1020    1.35431E+007    1.26963E+007    1.26963E+007   -1.15626E+005   -1.47536E+006    1.41716E+007   -3.70176E+006    1.33882E+007   -1.09685E+005    1.26894E+007   -1.47440E+006    2.83223E+005   -1.88848E+004    9.50293E+004
            1021    1.02423E+007    9.49856E+006    9.49856E+006    1.24003E+005   -1.43314E+006    1.09317E+007   -2.72981E+006    9.97076E+006   -1.27524E+006    9.42873E+006    3.59249E+004    5.33188E+005   -4.01430E+005    6.60459E+005
            1022    1.08901E+007    1.02189E+007    1.02189E+007   -1.51355E+005   -1.12554E+006    1.13444E+007   -2.98066E+006    1.07914E+007   -9.17219E+005    1.01446E+007   -2.85344E+005    5.10210E+005   -3.48858E+005    7.47226E+005
            1023    1.16693E+007    1.09339E+007    1.09339E+007   -3.74770E+005   -1.06534E+006    1.19992E+007   -3.16460E+006    1.16232E+007   -7.13580E+005    1.08588E+007   -6.51381E+005    5.15282E+005   -3.10801E+005    7.92240E+005
            1024    1.24556E+007    1.16574E+007    1.16574E+007   -4.36813E+005   -1.13054E+006    1.27880E+007   -3.36336E+006    1.24120E+007   -5.10078E+005    1.15912E+007   -9.91031E+005    5.05864E+005   -2.06569E+005    7.64727E+005
            1025    1.31762E+007    1.22908E+007    1.22908E+007   -4.33314E+005   -1.29523E+006    1.35860E+007   -3.52076E+006    1.31126E+007   -4.39866E+005    1.22414E+007   -1.23928E+006    5.09919E+005   -1.25156E+005    6.31183E+005
            1026    1.37109E+007    1.27555E+007    1.27555E+007   -3.85066E+005   -1.46221E+006    1.42177E+007   -3.63606E+006    1.36152E+007   -3.72816E+005    1.27234E+007   -1.44243E+006    5.11712E+005   -7.46632E+004    4.17126E+005
            1027    1.39990E+007    1.30050E+007    1.30050E+007   -3.77067E+005   -1.53853E+006    1.45435E+007   -3.69646E+006    1.38899E+007   -3.57444E+005    1.29837E+007   -1.53687E+006    5.16648E+005   -1.49533E+004    1.38439E+005
            1028    1.06903E+007    9.59720E+006    9.59720E+006   -1.61661E+005   -1.82862E+006    1.14258E+007   -2.53564E+006    1.03918E+007   -1.67088E+006    9.44615E+006   -1.68355E+005    8.06209E+005   -3.27199E+005    9.77841E+005
            1029    1.12416E+007    1.02505E+007    1.02505E+007   -4.07353E+005   -1.49581E+006    1.17463E+007   -2.78243E+006    1.11222E+007   -1.30164E+006    1.00971E+007   -4.48165E+005    7.96921E+005   -2.92639E+005    1.04578E+006
            1030    1.19705E+007    1.09500E+007    1.09500E+007   -6.33461E+005   -1.37322E+006    1.23232E+007   -2.98110E+006    1.19189E+007   -1.06141E+006    1.07916E+007   -7.86920E+005    8.24411E+005   -2.76887E+005    1.11159E+006
            1031    1.27097E+007    1.16674E+007    1.16674E+007   -7.09055E+005   -1.35119E+006    1.30186E+007   -3.20240E+006    1.26732E+007   -7.92990E+005    1.15279E+007   -1.12767E+006    8.22075E+005   -1.95358E+005    1.05778E+006
            1032    1.33624E+007    1.22829E+007    1.22829E+007   -6.66947E+005   -1.45693E+006    1.37398E+007   -3.38634E+006    1.33097E+007   -6.53811E+005    1.21751E+007   -1.36227E+006    8.24872E+005   -1.17223E+005    8.75311E+005
            1033    1.38570E+007    1.27467E+007    1.27467E+007   -5.71527E+005   -1.59267E+006    1.43394E+007   -3.52749E+006    1.37720E+007   -5.32167E+005    1.26730E+007   -1.55833E+006    8.20659E+005   -7.20265E+004    5.77854E+005
            1034    1.41139E+007    1.29866E+007    1.29866E+007   -5.34752E+005   -1.65317E+006    1.46398E+007   -3.59957E+006    1.40136E+007   -4.85170E+005    1.29337E+007   -1.64985E+006    8.22701E+005   -1.52986E+004    1.98209E+005
            1035    1.13047E+007    9.78467E+006    9.78467E+006   -5.10441E+005   -2.31305E+006    1.20977E+007   -2.32039E+006    1.09744E+007   -2.15484E+006    9.56011E+006   -4.44094E+005    1.03985E+006   -2.38384E+005    1.19119E+006
            1036    1.18720E+007    1.04629E+007    1.04629E+007   -6.94976E+005   -2.01325E+006    1.24762E+007   -2.58490E+006    1.17057E+007   -1.84902E+006    1.02242E+007   -6.20484E+005    1.05276E+006   -1.92171E+005    1.30006E+006
            1037    1.27172E+007    1.12516E+007    1.12516E+007   -9.44196E+005   -1.92969E+006    1.31813E+007   -2.79256E+006    1.26308E+007   -1.70520E+006    1.10075E+007   -9.24585E+005    1.16321E+006   -2.04088E+005    1.32226E+006
            1038    1.35189E+007    1.20197E+007    1.20197E+007   -1.18080E+006   -1.79648E+006    1.38162E+007   -3.01415E+006    1.34873E+007   -1.50780E+006    1.17865E+007   -1.23627E+006    1.25737E+006   -1.60230E+005    1.25669E+006
            1039    1.42722E+007    1.27212E+007    1.27212E+007   -1.34986E+006   -1.74394E+006    1.44652E+007   -3.20914E+006    1.42599E+007   -1.41559E+006    1.25180E+007   -1.47497E+006    1.35051E+006   -9.89711E+004    1.03593E+006
            1040    1.48288E+007    1.32380E+007    1.32380E+007   -1.41644E+006   -1.75926E+006    1.49973E+007   -3.35411E+006    1.48199E+007   -1.33887E+006    1.30684E+007   -1.66720E+006    1.42124E+006   -6.50259E+004    6.86714E+005
            1041    1.51559E+007    1.35354E+007    1.35354E+007   -1.46468E+006   -1.77179E+006    1.53072E+007   -3.43297E+006    1.51489E+007   -1.32372E+006    1.33866E+007   -1.76399E+006    1.46885E+006   -1.29675E+004    2.34604E+005
            1042    1.18447E+007    9.82552E+006    9.82552E+006   -8.34495E+005   -2.92546E+006    1.27510E+007   -2.02185E+006    1.14184E+007   -2.76337E+006    9.52220E+006   -6.93262E+005    1.25396E+006   -1.33324E+005    1.38312E+006
            1043    1.24500E+007    1.05640E+007    1.05640E+007   -1.06235E+006   -2.57198E+006    1.31360E+007   -2.30988E+006    1.22415E+007   -2.42005E+006    1.02434E+007   -8.93758E+005    1.24462E+006   -6.75053E+004    1.52483E+006
            1044    1.32829E+007    1.13935E+007    1.13935E+007   -1.19340E+006   -2.49022E+006    1.38837E+007   -2.56997E+006    1.31393E+007   -2.32845E+006    1.10746E+007   -1.03623E+006    1.33717E+006   -4.44564E+004    1.53557E+006
            1045    1.42540E+007    1.23264E+007    1.23264E+007   -1.41920E+006   -2.38677E+006    1.47131E+007   -2.84013E+006    1.41798E+007   -2.20738E+006    1.20264E+007   -1.29867E+006    1.44106E+006   -3.54794E+004    1.46623E+006
            1046    1.51373E+007    1.31809E+007    1.31809E+007   -1.55682E+006   -2.32668E+006    1.55076E+007   -3.09912E+006    1.50932E+007   -2.15340E+006    1.29247E+007   -1.47389E+006    1.54266E+006    8.82748E+003    1.21583E+006
            1047    1.58553E+007    1.38603E+007    1.38603E+007   -1.67305E+006   -2.29841E+006    1.61587E+007   -3.29627E+006    1.58275E+007   -2.12197E+006    1.36528E+007   -1.64201E+006    1.62125E+006   -1.62122E+003    8.16762E+005
            1048    1.62721E+007    1.42543E+007    1.42543E+007   -1.72154E+006   -2.29873E+006    1.65531E+007   -3.41135E+006    1.62491E+007   -2.12792E+006    1.40790E+007   -1.71699E+006    1.67050E+006    1.32454E+004    2.81743E+005
            1049    1.26145E+007    1.00465E+007    1.00465E+007   -1.09770E+006   -3.64844E+006    1.36950E+007   -1.76680E+006    1.20136E+007   -3.48808E+006    9.72764E+006   -9.39152E+005    1.41879E+006   -1.40575E+004    1.36878E+006
            1050    1.31415E+007    1.05769E+007    1.05769E+007   -1.25394E+006   -3.56784E+006    1.41447E+007   -1.91837E+006    1.26709E+007   -3.38572E+006    1.01976E+007   -1.05677E+006    1.52595E+006    4.45451E+002    1.57235E+006
            1051    1.41301E+007    1.14827E+007    1.14827E+007   -1.41296E+006   -3.62167E+006    1.51044E+007   -2.14935E+006    1.37336E+007   -3.42218E+006    1.10700E+007   -1.19981E+006    1.67851E+006    6.03711E+004    1.67723E+006
            1052    1.52308E+007    1.24800E+007    1.24800E+007   -1.54393E+006   -3.72308E+006    1.62030E+007   -2.40431E+006    1.48740E+007   -3.50349E+006    1.20749E+007   -1.35847E+006    1.83234E+006    6.50778E+004    1.63519E+006
            1053    1.63681E+007    1.35341E+007    1.35341E+007   -1.61871E+006   -3.82535E+006    1.73595E+007   -2.69669E+006    1.60283E+007   -3.59142E+006    1.31665E+007   -1.48498E+006    1.98376E+006    9.47584E+004    1.42799E+006
            1054    1.73089E+007    1.44013E+007    1.44013E+007   -1.67010E+006   -3.92420E+006    1.83255E+007   -2.93566E+006    1.69739E+007   -3.67930E+006    1.40970E+007   -1.61069E+006    2.09522E+006    6.03543E+004    9.85371E+005
            1055    1.78652E+007    1.49112E+007    1.49112E+007   -1.69210E+006   -3.99284E+006    1.89041E+007   -3.07543E+006    1.75272E+007   -3.74249E+006    1.46531E+007   -1.68431E+006    2.16046E+006    3.35384E+004    3.58699E+005
            1056    2.02841E+007    1.66869E+007    1.66869E+007   -9.48301E+005   -5.47952E+006    2.21665E+007   -3.41971E+006    1.90949E+007   -5.35697E+006    1.65551E+007   -9.38964E+005    1.64041E+006    7.44222E+004    4.10335E+005
            1057    1.94203E+007    1.58172E+007    1.58172E+007   -1.06535E+006   -5.40620E+006    2.12234E+007   -3.11522E+006    1.82803E+007   -5.27355E+006    1.56143E+007   -9.95060E+005    1.64718E+006    2.11043E+005    1.10108E+006
            1058    1.80071E+007    1.44529E+007    1.44529E+007   -1.20515E+006   -5.22416E+006    1.96771E+007   -2.67453E+006    1.69534E+007   -5.07897E+006    1.41652E+007   -1.06265E+006    1.63658E+006    2.95766E+005    1.50338E+006
            1059    1.64377E+007    1.30235E+007    1.30235E+007   -1.27968E+006   -4.93370E+006    1.79572E+007   -2.27004E+006    1.54838E+007   -4.78193E+006    1.26819E+007   -1.08982E+006    1.58666E+006    3.29574E+005    1.65140E+006
            1060    1.49178E+007    1.17157E+007    1.17157E+007   -1.26363E+006   -4.58177E+006    1.62975E+007   -1.95678E+006    1.40511E+007   -4.43442E+006    1.13677E+007   -1.06296E+006    1.49250E+006    3.11213E+005    1.60937E+006
            1061    1.37020E+007    1.07207E+007    1.07207E+007   -1.18213E+006   -4.25772E+006    1.49785E+007   -1.76030E+006    1.28906E+007   -4.12430E+006    1.04037E+007   -9.98493E+005    1.37106E+006    2.64644E+005    1.46913E+006
            1062    1.26763E+007    9.95013E+006    9.95013E+006   -9.46114E+005   -3.96221E+006    1.39123E+007   -1.68060E+006    1.18279E+007   -3.84515E+006    9.70298E+006   -8.16021E+005    1.23178E+006    2.42949E+005    1.19328E+006
            1063    1.35165E+007    1.09288E+007    1.09288E+007   -1.22986E+006   -3.62537E+006    1.45541E+007   -2.02452E+006    1.30261E+007   -3.50278E+006    1.06630E+007   -1.08665E+006   -1.31969E+006   -8.02911E+004    1.31307E+006
            1064    1.20926E+007    1.00264E+007    1.00264E+007   -6.03682E+005   -3.12971E+006    1.31561E+007   -2.09767E+006    1.14763E+007   -3.00719E+006    9.67837E+006   -3.78162E+005   -1.22864E+006   -3.94663E+004    1.55066E+006
            1065    1.09285E+007    9.29495E+006    9.29495E+006   -2.49648E+005   -2.62633E+006    1.19213E+007   -2.13966E+006    1.03227E+007   -2.52276E+006    9.04961E+006   -1.07881E+005   -1.01268E+006    8.73585E+004    1.22847E+006
            1066    1.01518E+007    9.01095E+006    9.01095E+006    2.44331E+005   -2.11168E+006    1.11226E+007   -2.38120E+006    9.50702E+006   -2.02267E+006    8.87230E+006    2.93981E+005   -8.03325E+005    2.03828E+005    8.50585E+005
            1067    1.06925E+007    9.67003E+006    9.67003E+006   -1.58620E+005   -1.71557E+006    1.13856E+007   -2.59861E+006    1.04329E+007   -1.54901E+006    9.52519E+006   -1.80331E+005   -7.74988E+005    3.38233E+005    9.71279E+005
            1068    1.12256E+007    1.03741E+007    1.03741E+007   -3.46678E+005   -1.29607E+006    1.16702E+007   -2.91045E+006    1.11348E+007   -1.08249E+006    1.02464E+007   -4.32578E+005   -7.10699E+005    3.04784E+005    9.68976E+005
            1069    1.18379E+007    1.10016E+007    1.10016E+007   -4.81123E+005   -1.16218E+006    1.21637E+007   -3.11942E+006    1.17937E+007   -7.76853E+005    1.08938E+007   -7.58709E+005   -6.48883E+005    2.90104E+005    9.35828E+005
            1070    1.24747E+007    1.16473E+007    1.16473E+007   -4.20348E+005   -1.19822E+006    1.28455E+007   -3.34289E+006    1.24200E+007   -4.74549E+005    1.15660E+007   -1.06274E+006   -5.57509E+005    1.97755E+005    8.49954E+005
            1071    1.30525E+007    1.21978E+007    1.21978E+007   -3.22859E+005   -1.32827E+006    1.35261E+007   -3.51557E+006    1.29649E+007   -3.26473E+005    1.21471E+007   -1.27391E+006   -4.89422E+005    1.24185E+005    6.57449E+005
            1072    1.34967E+007    1.26038E+007    1.26038E+007   -2.14431E+005   -1.48186E+006    1.40857E+007   -3.63584E+006    1.33618E+007   -2.06171E+005    1.25758E+007   -1.46211E+006   -4.36558E+005    7.68007E+004    4.32297E+005
            1073    1.37251E+007    1.28162E+007    1.28162E+007   -1.71045E+005   -1.54349E+006    1.43597E+007   -3.70057E+006    1.35694E+007   -1.58626E+005    1.28022E+007   -1.54187E+006   -4.06553E+005    1.66970E+004    1.36939E+005
            1074    1.14514E+007    1.00154E+007    1.00154E+007   -4.86512E+005   -2.19384E+006    1.22092E+007   -2.44501E+006    1.11597E+007   -2.03045E+006    9.78297E+006   -4.17479E+005   -1.04073E+006    2.39009E+005    1.23967E+006
            1075    1.18871E+007    1.05954E+007    1.05954E+007   -6.51061E+005   -1.84257E+006    1.24380E+007   -2.70061E+006    1.17517E+007   -1.66087E+006    1.03862E+007   -6.23482E+005   -1.02775E+006    2.23863E+005    1.19370E+006
            1076    1.25290E+007    1.12488E+007    1.12488E+007   -8.42239E+005   -1.67660E+006    1.29254E+007   -2.90997E+006    1.24663E+007   -1.40941E+006    1.10390E+007   -8.99643E+005   -1.07576E+006    2.37874E+005    1.21913E+006
            1077    1.31829E+007    1.19168E+007    1.19168E+007   -9.77656E+005   -1.53692E+006    1.34537E+007   -3.13406E+006    1.31562E+007   -1.11632E+006    1.17338E+007   -1.21527E+006   -1.08678E+006    1.83358E+005    1.11652E+006
            1078    1.37653E+007    1.24752E+007    1.24752E+007   -9.81074E+005   -1.57954E+006    1.40548E+007   -3.30488E+006    1.37360E+007   -9.59260E+005    1.23278E+007   -1.45389E+006   -1.09732E+006    1.16808E+005    9.07061E+005
            1079    1.41966E+007    1.28911E+007    1.28911E+007   -8.99446E+005   -1.67942E+006    1.45705E+007   -3.43740E+006    1.41482E+007   -8.29509E+005    1.27798E+007   -1.63813E+006   -1.10456E+006    7.47382E+004    5.75314E+005
            1080    1.44143E+007    1.31004E+007    1.31004E+007   -8.57980E+005   -1.73021E+006    1.48306E+007   -3.50408E+006    1.43548E+007   -7.71189E+005    1.30096E+007   -1.72614E+006   -1.10526E+006    1.73214E+004    2.04760E+005
            1081    1.20854E+007    1.01505E+007    1.01505E+007   -8.82723E+005   -2.76588E+006    1.29164E+007   -2.16731E+006    1.17485E+007   -2.60224E+006    9.87462E+006   -7.70449E+005   -1.25232E+006    1.41919E+005    1.30622E+006
            1082    1.23514E+007    1.06382E+007    1.06382E+007   -9.28783E+005   -2.37084E+006    1.30091E+007   -2.44621E+006    1.21598E+007   -2.22208E+006    1.03293E+007   -7.68641E+005   -1.19941E+006    8.24494E+004    1.50687E+006
            1083    1.32252E+007    1.14997E+007    1.14997E+007   -1.16688E+006   -2.22109E+006    1.37208E+007   -2.70391E+006    1.31302E+007   -2.04577E+006    1.12027E+007   -1.04525E+006   -1.25980E+006    9.78354E+004    1.51080E+006
            1084    1.40240E+007    1.22973E+007    1.22973E+007   -1.40057E+006   -2.03165E+006    1.43289E+007   -2.95502E+006    1.39920E+007   -1.82788E+006    1.20296E+007   -1.33664E+006   -1.31927E+006    7.80479E+004    1.41080E+006
            1085    1.47497E+007    1.30394E+007    1.30394E+007   -1.53117E+006   -1.88320E+006    1.49226E+007   -3.20833E+006    1.47402E+007   -1.67836E+006    1.28240E+007   -1.52065E+006   -1.37809E+006    3.92956E+004    1.12480E+006
            1086    1.52817E+007    1.35718E+007    1.35718E+007   -1.60930E+006   -1.80847E+006    1.53803E+007   -3.38469E+006    1.52788E+007   -1.56595E+006    1.34026E+007   -1.68260E+006   -1.42011E+006    2.97444E+004    7.43847E+005
            1087    1.55490E+007    1.38506E+007    1.38506E+007   -1.63716E+006   -1.75881E+006    1.56094E+007   -3.48488E+006    1.55479E+007   -1.50690E+006    1.37115E+007   -1.74993E+006   -1.44156E+006    1.53829E+003    2.44213E+005
            1088    1.24705E+007    9.96937E+006    9.96937E+006   -9.44931E+005   -3.62237E+006    1.35917E+007   -1.80069E+006    1.17975E+007   -3.43016E+006    9.61339E+006   -7.81169E+005   -1.52155E+006    5.37580E+004    1.40949E+006
            1089    1.33249E+007    1.07311E+007    1.07311E+007   -1.42380E+006   -3.51625E+006    1.42473E+007   -1.93034E+006    1.29475E+007   -3.31176E+006    1.03271E+007   -1.22429E+006   -1.58581E+006    3.05857E+004    1.64327E+006
            1090    1.40963E+007    1.14681E+007    1.14681E+007   -1.54881E+006   -3.50363E+006    1.49717E+007   -2.13855E+006    1.37864E+007   -3.29340E+006    1.10577E+007   -1.34867E+006   -1.68637E+006   -2.19518E+004    1.66795E+006
            1091    1.51699E+007    1.25345E+007    1.25345E+007   -1.62917E+006   -3.47303E+006    1.60075E+007   -2.47743E+006    1.49146E+007   -3.24830E+006    1.21431E+007   -1.46251E+006   -1.82667E+006   -4.20464E+004    1.58227E+006
            1092    1.61152E+007    1.34531E+007    1.34531E+007   -1.69420E+006   -3.48100E+006    1.69341E+007   -2.75931E+006    1.58900E+007   -3.24503E+006    1.31031E+007   -1.58016E+006   -1.95787E+006   -6.48320E+004    1.33806E+006
            1093    1.68740E+007    1.41889E+007    1.41889E+007   -1.74810E+006   -3.48725E+006    1.76762E+007   -2.98453E+006    1.66705E+007   -3.24111E+006    1.38936E+007   -1.69894E+006   -2.05909E+006   -4.51101E+004    9.04074E+005
            1094    1.72912E+007    1.45838E+007    1.45838E+007   -1.78729E+006   -3.50014E+006    1.80839E+007   -3.09878E+006    1.70988E+007   -3.24920E+006    1.43264E+007   -1.78082E+006   -2.11441E+006   -2.27325E+004    3.28749E+005
            1095    2.00070E+007    1.65083E+007    1.65083E+007   -9.95392E+005   -5.30105E+006    2.18093E+007   -3.40395E+006    1.89221E+007   -5.17371E+006    1.63714E+007   -9.85870E+005   -1.65892E+006   -7.03997E+004    4.11395E+005
            1096    1.92175E+007    1.57060E+007    1.57060E+007   -1.08727E+006   -5.25263E+006    2.09586E+007   -3.12202E+006    1.81597E+007   -5.11840E+006    1.55034E+007   -1.01889E+006   -1.65302E+006   -1.89584E+005    1.07754E+006
            1097    1.79515E+007    1.44748E+007    1.44748E+007   -1.20487E+006   -5.10678E+006    1.95816E+007   -2.72105E+006    1.69576E+007   -4.96256E+006    1.41961E+007   -1.07038E+006   -1.63356E+006   -2.76664E+005    1.45928E+006
            1098    1.64231E+007    1.30247E+007    1.30247E+007   -1.33115E+006   -4.88404E+006    1.79087E+007   -2.26984E+006    1.55227E+007   -4.73530E+006    1.26991E+007   -1.15425E+006   -1.57563E+006   -3.07507E+005    1.59578E+006
            1099    1.50062E+007    1.17409E+007    1.17409E+007   -1.40410E+006   -4.60872E+006    1.63496E+007   -1.90936E+006    1.42053E+007   -4.46498E+006    1.14207E+007   -1.22764E+006   -1.47559E+006   -3.00363E+005    1.52478E+006
            1100    1.37154E+007    1.05142E+007    1.05142E+007   -1.52585E+006   -4.41586E+006    1.49301E+007   -1.52417E+006    1.30036E+007   -4.28949E+006    1.02571E+007   -1.39511E+006   -1.32859E+006   -2.46958E+005    1.25898E+006
            1101    1.35420E+007    1.03808E+007    1.03808E+007   -1.82443E+006   -4.18702E+006    1.45678E+007   -1.45644E+006    1.30662E+007   -4.07630E+006    1.01967E+007   -1.75110E+006   -1.25029E+006   -1.51845E+005    9.46515E+005
            1102    1.78758E+007    1.49155E+007    1.49155E+007   -1.69359E+006   -4.00271E+006    1.89182E+007   -3.07305E+006    1.75356E+007   -3.75235E+006    1.46569E+007   -1.68539E+006    2.16131E+006   -3.57346E+004   -3.67640E+005
            1103    1.62798E+007    1.42568E+007    1.42568E+007   -1.71934E+006   -2.31063E+006    1.65674E+007   -3.40893E+006    1.62556E+007   -2.13919E+006    1.40803E+007   -1.71433E+006    1.67384E+006   -1.29682E+004   -2.96700E+005
            1104    1.51598E+007    1.35358E+007    1.35358E+007   -1.46990E+006   -1.77351E+006    1.53093E+007   -3.43080E+006    1.51530E+007   -1.32939E+006    1.33862E+007   -1.76442E+006    1.47060E+006    1.39193E+004   -2.52285E+005
            1105    1.41087E+007    1.29805E+007    1.29805E+007   -5.37883E+005   -1.65235E+006    1.46328E+007   -3.59675E+006    1.40091E+007   -4.88245E+005    1.29269E+007   -1.64840E+006    8.24324E+005    1.71960E+004   -2.14986E+005
            1106    1.39919E+007    1.29990E+007    1.29990E+007   -3.77189E+005   -1.53647E+006    1.45355E+007   -3.69511E+006    1.38832E+007   -3.57649E+005    1.29775E+007   -1.53449E+006    5.16300E+005    1.62072E+004   -1.51695E+005
            1107    1.35384E+007    1.26919E+007    1.26919E+007   -1.16102E+005   -1.47441E+006    1.41663E+007   -3.70047E+006    1.33838E+007   -1.10172E+005    1.26849E+007   -1.47335E+006    2.83207E+005    1.90964E+004   -1.01831E+005
            1108    1.36254E+007    1.28250E+007    1.28250E+007   -1.08970E+005   -1.40000E+006    1.42249E+007   -3.77199E+006    1.34867E+007   -1.08604E+005    1.28242E+007   -1.39966E+006    9.03733E+004    1.83080E+004   -3.16464E+004
            1109    1.33994E+007    1.26294E+007    1.26294E+007   -1.27161E+004   -1.41667E+006    1.40461E+007   -3.73334E+006    1.32324E+007   -1.28471E+004    1.26293E+007   -1.41639E+006   -4.00151E+004    1.89674E+004    1.50997E+004
            1110    1.37420E+007    1.28618E+007    1.28618E+007   -2.22560E+005   -1.45473E+006    1.43166E+007   -3.72819E+006    1.36169E+007   -2.16915E+005    1.28554E+007   -1.45389E+006   -2.78454E+005    1.68189E+004    8.93835E+004
            1111    1.73088E+007    1.43928E+007    1.43928E+007   -1.66720E+006   -3.94031E+006    1.83331E+007   -2.92842E+006    1.69682E+007   -3.69509E+006    1.40860E+007   -1.60568E+006    2.09678E+006   -6.14529E+004   -1.00222E+006
            1112    1.58521E+007    1.38493E+007    1.38493E+007   -1.66900E+006   -2.31677E+006    1.61661E+007   -3.28784E+006    1.58223E+007   -2.13996E+006    1.36393E+007   -1.63576E+006    1.62456E+006    2.69292E+002   -8.34726E+005
            1113    1.48082E+007    1.32174E+007    1.32174E+007   -1.41559E+006   -1.76000E+006    1.49774E+007   -3.34726E+006    1.47992E+007   -1.34367E+006    1.30459E+007   -1.66042E+006    1.41919E+006    6.76323E+004   -7.09194E+005
            1114    1.38323E+007    1.27245E+007    1.27245E+007   -5.71854E+005   -1.58766E+006    1.43122E+007   -3.52166E+006    1.37480E+007   -5.33624E+005    1.26496E+007   -1.55100E+006    8.17308E+005    7.43671E+004   -5.95957E+005
            1115    1.36850E+007    1.27345E+007    1.27345E+007   -3.83717E+005   -1.45439E+006    1.41889E+007   -3.63213E+006    1.35903E+007   -3.72138E+005    1.27023E+007   -1.43375E+006    5.07182E+005    7.62175E+004   -4.25328E+005
            1116    1.32739E+007    1.24687E+007    1.24687E+007   -1.37371E+005   -1.38493E+006    1.38536E+007   -3.64880E+006    1.31410E+007   -1.37068E+005    1.24575E+007   -1.37405E+006    2.76500E+005    7.87672E+004   -2.67906E+005
            1117    1.33461E+007    1.25929E+007    1.25929E+007   -1.15529E+005   -1.31039E+006    1.39033E+007   -3.72234E+006    1.32249E+007   -1.20028E+005    1.25917E+007   -1.30467E+006    8.53539E+004    7.70435E+004   -9.54971E+004
            1118    1.31633E+007    1.24299E+007    1.24299E+007   -3.76154E+004   -1.33336E+006    1.37633E+007   -3.68630E+006    1.30187E+007   -4.21749E+004    1.24292E+007   -1.32813E+006   -5.46905E+004    7.83730E+004    7.79085E+004
            1119    1.34871E+007    1.26465E+007    1.26465E+007   -2.32798E+005   -1.37568E+006    1.40221E+007   -3.67933E+006    1.33775E+007   -2.32073E+005    1.26361E+007   -1.36607E+006   -2.85799E+005    7.46855E+004    2.38176E+005
            1120    1.63396E+007    1.35033E+007    1.35033E+007   -1.61504E+006   -3.83130E+006    1.73346E+007   -2.68565E+006    1.59962E+007   -3.59758E+006    1.31338E+007   -1.47930E+006    1.98113E+006   -9.51418E+004   -1.43697E+006
            1121    1.50918E+007    1.31357E+007    1.31357E+007   -1.55048E+006   -2.33142E+006    1.54671E+007   -3.08460E+006    1.50462E+007   -2.15780E+006    1.28768E+007   -1.46522E+006    1.53833E+006   -7.16655E+003   -1.23237E+006
            1122    1.42057E+007    1.26665E+007    1.26665E+007   -1.33195E+006   -1.73772E+006    1.44042E+007   -3.19893E+006    1.41926E+007   -1.40674E+006    1.24628E+007   -1.45928E+006    1.33633E+006    1.04001E+005   -1.05113E+006
            1123    1.33048E+007    1.22379E+007    1.22379E+007   -6.55502E+005   -1.44338E+006    1.36812E+007   -3.37966E+006    1.32522E+007   -6.46149E+005    1.21302E+007   -1.34511E+006    8.09867E+005    1.21400E+005   -8.85262E+005
            1124    1.31330E+007    1.22586E+007    1.22586E+007   -4.26507E+005   -1.28061E+006    1.35392E+007   -3.51715E+006    1.30703E+007   -4.34821E+005    1.22102E+007   -1.22394E+006    4.98771E+005    1.27547E+005   -6.27635E+005
            1125    1.27766E+007    1.20449E+007    1.20449E+007   -2.05214E+005   -1.19988E+006    1.32448E+007   -3.54662E+006    1.26890E+007   -2.20112E+005    1.20276E+007   -1.16760E+006    2.70935E+005    1.34077E+005   -3.91119E+005
            1126    1.28362E+007    1.21655E+007    1.21655E+007   -1.57215E+005   -1.12910E+006    1.32946E+007   -3.62638E+006    1.27531E+007   -1.75310E+005    1.21639E+007   -1.10944E+006    7.76507E+004    1.32353E+005   -1.20426E+005
            1127    1.27018E+007    1.20376E+007    1.20376E+007   -1.12011E+005   -1.15246E+006    1.31901E+007   -3.59104E+006    1.26054E+007   -1.28754E+005    1.20358E+007   -1.13395E+006   -7.86750E+004    1.32032E+005    1.29759E+005
            1128    1.30140E+007    1.22405E+007    1.22405E+007   -2.83594E+005   -1.21363E+006    1.34541E+007   -3.58108E+006    1.29389E+007   -2.96687E+005    1.22217E+007   -1.18180E+006   -3.00194E+005    1.26448E+005    3.96736E+005
            1129    1.51807E+007    1.24359E+007    1.24359E+007   -1.54076E+006   -3.71447E+006    1.61504E+007   -2.39356E+006    1.48245E+007   -3.49559E+006    1.20300E+007   -1.35379E+006    1.82475E+006   -6.28204E+004   -1.64039E+006
            1130    1.41709E+007    1.22557E+007    1.22557E+007   -1.40441E+006   -2.37588E+006    1.46316E+007   -2.82515E+006    1.40957E+007   -2.19654E+006    1.19555E+007   -1.28349E+006    1.42875E+006    3.97222E+004   -1.47122E+006
            1131    1.34177E+007    1.19420E+007    1.19420E+007   -1.15073E+006   -1.77860E+006    1.37206E+007   -3.00421E+006    1.33845E+007   -1.48782E+006    1.17110E+007   -1.21059E+006    1.23509E+006    1.67875E+005   -1.25759E+006
            1132    1.26315E+007    1.16114E+007    1.16114E+007   -6.85502E+005   -1.33003E+006    1.29414E+007   -3.19861E+006    1.25944E+007   -7.76917E+005    1.14752E+007   -1.10247E+006    7.99480E+005    2.01322E+005   -1.04963E+006
            1133    1.24072E+007    1.16240E+007    1.16240E+007   -4.23860E+005   -1.11374E+006    1.27377E+007   -3.36214E+006    1.23639E+007   -5.01134E+005    1.15608E+007   -9.73228E+005    4.89388E+005    2.10221E+005   -7.48472E+005
            1134    1.21187E+007    1.14800E+007    1.14800E+007   -2.36079E+005   -1.00467E+006    1.24847E+007   -3.41308E+006    1.20637E+007   -3.01704E+005    1.14585E+007   -9.17572E+005    2.62974E+005    2.13524E+005   -4.44559E+005
            1135    1.21481E+007    1.15803E+007    1.15803E+007   -1.64608E+005   -9.34405E+005    1.25147E+007   -3.49376E+006    1.20931E+007   -2.28800E+005    1.15788E+007   -8.68729E+005    6.57582E+004    2.12725E+005   -1.19149E+005
            1136    1.20916E+007    1.15099E+007    1.15099E+007   -1.56510E+005   -9.66017E+005    1.24760E+007   -3.46247E+006    1.20304E+007   -2.13984E+005    1.15056E+007   -9.04244E+005   -1.10019E+005    2.07744E+005    2.03316E+005
            1137    1.23623E+007    1.16737E+007    1.16737E+007   -2.98313E+005   -1.04496E+006    1.27187E+007   -3.44347E+006    1.23114E+007   -3.60897E+005    1.16444E+007   -9.53059E+005   -3.25839E+005    2.05923E+005    5.14259E+005
            1138    1.40655E+007    1.14332E+007    1.14332E+007   -1.40449E+006   -3.60149E+006    1.50347E+007   -2.14242E+006    1.36715E+007   -3.40310E+006    1.10215E+007   -1.19118E+006    1.66769E+006   -5.62848E+004   -1.67623E+006
            1139    1.31878E+007    1.13204E+007    1.13204E+007   -1.17317E+006   -2.46627E+006    1.37867E+007   -2.56032E+006    1.30440E+007   -2.30527E+006    1.10043E+007   -1.01804E+006    1.31938E+006    5.14245E+004   -1.52953E+006
            1140    1.26127E+007    1.11783E+007    1.11783E+007   -9.08518E+005   -1.90151E+006    1.30798E+007   -2.78944E+006    1.25243E+007   -1.67704E+006    1.09401E+007   -8.94750E+005    1.13882E+006    2.12630E+005   -1.30639E+006
            1141    1.18957E+007    1.09014E+007    1.09014E+007   -6.03176E+005   -1.35025E+006    1.22517E+007   -2.98266E+006    1.18428E+007   -1.03919E+006    1.07491E+007   -7.61916E+005    8.00019E+005    2.83420E+005   -1.09170E+006
            1142    1.16344E+007    1.09143E+007    1.09143E+007   -3.58083E+005   -1.05125E+006    1.19655E+007   -3.16831E+006    1.15878E+007   -7.00799E+005    1.08435E+007   -6.37721E+005    4.97440E+005    3.14105E+005   -7.69465E+005
            1143    1.13916E+007    1.08161E+007    1.08161E+007   -2.21250E+005   -8.99519E+005    1.17156E+007   -3.23177E+006    1.13460E+007   -5.06489E+005    1.07930E+007   -5.91191E+005    2.65479E+005    3.25637E+005   -4.46066E+005
            1144    1.13893E+007    1.08985E+007    1.08985E+007   -1.40270E+005   -8.11601E+005    1.17101E+007   -3.31556E+006    1.13447E+007   -4.03472E+005    1.08976E+007   -5.47451E+005    5.10817E+004    3.27399E+005   -9.20307E+004
            1145    1.13895E+007    1.08597E+007    1.08597E+007   -1.78549E+005   -8.51206E+005    1.17109E+007   -3.27666E+006    1.13447E+007   -4.27312E+005    1.08518E+007   -5.94490E+005   -1.53033E+005    3.21819E+005    2.63746E+005
            1146    1.16610E+007    1.10160E+007    1.10160E+007   -2.93081E+005   -9.67617E+005    1.19836E+007   -3.25176E+006    1.16170E+007   -5.68080E+005    1.09736E+007   -6.50185E+005   -3.78564E+005    3.14440E+005    6.02273E+005
            1147    1.30872E+007    1.05368E+007    1.05368E+007   -1.24279E+006   -3.55095E+006    1.40877E+007   -1.91435E+006    1.26170E+007   -3.36938E+006    1.01593E+007   -1.04687E+006    1.51684E+006    5.38677E+003   -1.56784E+006
            1148    1.23720E+007    1.05121E+007    1.05121E+007   -1.03701E+006   -2.54478E+006    1.30568E+007   -2.31009E+006    1.21628E+007   -2.39351E+006    1.01961E+007   -8.72373E+005    1.22924E+006    7.50107E+004   -1.51159E+006
            1149    1.17990E+007    1.04177E+007    1.04177E+007   -6.65497E+005   -1.98601E+006    1.24038E+007   -2.58874E+006    1.16311E+007   -1.82206E+006    1.01853E+007   -5.97008E+005    1.03467E+006    1.99906E+005   -1.28041E+006
            1150    1.11954E+007    1.02271E+007    1.02271E+007   -3.85621E+005   -1.47192E+006    1.16990E+007   -2.78985E+006    1.10759E+007   -1.27790E+006    1.00793E+007   -4.31880E+005    7.80238E+005    2.96965E+005   -1.02522E+006
            1151    1.08780E+007    1.02179E+007    1.02179E+007   -1.43515E+005   -1.11193E+006    1.13299E+007   -2.98750E+006    1.07804E+007   -9.02314E+005    1.01467E+007   -2.81919E+005    4.97246E+005    3.50819E+005   -7.32455E+005
            1152    1.06470E+007    1.01422E+007    1.01422E+007   -1.27439E+004   -9.36642E+005    1.10789E+007   -3.06428E+006    1.05563E+007   -7.18537E+005    1.01212E+007   -2.09791E+005    2.60096E+005    3.79171E+005   -4.00644E+005
            1153    1.06181E+007    1.01985E+007    1.01985E+007    5.27906E+004   -8.35952E+005    1.10345E+007   -3.13846E+006    1.05339E+007   -6.03389E+005    1.01981E+007   -1.79363E+005    3.57853E+004    3.90401E+005   -5.62729E+004
            1154    1.06487E+007    1.01830E+007    1.01830E+007    5.92182E+003   -8.81704E+005    1.10647E+007   -3.10242E+006    1.05650E+007   -6.56591E+005    1.01715E+007   -2.07687E+005   -1.92128E+005    3.79180E+005    2.96631E+005
            1155    1.09070E+007    1.03018E+007    1.03018E+007   -1.26772E+005   -1.02771E+006    1.13295E+007   -3.04911E+006    1.08228E+007   -8.02862E+005    1.02481E+007   -2.97898E+005   -4.22594E+005    3.56398E+005    6.44884E+005
            1156    1.25822E+007    1.00240E+007    1.00240E+007   -1.08366E+006   -3.64018E+006    1.36642E+007   -1.76672E+006    1.19768E+007   -3.48038E+006    9.70658E+006   -9.26042E+005    1.41409E+006    1.58314E+004   -1.36339E+006
            1157    1.17935E+007    9.79398E+006    9.79398E+006   -8.15842E+005   -2.90424E+006    1.26982E+007   -2.02463E+006    1.13663E+007   -2.74278E+006    9.49522E+006   -6.78542E+005    1.24410E+006    1.38378E+005   -1.36858E+006
            1158    1.12685E+007    9.76733E+006    9.76733E+006   -4.92226E+005   -2.29315E+006    1.20605E+007   -2.32732E+006    1.09377E+007   -2.13532E+006    9.54770E+006   -4.30439E+005    1.02825E+006    2.43852E+005   -1.17570E+006
            1159    1.06702E+007    9.58927E+006    9.58927E+006   -1.53184E+005   -1.81399E+006    1.14033E+007   -2.54070E+006    1.03735E+007   -1.65587E+006    9.44134E+006   -1.63370E+005    7.97617E+005    3.30545E+005   -9.66878E+005
            1160    1.02437E+007    9.50530E+006    9.50530E+006    1.23153E+005   -1.42391E+006    1.09292E+007   -2.73485E+006    9.97576E+006   -1.26488E+006    9.43683E+006    3.25925E+004    5.27148E+005    4.03061E+005   -6.55007E+005
            1161    1.00345E+007    9.47109E+006    9.47109E+006    2.55856E+005   -1.21931E+006    1.06904E+007   -2.83588E+006    9.78605E+006   -1.06305E+006    9.45271E+006    1.17979E+005    2.71024E+005    4.36579E+005   -3.37512E+005
            1162    9.97172E+006    9.50213E+006    9.50213E+006    3.25277E+005   -1.10911E+006    1.06112E+007   -2.90610E+006    9.73556E+006   -9.49136E+005    9.50207E+006    1.65357E+005    1.69291E+004    4.51463E+005   -1.66310E+004
            1163    1.00363E+007    9.49313E+006    9.49313E+006    2.57007E+005   -1.18695E+006    1.06801E+007   -2.85439E+006    9.79852E+006   -1.02756E+006    9.47878E+006    1.11964E+005   -2.39299E+005    4.39141E+005    2.98806E+005
            1164    1.02509E+007    9.56187E+006    9.56187E+006    1.44698E+005   -1.35708E+006    1.09189E+007   -2.78317E+006    9.99891E+006   -1.19456E+006    9.50011E+006    4.39452E+004   -4.91940E+005    4.08900E+005    6.29514E+005
            1165    9.71875E+006    8.92759E+006    8.92759E+006    4.94075E+005   -1.70096E+006    1.06285E+007   -2.57357E+006    9.13571E+006   -1.62871E+006    8.87127E+006    4.78139E+005   -5.47044E+005    2.81858E+005    5.00475E+005
            1166    9.52852E+006    8.93886E+006    8.93886E+006    6.17199E+005   -1.45537E+006    1.03942E+007   -2.70023E+006    9.00017E+006   -1.39544E+006    8.92615E+006    5.69973E+005   -2.78631E+005    3.19738E+005    2.16872E+005
            1167    9.49267E+006    8.95460E+006    8.95460E+006    6.13530E+005   -1.37473E+006    1.03293E+007   -2.73113E+006    9.00613E+006   -1.31797E+006    8.95460E+006    5.56776E+005    2.95324E+003    3.31092E+005   -2.58014E+003
            1168    9.53811E+006    8.93964E+006    8.93964E+006    6.09561E+005   -1.46502E+006    1.04047E+007   -2.69473E+006    9.00927E+006   -1.40547E+006    8.92675E+006    5.62911E+005    2.83910E+005    3.17838E+005   -2.15392E+005
            1169    9.73488E+006    8.92856E+006    8.92856E+006    4.88020E+005   -1.72100E+006    1.06496E+007   -2.56519E+006    9.14510E+006   -1.64851E+006    8.87115E+006    4.72940E+005    5.55403E+005    2.80398E+005   -5.03257E+005
            1170    1.01633E+007    8.99776E+006    8.99776E+006    2.03613E+005   -2.12908E+006    1.11268E+007   -2.35743E+006    9.53265E+006   -2.04276E+006    8.86821E+006    2.46851E+005    7.91683E+005    2.02100E+005   -8.12384E+005
            1171    1.08930E+007    9.28158E+006    9.28158E+006   -2.13411E+005   -2.61031E+006    1.18919E+007   -2.15262E+006    1.02743E+007   -2.50694E+006    9.05896E+006   -9.41695E+004    1.00442E+006    1.03366E+005   -1.14224E+006
            1172    1.18018E+007    9.67326E+006    9.67326E+006   -7.08359E+005   -3.16272E+006    1.28360E+007   -1.93406E+006    1.12058E+007   -3.05075E+006    9.43163E+006   -5.78701E+005    1.16167E+006    4.92499E+002   -1.17898E+006
            1173    1.21307E+007    9.62385E+006    9.62385E+006   -9.29320E+005   -3.62944E+006    1.32533E+007   -1.68837E+006    1.14249E+007   -3.52301E+006    9.42055E+006   -8.32436E+005    1.17631E+006   -1.22967E+005   -1.00153E+006
            1174    2.02935E+007    1.66980E+007    1.66980E+007   -9.48554E+005   -5.47727E+006    2.21752E+007   -3.42405E+006    1.91063E+007   -5.35464E+006    1.65659E+007   -9.39107E+005    1.64135E+006   -7.41557E+004   -4.12661E+005
            1175    1.94216E+007    1.58177E+007    1.58177E+007   -1.06114E+006   -5.40943E+006    2.12271E+007   -3.11571E+006    1.82776E+007   -5.27709E+006    1.56143E+007   -9.90082E+005    1.64525E+006   -2.11727E+005   -1.10675E+006
            1176    1.79904E+007    1.44380E+007    1.44380E+007   -1.19696E+006   -5.22497E+006    1.96629E+007   -2.67201E+006    1.69306E+007   -5.07996E+006    1.41496E+007   -1.05363E+006    1.63401E+006   -2.98044E+005   -1.50705E+006
            1177    1.63952E+007    1.29896E+007    1.29896E+007   -1.27039E+006   -4.92420E+006    1.79138E+007   -2.26501E+006    1.54387E+007   -4.77240E+006    1.26472E+007   -1.07979E+006    1.58363E+006   -3.31907E+005   -1.65254E+006
            1178    1.48593E+007    1.16655E+007    1.16655E+007   -1.26089E+006   -4.56901E+006    1.62346E+007   -1.94522E+006    1.39943E+007   -4.42188E+006    1.13175E+007   -1.05996E+006    1.48843E+006   -3.10819E+005   -1.60692E+006
            1179    1.36467E+007    1.06713E+007    1.06713E+007   -1.18117E+006   -4.24778E+006    1.49191E+007   -1.74747E+006    1.28367E+007   -4.11496E+006    1.03571E+007   -9.99786E+005    1.36563E+006   -2.62353E+005   -1.45704E+006
            1180    1.26625E+007    9.94312E+006    9.94312E+006   -9.40996E+005   -3.95415E+006    1.38973E+007   -1.68266E+006    1.18148E+007   -3.83758E+006    9.69779E+006   -8.12233E+005    1.22708E+006   -2.44800E+005   -1.18768E+006
            1181    1.78164E+007    1.52293E+007    1.52293E+007   -1.70190E+006   -3.35693E+006    1.85862E+007   -3.39014E+006    1.76422E+007   -3.22518E+006    1.50911E+007   -1.69553E+006   -1.55875E+006    1.91221E+004   -3.28999E+005
            1182    1.58719E+007    1.38081E+007    1.38081E+007   -1.90683E+006   -2.21614E+006    1.60242E+007   -3.22838E+006    1.58651E+007   -2.06354E+006    1.36555E+007   -1.90683E+006   -1.53596E+006   -1.05051E+004   -2.50713E+005
            1183    1.46285E+007    1.31510E+007    1.31510E+007   -1.14003E+006   -1.79315E+006    1.49441E+007   -3.40594E+006    1.45957E+007   -1.08269E+006    1.30889E+007   -1.78841E+006   -9.18156E+005   -2.18263E+004   -2.07875E+005
            1184    1.39185E+007    1.26655E+007    1.26655E+007   -7.52357E+005   -1.70474E+006    1.43702E+007   -3.40281E+006    1.38449E+007   -7.15417E+005    1.26259E+007   -1.70209E+006   -7.16525E+005   -2.97996E+004   -1.33697E+005
            1185    1.73610E+007    1.47950E+007    1.47950E+007   -1.65707E+006   -3.35074E+006    1.81458E+007   -3.26240E+006    1.71736E+007   -3.22254E+006    1.46166E+007   -1.60682E+006   -1.51739E+006    6.69909E+004   -9.05868E+005
            1186    1.55963E+007    1.35331E+007    1.35331E+007   -1.84009E+006   -2.27722E+006    1.58103E+007   -3.13859E+006    1.55825E+007   -2.11422E+006    1.33525E+007   -1.82252E+006   -1.50644E+006   -1.51065E+004   -7.40207E+005
            1187    1.43889E+007    1.29241E+007    1.29241E+007   -1.19298E+006   -1.72197E+006    1.46461E+007   -3.33640E+006    1.43670E+007   -1.14867E+006    1.28416E+007   -1.68373E+006   -9.21019E+005   -5.34078E+004   -5.73926E+005
            1188    1.36877E+007    1.24591E+007    1.24591E+007   -7.99767E+005   -1.62049E+006    1.40796E+007   -3.34629E+006    1.36322E+007   -7.73406E+005    1.24083E+007   -1.59605E+006   -7.17665E+005   -7.86730E+004   -4.12914E+005
            1189    1.65433E+007    1.39884E+007    1.39884E+007   -1.62278E+006   -3.35133E+006    1.73398E+007   -3.00477E+006    1.63383E+007   -3.22965E+006    1.37491E+007   -1.50515E+006   -1.44049E+006    8.93439E+004   -1.34918E+006
            1190    1.50640E+007    1.30200E+007    1.30200E+007   -1.70568E+006   -2.36090E+006    1.53809E+007   -2.98448E+006    1.50319E+007   -2.18583E+006    1.27950E+007   -1.65577E+006   -1.44860E+006   -4.23260E+004   -1.13388E+006
            1191    1.39210E+007    1.24724E+007    1.24724E+007   -1.24400E+006   -1.64451E+006    1.41169E+007   -3.19464E+006    1.39080E+007   -1.25795E+006    1.23527E+007   -1.51087E+006   -9.17684E+005   -9.63093E+004   -9.09713E+005
            1192    1.32475E+007    1.20749E+007    1.20749E+007   -8.46086E+005   -1.47656E+006    1.35514E+007   -3.25074E+006    1.32136E+007   -8.58162E+005    1.20067E+007   -1.39627E+006   -7.16748E+005   -1.38884E+005   -6.27219E+005
            1193    1.55293E+007    1.30029E+007    1.30029E+007   -1.55065E+006   -3.34616E+006    1.63490E+007   -2.70202E+006    1.52932E+007   -3.23429E+006    1.27160E+007   -1.37561E+006   -1.33856E+006    1.07868E+005   -1.58440E+006
            1194    1.42915E+007    1.22630E+007    1.22630E+007   -1.51525E+006   -2.49167E+006    1.47546E+007   -2.75201E+006    1.42161E+007   -2.32090E+006    1.19903E+007   -1.41341E+006   -1.37158E+006   -6.28741E+004   -1.40745E+006
            1195    1.32839E+007    1.18707E+007    1.18707E+007   -1.17547E+006   -1.63870E+006    1.35094E+007   -3.01886E+006    1.32657E+007   -1.43842E+006    1.17148E+007   -1.21985E+006   -9.12046E+005   -1.35855E+005   -1.11495E+006
            1196    1.26814E+007    1.15482E+007    1.15482E+007   -8.73457E+005   -1.37797E+006    1.29262E+007   -3.09892E+006    1.26588E+007   -1.04175E+006    1.14566E+007   -1.11807E+006   -7.24743E+005   -2.03020E+005   -8.06480E+005
            1197    1.43769E+007    1.18635E+007    1.18635E+007   -1.49831E+006   -3.34932E+006    1.52128E+007   -2.33862E+006    1.41051E+007   -3.24938E+006    1.15466E+007   -1.28140E+006   -1.21592E+006    1.01842E+005   -1.68856E+006
            1198    1.34643E+007    1.14938E+007    1.14938E+007   -1.26408E+006   -2.58026E+006    1.40740E+007   -2.54982E+006    1.33184E+007   -2.42264E+006    1.11960E+007   -1.12396E+006   -1.28494E+006   -7.98904E+004   -1.51060E+006
            1199    1.25425E+007    1.11610E+007    1.11610E+007   -9.65519E+005   -1.75968E+006    1.29207E+007   -2.81195E+006    1.24858E+007   -1.62001E+006    1.09748E+007   -9.18958E+005   -8.93516E+005   -1.49113E+005   -1.23305E+006
            1200    1.20172E+007    1.09418E+007    1.09418E+007   -7.08007E+005   -1.41179E+006    1.23536E+007   -2.94068E+006    1.19707E+007   -1.22235E+006    1.08345E+007   -7.90107E+005   -7.14629E+005   -2.34997E+005   -8.89300E+005
            1201    1.35294E+007    1.10787E+007    1.10787E+007   -1.35281E+006   -3.33080E+006    1.44095E+007   -2.13171E+006    1.31982E+007   -3.24298E+006    1.07692E+007   -1.13114E+006   -1.10985E+006    9.89795E+004   -1.64416E+006
            1202    1.26479E+007    1.06907E+007    1.06907E+007   -9.41745E+005   -2.77299E+006    1.34637E+007   -2.32533E+006    1.23444E+007   -2.63040E+006    1.03983E+007   -7.91890E+005   -1.21465E+006   -1.01895E+005   -1.45365E+006
            1203    1.19236E+007    1.04962E+007    1.04962E+007   -7.21828E+005   -2.02580E+006    1.25220E+007   -2.58286E+006    1.17616E+007   -1.89600E+006    1.03009E+007   -6.56327E+005   -9.06246E+005   -1.91807E+005   -1.21346E+006
            1204    1.14068E+007    1.03192E+007    1.03192E+007   -4.40811E+005   -1.63966E+006    1.19588E+007   -2.74624E+006    1.12637E+007   -1.49066E+006    1.01965E+007   -4.67118E+005   -7.20069E+005   -2.82753E+005   -9.38815E+005
            1205    1.24659E+007    1.02073E+007    1.02073E+007   -8.88602E+005   -3.28163E+006    1.34889E+007   -2.01236E+006    1.19326E+007   -3.20654E+006    9.91858E+006   -6.74965E+005   -9.91800E+005    1.51589E+005   -1.51970E+006
            1206    1.23146E+007    1.03262E+007    1.03262E+007   -8.37287E+005   -2.88336E+006    1.32095E+007   -2.20183E+006    1.19232E+007   -2.78450E+006    1.00911E+007   -7.01099E+005   -1.08888E+006   -1.79957E+004   -1.26432E+006
            1207    1.14725E+007    1.00015E+007    1.00015E+007   -4.45053E+005   -2.27654E+006    1.22781E+007   -2.42665E+006    1.11365E+007   -2.18416E+006    9.79111E+006   -3.27005E+005   -9.00876E+005   -1.22464E+005   -1.22780E+006
            1208    1.07767E+007    9.66767E+006    9.66767E+006   -1.34569E+005   -1.87236E+006    1.15400E+007   -2.55358E+006    1.04545E+007   -1.77999E+006    9.53705E+006   -9.63137E+004   -7.03232E+005   -2.30797E+005   -9.37874E+005
            1209    1.01807E+007    8.98708E+006    8.98708E+006    1.57307E+005   -2.14894E+006    1.11360E+007   -2.33182E+006    9.56615E+006   -2.08781E+006    8.85326E+006    2.29993E+005   -7.16091E+005   -1.25574E+005   -8.83471E+005
            1210    1.09730E+007    9.29906E+006    9.29906E+006   -3.67581E+005   -2.62819E+006    1.19272E+007   -2.10110E+006    1.04296E+007   -2.55363E+006    9.05835E+006   -2.01430E+005   -8.91728E+005   -2.38756E+004   -1.28611E+006
            1211    1.21408E+007    1.01049E+007    1.01049E+007   -7.62207E+005   -2.99865E+006    1.31036E+007   -2.11469E+006    1.16638E+007   -2.91662E+006    9.76517E+006   -5.04490E+005   -1.02031E+006    9.95347E+004   -1.65235E+006
            1212    1.34354E+007    1.09004E+007    1.09004E+007   -1.47974E+006   -3.38646E+006    1.42869E+007   -2.01140E+006    1.31258E+007   -3.29524E+006    1.06175E+007   -1.28802E+006   -1.12980E+006    1.34436E+005   -1.52303E+006
            1213    1.93775E+007    1.63667E+007    1.63667E+007   -1.00376E+006   -4.53274E+006    2.08995E+007   -3.61008E+006    1.86338E+007   -4.46097E+006    1.62850E+007   -9.93746E+005   -1.21967E+006    5.73955E+004   -4.20532E+005
            1214    1.86279E+007    1.55549E+007    1.55549E+007   -1.11611E+006   -4.55163E+006    2.01066E+007   -3.29573E+006    1.78942E+007   -4.47246E+006    1.53960E+007   -1.03632E+006   -1.23511E+006    1.68226E+005   -1.16152E+006
            1215    1.74404E+007    1.43156E+007    1.43156E+007   -1.26013E+006   -4.52731E+006    1.88429E+007   -2.84272E+006    1.67309E+007   -4.43760E+006    1.40648E+007   -1.09903E+006   -1.24966E+006    2.44091E+005   -1.59059E+006
            1216    1.60063E+007    1.28573E+007    1.28573E+007   -1.42766E+006   -4.44189E+006    1.72992E+007   -2.32923E+006    1.53482E+007   -4.34229E+006    1.25391E+007   -1.20906E+006   -1.25148E+006    2.80174E+005   -1.76682E+006
            1217    1.46364E+007    1.15134E+007    1.15134E+007   -1.56319E+006   -4.29717E+006    1.58106E+007   -1.88435E+006    1.40446E+007   -4.19394E+006    1.11850E+007   -1.33801E+006   -1.22294E+006    2.70626E+005   -1.70978E+006
            1218    1.33483E+007    1.02018E+007    1.02018E+007   -1.73538E+006   -4.21099E+006    1.44128E+007   -1.41847E+006    1.28164E+007   -4.10990E+006    9.91459E+006   -1.54928E+006   -1.17120E+006    2.22646E+005   -1.48105E+006
            1219    1.32272E+007    1.00282E+007    1.00282E+007   -2.14862E+006   -4.04485E+006    1.40730E+007   -1.27823E+006    1.29161E+007   -3.94605E+006    9.80799E+006   -2.02725E+006   -1.16711E+006    1.31493E+005   -1.20517E+006
            1220    9.74463E+006    8.87693E+006    8.87693E+006    4.22255E+005   -1.78054E+006    1.06575E+007   -2.50621E+006    9.15897E+006   -1.73388E+006    8.82308E+006    4.29431E+005   -5.07340E+005   -1.96852E+005   -5.09207E+005
            1221    9.52319E+006    8.87190E+006    8.87190E+006    5.68975E+005   -1.52355E+006    1.03954E+007   -2.63911E+006    8.98383E+006   -1.48821E+006    8.85962E+006    5.45920E+005   -2.63623E+005   -2.37565E+005   -2.21369E+005
            1222    9.48949E+006    8.88511E+006    8.88511E+006    5.61847E+005   -1.44847E+006    1.03336E+007   -2.66616E+006    8.99147E+006   -1.41740E+006    8.88511E+006    5.30772E+005   -3.56927E+003   -2.48003E+005    4.68976E+002
            1223    9.52366E+006    8.86695E+006    8.86695E+006    5.60255E+005   -1.52733E+006    1.03943E+007   -2.63329E+006    8.98699E+006   -1.49224E+006    8.85527E+006    5.36842E+005    2.60353E+005   -2.37240E+005    2.12811E+005
            1224    9.75146E+006    8.87813E+006    8.87813E+006    4.17040E+005   -1.78658E+006    1.06647E+007   -2.50286E+006    9.16579E+006   -1.74046E+006    8.82364E+006    4.25402E+005    5.05409E+005   -1.94988E+005    5.16333E+005
            1225    1.02012E+007    8.97547E+006    8.97547E+006    1.03164E+005   -2.17079E+006    1.11463E+007   -2.30261E+006    9.60577E+006   -2.10986E+006    8.84674E+006    1.70960E+005    7.15665E+005   -1.25362E+005    8.60426E+005
            1226    1.09869E+007    9.32175E+006    9.32175E+006   -3.63305E+005   -2.61743E+006    1.19392E+007   -2.11367E+006    1.04475E+007   -2.54445E+006    9.09865E+006   -2.13184E+005    8.85007E+005   -2.54467E+004    1.22575E+006
            1227    1.18736E+007    9.71895E+006    9.71895E+006   -9.62836E+005   -3.06560E+006    1.27846E+007   -1.89684E+006    1.14434E+007   -2.98549E+006    9.47126E+006   -7.95267E+005    9.94615E+005    5.48882E+004    1.33193E+006
            1228    1.21121E+007    9.49293E+006    9.49293E+006   -1.31029E+006   -3.60087E+006    1.30938E+007   -1.52726E+006    1.16097E+007   -3.51173E+006    9.26253E+006   -1.16902E+006    1.07068E+006    1.08344E+005    1.22256E+006
            1229    1.02193E+007    9.43572E+006    9.43572E+006    1.64389E+005   -1.52183E+006    1.09575E+007   -2.69276E+006    9.89904E+006   -1.43598E+006    9.37852E+006    1.35737E+005   -4.70053E+005   -3.00613E+005   -5.98323E+005
            1230    1.08428E+007    1.00421E+007    1.00421E+007   -2.25123E+005   -1.29665E+006    1.13388E+007   -2.84012E+006    1.07227E+007   -1.13957E+006    9.98798E+006   -3.28055E+005   -4.39964E+005   -3.36782E+005   -6.31062E+005
            1231    1.14794E+007    1.06914E+007    1.06914E+007   -4.74439E+005   -1.07772E+006    1.17692E+007   -3.04642E+006    1.14437E+007   -8.39720E+005    1.06493E+007   -6.70273E+005   -3.89114E+005   -2.72498E+005   -5.83436E+005
            1232    1.21211E+007    1.12720E+007    1.12720E+007   -5.32300E+005   -1.14283E+006    1.24148E+007   -3.19896E+006    1.20864E+007   -6.42725E+005    1.12425E+007   -1.00289E+006   -3.45125E+005   -2.28862E+005   -4.96008E+005
            1233    1.26971E+007    1.17895E+007    1.17895E+007   -4.34941E+005   -1.33271E+006    1.31222E+007   -3.34060E+006    1.26254E+007   -4.57485E+005    1.17713E+007   -1.29204E+006   -2.92166E+005   -1.51004E+005   -3.85704E+005
            1234    1.31264E+007    1.21646E+007    1.21646E+007   -3.65199E+005   -1.48652E+006    1.36511E+007   -3.43762E+006    1.30180E+007   -3.67247E+005    1.21553E+007   -1.47521E+006   -2.60226E+005   -8.63396E+004   -2.31482E+005
            1235    1.33607E+007    1.23644E+007    1.23644E+007   -3.13864E+005   -1.58751E+006    1.39519E+007   -3.48766E+006    1.32230E+007   -3.10147E+005    1.23592E+007   -1.58611E+006   -2.40180E+005   -3.09024E+004   -8.92229E+004
            1236    9.99404E+006    9.37565E+006    9.37565E+006    2.89201E+005   -1.32860E+006    1.07042E+007   -2.77875E+006    9.69286E+006   -1.24323E+006    9.36251E+006    2.16968E+005   -2.29939E+005   -3.45690E+005   -2.80703E+005
            1237    1.06265E+007    9.98548E+006    9.98548E+006   -6.43508E+004   -1.13638E+006    1.11219E+007   -2.92825E+006    1.05038E+007   -9.80136E+005    9.97406E+006   -2.09168E+005   -2.03477E+005   -3.69316E+005   -2.85877E+005
            1238    1.13305E+007    1.06475E+007    1.06475E+007   -3.60645E+005   -9.79883E+005    1.16274E+007   -3.10232E+006    1.12923E+007   -7.38911E+005    1.06398E+007   -5.93900E+005   -1.72248E+005   -2.97716E+005   -2.44121E+005
            1239    1.20569E+007    1.12746E+007    1.12746E+007   -4.68865E+005   -1.07303E+006    1.23476E+007   -3.24423E+006    1.20228E+007   -5.90099E+005    1.12699E+007   -9.47142E+005   -1.50154E+005   -2.41062E+005   -1.86473E+005
            1240    1.26789E+007    1.18106E+007    1.18106E+007   -4.30130E+005   -1.26534E+006    1.30759E+007   -3.37170E+006    1.26168E+007   -4.59132E+005    1.18081E+007   -1.23385E+006   -1.30693E+005   -1.55127E+005   -1.21251E+005
            1241    1.31624E+007    1.22090E+007    1.22090E+007   -4.02802E+005   -1.44242E+006    1.36514E+007   -3.45459E+006    1.30696E+007   -4.09286E+005    1.22074E+007   -1.43433E+006   -1.23113E+005   -8.83243E+004   -7.54012E+004
            1242    1.34125E+007    1.24168E+007    1.24168E+007   -3.73445E+005   -1.54160E+006    1.39584E+007   -3.50058E+006    1.32973E+007   -3.73124E+005    1.24157E+007   -1.54080E+006   -1.18180E+005   -2.98245E+004   -1.96136E+004
            1243    9.89250E+006    9.32826E+006    9.32826E+006    3.43517E+005   -1.27290E+006    1.06012E+007   -2.79963E+006    9.58862E+006   -1.19128E+006    9.32822E+006    2.61942E+005    1.29079E+004   -3.53881E+005    1.62186E+004
            1244    1.05052E+007    9.89341E+006    9.89341E+006   -4.17052E+004   -1.10151E+006    1.09949E+007   -2.91673E+006    1.03839E+007   -9.45658E+005    9.89295E+006   -1.97097E+005    3.96901E+004   -3.74997E+005    5.77765E+004
            1245    1.11885E+007    1.05419E+007    1.05419E+007   -3.27194E+005   -9.40727E+005    1.14826E+007   -3.09132E+006    1.11505E+007   -6.92696E+005    1.05405E+007   -5.73904E+005    6.90926E+004   -3.00401E+005    1.01599E+005
            1246    1.18962E+007    1.11475E+007    1.11475E+007   -4.17602E+005   -1.05414E+006    1.22017E+007   -3.22526E+006    1.18578E+007   -5.28878E+005    1.11453E+007   -9.40638E+005    9.70864E+004   -2.41369E+005    1.33100E+005
            1247    1.25183E+007    1.16838E+007    1.16838E+007   -3.48090E+005   -1.26998E+006    1.29538E+007   -3.35525E+006    1.24416E+007   -3.74536E+005    1.16813E+007   -1.24106E+006    1.20531E+005   -1.55963E+005    1.30052E+005
            1248    1.29753E+007    1.20652E+007    1.20652E+007   -2.95034E+005   -1.44809E+006    1.35133E+007   -3.44070E+006    1.28592E+007   -3.00734E+005    1.20630E+007   -1.44017E+006    1.35952E+005   -8.97023E+004    1.00139E+005
            1249    1.32210E+007    1.22696E+007    1.22696E+007   -2.51740E+005   -1.55471E+006    1.38243E+007   -3.48770E+006    1.30754E+007   -2.50776E+005    1.22678E+007   -1.55391E+006    1.45950E+005   -3.06116E+004    3.11042E+004
            1250    9.99252E+006    9.35959E+006    9.35959E+006    2.89726E+005   -1.35219E+006    1.07118E+007   -2.76571E+006    9.68203E+006   -1.26831E+006    9.34265E+006    2.22794E+005    2.60220E+005   -3.40665E+005    3.19039E+005
            1251    1.06422E+007    9.96389E+006    9.96389E+006   -8.24263E+004   -1.18785E+006    1.11517E+007   -2.89787E+006    1.05118E+007   -1.03523E+006    9.94198E+006   -2.13127E+005    2.78016E+005   -3.64100E+005    3.98186E+005
            1252    1.13789E+007    1.06457E+007    1.06457E+007   -3.99926E+005   -1.03960E+006    1.16853E+007   -3.06872E+006    1.13384E+007   -8.15152E+005    1.06215E+007   -6.00161E+005    2.95741E+005   -2.91756E+005    4.39149E+005
            1253    1.21506E+007    1.13045E+007    1.13045E+007   -5.49285E+005   -1.12252E+006    1.24270E+007   -3.21090E+006    1.21201E+007   -6.83560E+005    1.12809E+007   -9.64602E+005    3.19724E+005   -2.36510E+005    4.36816E+005
            1254    1.28308E+007    1.18865E+007    1.18865E+007   -5.35484E+005   -1.31738E+006    1.32039E+007   -3.34456E+006    1.27771E+007   -5.61808E+005    1.18670E+007   -1.27147E+006    3.35230E+005   -1.52444E+005    3.76758E+005
            1255    1.33491E+007    1.23186E+007    1.23186E+007   -5.15954E+005   -1.49155E+006    1.38101E+007   -3.43703E+006    1.32686E+007   -5.15489E+005    1.23047E+007   -1.47813E+006    3.48309E+005   -8.65009E+004    2.49400E+005
            1256    1.36227E+007    1.25467E+007    1.25467E+007   -4.91906E+005   -1.59335E+006    1.41400E+007   -3.48713E+006    1.35220E+007   -4.83124E+005    1.25364E+007   -1.59189E+006    3.55569E+005   -2.94752E+004    8.77378E+004
            1257    1.02417E+007    9.40445E+006    9.40445E+006    1.36386E+005   -1.59118E+006    1.09956E+007   -2.64989E+006    9.90592E+006   -1.50785E+006    9.34045E+006    1.17051E+005    5.00113E+005   -2.89059E+005    6.30646E+005
            1258    1.09002E+007    1.00167E+007    1.00167E+007   -2.55275E+005   -1.41845E+006    1.14351E+007   -2.78099E+006    1.07592E+007   -1.27105E+006    9.94191E+006   -3.27905E+005    5.25946E+005   -3.24166E+005    7.35909E+005
            1259    1.16020E+007    1.06897E+007    1.06897E+007   -5.67304E+005   -1.22903E+006    1.19187E+007   -2.96446E+006    1.15595E+007   -1.02535E+006    1.06140E+007   -6.95293E+005    5.40835E+005   -2.58917E+005    7.71633E+005
            1260    1.23528E+007    1.13475E+007    1.13475E+007   -7.28265E+005   -1.26482E+006    1.26123E+007   -3.11815E+006    1.23266E+007   -8.67331E+005    1.12770E+007   -1.05523E+006    5.68539E+005   -2.13587E+005    7.49090E+005
            1261    1.30148E+007    1.19368E+007    1.19368E+007   -6.90278E+005   -1.43372E+006    1.33706E+007   -3.27095E+006    1.29669E+007   -7.03950E+005    1.18814E+007   -1.36458E+006    5.80827E+005   -1.40154E+005    6.25117E+005
            1262    1.35021E+007    1.23625E+007    1.23625E+007   -6.40727E+005   -1.58863E+006    1.39511E+007   -3.37771E+006    1.34270E+007   -6.23831E+005    1.23234E+007   -1.56647E+006    5.90814E+005   -7.81076E+004    4.15511E+005
            1263    1.37639E+007    1.25911E+007    1.25911E+007   -5.96845E+005   -1.68414E+006    1.42753E+007   -3.43671E+006    1.36667E+007   -5.70874E+005    1.25627E+007   -1.68169E+006    5.96659E+005   -2.78743E+004    1.41468E+005
            1264    1.07635E+007    9.61298E+006    9.61298E+006   -1.31672E+005   -1.94030E+006    1.15533E+007   -2.51367E+006    1.04134E+007   -1.85217E+006    9.47628E+006   -8.31037E+004    7.23780E+005   -2.13639E+005    9.52653E+005
            1265    1.14311E+007    1.02402E+007    1.02402E+007   -4.80158E+005   -1.78897E+006    1.20292E+007   -2.65704E+006    1.12607E+007   -1.65095E+006    1.00951E+007   -4.73023E+005    7.71265E+005   -2.61984E+005    1.02629E+006
            1266    1.22028E+007    1.09737E+007    1.09737E+007   -8.01790E+005   -1.61558E+006    1.25893E+007   -2.85212E+006    1.21415E+007   -1.45182E+006    1.08254E+007   -8.17260E+005    8.16498E+005   -2.08738E+005    1.06989E+006
            1267    1.30395E+007    1.17119E+007    1.17119E+007   -1.05960E+006   -1.57991E+006    1.32918E+007   -3.02414E+006    1.30161E+007   -1.34124E+006    1.15750E+007   -1.16136E+006    8.89531E+005   -1.79279E+005    1.00314E+006
            1268    1.37600E+007    1.23572E+007    1.23572E+007   -1.18599E+006   -1.60987E+006    1.39671E+007   -3.18712E+006    1.37453E+007   -1.21927E+006    1.22424E+007   -1.46178E+006    9.46227E+005   -1.22318E+005    8.30204E+005
            1269    1.43122E+007    1.28454E+007    1.28454E+007   -1.21285E+006   -1.70797E+006    1.45534E+007   -3.30820E+006    1.42930E+007   -1.16618E+006    1.27548E+007   -1.66398E+006    9.94585E+005   -6.80583E+004    5.44287E+005
            1270    1.46073E+007    1.31036E+007    1.31036E+007   -1.20597E+006   -1.78419E+006    1.48878E+007   -3.37114E+006    1.45815E+007   -1.13535E+006    1.30280E+007   -1.77927E+006    1.02170E+006   -2.62772E+004    1.84333E+005
            1271    1.13738E+007    9.80720E+006    9.80720E+006   -4.80934E+005   -2.40649E+006    1.22137E+007   -2.30659E+006    1.09981E+007   -2.31764E+006    9.60555E+006   -3.68130E+005    9.06854E+005   -1.09293E+005    1.17504E+006
            1272    1.19655E+007    1.03970E+007    1.03970E+007   -7.70118E+005   -2.23243E+006    1.26294E+007   -2.46481E+006    1.17619E+007   -2.10609E+006    1.01663E+007   -6.65780E+005    9.67842E+005   -1.65562E+005    1.32535E+006
            1273    1.27812E+007    1.12021E+007    1.12021E+007   -1.07880E+006   -2.02654E+006    1.32287E+007   -2.69893E+006    1.27017E+007   -1.89577E+006    1.09768E+007   -9.84290E+005    1.00367E+006   -1.14738E+005    1.35339E+006
            1274    1.36391E+007    1.19991E+007    1.19991E+007   -1.31689E+006   -1.94162E+006    1.39408E+007   -2.91355E+006    1.36069E+007   -1.79309E+006    1.17966E+007   -1.26282E+006    1.07231E+006   -9.22358E+004    1.26456E+006
            1275    1.44307E+007    1.27422E+007    1.27422E+007   -1.52600E+006   -1.84566E+006    1.45878E+007   -3.12350E+006    1.44227E+007   -1.67261E+006    1.25784E+007   -1.53523E+006    1.12657E+006   -5.97111E+004    1.04477E+006
            1276    1.50240E+007    1.32960E+007    1.32960E+007   -1.64626E+006   -1.80851E+006    1.51045E+007   -3.28041E+006    1.50221E+007   -1.61880E+006    1.31728E+007   -1.71282E+006    1.17034E+006   -2.56811E+004    6.87514E+005
            1277    1.53696E+007    1.36132E+007    1.36132E+007   -1.68412E+006   -1.82759E+006    1.54408E+007   -3.36717E+006    1.53681E+007   -1.59581E+006    1.35148E+007   -1.81750E+006    1.20037E+006   -1.09691E+004    2.38826E+005
            1278    1.19993E+007    9.99973E+006    9.99973E+006   -7.76877E+005   -2.93066E+006    1.29304E+007   -2.09740E+006    1.15524E+007   -2.84342E+006    9.74207E+006   -6.06452E+005    1.02826E+006    1.95584E+004    1.36210E+006
            1279    1.27991E+007    1.07222E+007    1.07222E+007   -1.03614E+006   -2.91092E+006    1.36331E+007   -2.25838E+006    1.24846E+007   -2.78278E+006    1.04280E+007   -8.70105E+005    1.19302E+006   -6.76849E+004    1.48529E+006
            1280    1.36186E+007    1.15123E+007    1.15123E+007   -1.28088E+006   -2.80360E+006    1.43159E+007   -2.47595E+006    1.34250E+007   -2.65917E+006    1.12037E+007   -1.11665E+006    1.29968E+006   -4.61413E+004    1.55110E+006
            1281    1.46098E+007    1.24276E+007    1.24276E+007   -1.48744E+006   -2.78986E+006    1.52174E+007   -2.71676E+006    1.44784E+007   -2.63196E+006    1.21348E+007   -1.35254E+006    1.42953E+006   -2.34590E+004    1.47359E+006
            1282    1.55127E+007    1.32661E+007    1.32661E+007   -1.67560E+006   -2.76050E+006    1.60266E+007   -2.94335E+006    1.54270E+007   -2.59239E+006    1.30138E+007   -1.59133E+006    1.54018E+006   -1.70581E+004    1.23754E+006
            1283    1.62323E+007    1.39399E+007    1.39399E+007   -1.79093E+006   -2.75124E+006    1.66911E+007   -3.13256E+006    1.61682E+007   -2.58429E+006    1.37355E+007   -1.75350E+006    1.62874E+006    5.88003E+003    8.28856E+005
            1284    1.66605E+007    1.43306E+007    1.43306E+007   -1.85434E+006   -2.76794E+006    1.70985E+007   -3.23609E+006    1.66040E+007   -2.59917E+006    1.41581E+007   -1.85067E+006    1.68252E+006   -8.25472E+003    2.91516E+005
            1285    1.25360E+007    1.01700E+007    1.01700E+007   -1.16161E+006   -3.29630E+006    1.34663E+007   -1.90402E+006    1.21169E+007   -3.22032E+006    9.88955E+006   -9.57164E+005    9.89596E+005    1.73996E+005    1.50573E+006
            1286    1.32516E+007    1.08375E+007    1.08375E+007   -1.16496E+006   -3.38330E+006    1.42208E+007   -2.09640E+006    1.28238E+007   -3.29498E+006    1.05343E+007   -9.50106E+005    1.10771E+006    1.45119E+005    1.58549E+006
            1287    1.43549E+007    1.18480E+007    1.18480E+007   -1.35306E+006   -3.43367E+006    1.52816E+007   -2.35374E+006    1.40096E+007   -3.33418E+006    1.15299E+007   -1.13450E+006    1.22014E+006    1.36074E+005    1.67895E+006
            1288    1.55327E+007    1.29479E+007    1.29479E+007   -1.42853E+006   -3.52770E+006    1.64756E+007   -2.66388E+006    1.52087E+007   -3.41678E+006    1.26491E+007   -1.24066E+006    1.33883E+006    1.50010E+005    1.62632E+006
            1289    1.67499E+007    1.40972E+007    1.40972E+007   -1.51263E+006   -3.59769E+006    1.76949E+007   -2.99562E+006    1.64542E+007   -3.48028E+006    1.38492E+007   -1.38207E+006    1.43122E+006    1.19378E+005    1.41665E+006
            1290    1.77425E+007    1.50508E+007    1.50508E+007   -1.54487E+006   -3.65058E+006    1.87014E+007   -3.28512E+006    1.74580E+007   -3.52875E+006    1.48710E+007   -1.48691E+006    1.50134E+006    9.57659E+004    9.75556E+005
            1291    1.83320E+007    1.56136E+007    1.56136E+007   -1.56898E+006   -3.68421E+006    1.92978E+007   -3.45348E+006    1.80544E+007   -3.56175E+006    1.54839E+007   -1.56167E+006    1.53205E+006    2.62275E+004    3.53389E+005
            1292    1.94948E+007    1.64457E+007    1.64457E+007   -9.61403E+005   -4.61878E+006    2.10644E+007   -3.62183E+006    1.86994E+007   -4.55305E+006    1.63687E+007   -9.50136E+005    1.17029E+006    6.62104E+004    4.48722E+005
            1293    1.87260E+007    1.56088E+007    1.56088E+007   -1.10784E+006   -4.62705E+006    2.02359E+007   -3.29131E+006    1.79592E+007   -4.55262E+006    1.54480E+007   -1.02148E+006    1.19338E+006    1.83211E+005    1.21351E+006
            1294    1.74546E+007    1.42800E+007    1.42800E+007   -1.28483E+006   -4.59137E+006    1.88714E+007   -2.80127E+006    1.67281E+007   -4.50409E+006    1.40168E+007   -1.10889E+006    1.21976E+006    2.65517E+005    1.66538E+006
            1295    1.60409E+007    1.28845E+007    1.28845E+007   -1.42241E+006   -4.45699E+006    1.73415E+007   -2.33503E+006    1.53751E+007   -4.35968E+006    1.25474E+007   -1.18259E+006    1.22544E+006    2.99880E+005    1.85381E+006
            1296    1.46425E+007    1.15801E+007    1.15801E+007   -1.44636E+006   -4.26779E+006    1.58479E+007   -1.95532E+006    1.40112E+007   -4.16696E+006    1.12193E+007   -1.18638E+006    1.20262E+006    2.88152E+005    1.83062E+006
            1297    1.34907E+007    1.05605E+007    1.05605E+007   -1.43028E+006   -4.04686E+006    1.46073E+007   -1.69445E+006    1.29012E+007   -3.94748E+006    1.02111E+007   -1.18024E+006    1.15997E+006    2.54940E+005    1.71524E+006
            1298    1.25404E+007    9.73313E+006    9.73313E+006   -1.31426E+006   -3.89792E+006    1.36310E+007   -1.50698E+006    1.19194E+007   -3.80139E+006    9.43716E+006   -1.11482E+006    1.12698E+006    1.81945E+005    1.46543E+006
            1299    1.34173E+007    1.08713E+007    1.08713E+007   -1.49289E+006   -3.39588E+006    1.42672E+007   -1.99418E+006    1.31085E+007   -3.30481E+006    1.05912E+007   -1.30388E+006   -1.12810E+006   -1.34075E+005    1.51140E+006
            1300    1.21837E+007    1.01390E+007    1.01390E+007   -7.78933E+005   -3.00381E+006    1.31428E+007   -2.11875E+006    1.17135E+007   -2.92139E+006    9.79776E+006   -5.20127E+005   -1.02434E+006   -1.00577E+005    1.65963E+006
            1301    1.09962E+007    9.31743E+006    9.31743E+006   -3.72723E+005   -2.63338E+006    1.19508E+007   -2.10378E+006    1.04540E+007   -2.55862E+006    9.07358E+006   -2.03620E+005   -8.94814E+005    2.13884E+004    1.29771E+006
            1302    1.01898E+007    8.99609E+006    8.99609E+006    1.55847E+005   -2.14862E+006    1.11447E+007   -2.33444E+006    9.57684E+006   -2.08737E+006    8.86076E+006    2.29928E+005   -7.17655E+005    1.24653E+005    8.90626E+005
            1303    1.07927E+007    9.68326E+006    9.68326E+006   -1.39382E+005   -1.87031E+006    1.15536E+007   -2.55785E+006    1.04736E+007   -1.77737E+006    9.55176E+006   -1.00826E+005   -7.05380E+005    2.30841E+005    9.42332E+005
            1304    1.14345E+007    1.03441E+007    1.03441E+007   -4.52584E+005   -1.63621E+006    1.19803E+007   -2.75177E+006    1.12955E+007   -1.48606E+006    1.02207E+007   -4.79369E+005   -7.23129E+005    2.81240E+005    9.42541E+005
            1305    1.20421E+007    1.09649E+007    1.09649E+007   -7.17172E+005   -1.40751E+006    1.23724E+007   -2.94673E+006    1.19974E+007   -1.21618E+006    1.08578E+007   -8.01376E+005   -7.15722E+005    2.32807E+005    8.88523E+005
            1306    1.27021E+007    1.15690E+007    1.15690E+007   -8.73137E+005   -1.37789E+006    1.29469E+007   -3.10600E+006    1.26795E+007   -1.03376E+006    1.14784E+007   -1.12667E+006   -7.23078E+005    2.02097E+005    8.01177E+005
            1307    1.32672E+007    1.20909E+007    1.20909E+007   -8.46042E+005   -1.48358E+006    1.35745E+007   -3.25375E+006    1.32326E+007   -8.56791E+005    1.20229E+007   -1.40489E+006   -7.19127E+005    1.38420E+005    6.22374E+005
            1308    1.37019E+007    1.24704E+007    1.24704E+007   -8.02395E+005   -1.62362E+006    1.40940E+007   -3.34813E+006    1.36464E+007   -7.75279E+005    1.24195E+007   -1.59978E+006   -7.21787E+005    7.74480E+004    4.08733E+005
            1309    1.39201E+007    1.26662E+007    1.26662E+007   -7.53525E+005   -1.70548E+006    1.43717E+007   -3.40240E+006    1.38466E+007   -7.16347E+005    1.26265E+007   -1.70301E+006   -7.17670E+005    2.83539E+004    1.30827E+005
            1310    1.15000E+007    1.00225E+007    1.00225E+007   -4.55318E+005   -2.28125E+006    1.23038E+007   -2.42864E+006    1.11669E+007   -2.18837E+006    9.81099E+006   -3.36683E+005   -9.05289E+005    1.21462E+005    1.23198E+006
            1311    1.19548E+007    1.05200E+007    1.05200E+007   -7.33362E+005   -2.03052E+006    1.25505E+007   -2.58537E+006    1.17949E+007   -1.90019E+006    1.03223E+007   -6.65982E+005   -9.12147E+005    1.89527E+005    1.22299E+006
            1312    1.25936E+007    1.12031E+007    1.12031E+007   -9.82190E+005   -1.76254E+006    1.29656E+007   -2.81946E+006    1.25390E+007   -1.62190E+006    1.10162E+007   -9.35926E+005   -9.00168E+005    1.46638E+005    1.23569E+006
            1313    1.33152E+007    1.18979E+007    1.18979E+007   -1.18335E+006   -1.63950E+006    1.35374E+007   -3.02501E+006    1.32976E+007   -1.43643E+006    1.17427E+007   -1.23130E+006   -9.15711E+005    1.34772E+005    1.10969E+006
            1314    1.39368E+007    1.24891E+007    1.24891E+007   -1.24239E+006   -1.64430E+006    1.41334E+007   -3.20082E+006    1.39238E+007   -1.25383E+006    1.23707E+007   -1.51438E+006   -9.17180E+005    9.51041E+004    9.01882E+005
            1315    1.44003E+007    1.29330E+007    1.29330E+007   -1.19534E+006   -1.72457E+006    1.46576E+007   -3.33770E+006    1.43784E+007   -1.15065E+006    1.28508E+007   -1.68701E+006   -9.22829E+005    5.32572E+004    5.67915E+005
            1316    1.46360E+007    1.31569E+007    1.31569E+007   -1.14211E+006   -1.79424E+006    1.49512E+007   -3.40686E+006    1.46033E+007   -1.08461E+006    1.30948E+007   -1.78958E+006   -9.19996E+005    2.24582E+004    2.03482E+005
            1317    1.23094E+007    1.03178E+007    1.03178E+007   -8.35929E+005   -2.88902E+006    1.32069E+007   -2.19763E+006    1.19150E+007   -2.79015E+006    1.00817E+007   -6.98617E+005   -1.08958E+006    1.66670E+004    1.26793E+006
            1318    1.26947E+007    1.07278E+007    1.07278E+007   -9.57103E+005   -2.77965E+006    1.35075E+007   -2.33036E+006    1.23952E+007   -2.63680E+006    1.04333E+007   -8.05426E+005   -1.21902E+006    9.96584E+004    1.46316E+006
            1319    1.35125E+007    1.15332E+007    1.15332E+007   -1.27775E+006   -2.58580E+006    1.41190E+007   -2.55655E+006    1.33690E+007   -2.42848E+006    1.12345E+007   -1.13637E+006   -1.29044E+006    7.59716E+004    1.51475E+006
            1320    1.43300E+007    1.22975E+007    1.22975E+007   -1.52225E+006   -2.49333E+006    1.47909E+007   -2.76065E+006    1.42557E+007   -2.32241E+006    1.20256E+007   -1.42121E+006   -1.37756E+006    6.10454E+004    1.40227E+006
            1321    1.50680E+007    1.30229E+007    1.30229E+007   -1.70767E+006   -2.36125E+006    1.53842E+007   -2.98466E+006    1.50361E+007   -2.18595E+006    1.27983E+007   -1.65835E+006   -1.45095E+006    4.20951E+004    1.12895E+006
            1322    1.56080E+007    1.35432E+007    1.35432E+007   -1.84063E+006   -2.27966E+006    1.58229E+007   -3.14098E+006    1.55941E+007   -2.11634E+006    1.33622E+007   -1.82292E+006   -1.50901E+006    1.49687E+004    7.41309E+005
            1323    1.58822E+007    1.38156E+007    1.38156E+007   -1.90937E+006   -2.21915E+006    1.60348E+007   -3.22903E+006    1.58754E+007   -2.06668E+006    1.36630E+007   -1.90919E+006   -1.53748E+006    9.53397E+003    2.46268E+005
            1324    1.24870E+007    1.02257E+007    1.02257E+007   -8.98605E+005   -3.28081E+006    1.35065E+007   -2.01541E+006    1.19596E+007   -3.20577E+006    9.93448E+006   -6.82466E+005   -9.91677E+005   -1.53617E+005    1.53045E+006
            1325    1.35453E+007    1.10896E+007    1.10896E+007   -1.35587E+006   -3.33731E+006    1.44269E+007   -2.13213E+006    1.32133E+007   -3.24916E+006    1.07810E+007   -1.13550E+006   -1.11301E+006   -1.00500E+005    1.64003E+006
            1326    1.44160E+007    1.18984E+007    1.18984E+007   -1.50021E+006   -3.35536E+006    1.52538E+007   -2.34762E+006    1.41437E+007   -3.25518E+006    1.15826E+007   -1.28453E+006   -1.21946E+006   -1.03325E+005    1.68581E+006
            1327    1.55496E+007    1.30226E+007    1.30226E+007   -1.54540E+006   -3.35105E+006    1.63736E+007   -2.70871E+006    1.53111E+007   -3.23901E+006    1.27361E+007   -1.37095E+006   -1.34057E+006   -1.07660E+005    1.58258E+006
            1328    1.65666E+007    1.40133E+007    1.40133E+007   -1.61780E+006   -3.35240E+006    1.73657E+007   -3.01436E+006    1.63605E+007   -3.23087E+006    1.37748E+007   -1.50080E+006   -1.44076E+006   -8.91625E+004    1.34646E+006
            1329    1.73733E+007    1.48079E+007    1.48079E+007   -1.65623E+006   -3.35033E+006    1.81583E+007   -3.26712E+006    1.71860E+007   -3.22226E+006    1.46297E+007   -1.60608E+006   -1.51720E+006   -6.75977E+004    9.05224E+005
            1330    1.78183E+007    1.52330E+007    1.52330E+007   -1.69885E+006   -3.35597E+006    1.85889E+007   -3.39272E+006    1.76437E+007   -3.22436E+006    1.50949E+007   -1.69238E+006   -1.55796E+006   -1.90349E+004    3.31961E+005
            1331    1.93665E+007    1.63532E+007    1.63532E+007   -1.00501E+006   -4.53577E+006    2.08890E+007   -3.60415E+006    1.86216E+007   -4.46396E+006    1.62705E+007   -9.94076E+005   -1.21967E+006   -5.91861E+004    4.39082E+005
            1332    1.86291E+007    1.55523E+007    1.55523E+007   -1.11688E+006   -4.55712E+006    2.01094E+007   -3.29276E+006    1.78933E+007   -4.47794E+006    1.53933E+007   -1.03704E+006   -1.23491E+006   -1.69203E+005    1.16213E+006
            1333    1.74556E+007    1.43269E+007    1.43269E+007   -1.26803E+006   -4.52938E+006    1.88563E+007   -2.84317E+006    1.67495E+007   -4.43955E+006    1.40769E+007   -1.10782E+006   -1.25172E+006   -2.42608E+005    1.58694E+006
            1334    1.60328E+007    1.28793E+007    1.28793E+007   -1.43336E+006   -4.44623E+006    1.73255E+007   -2.33324E+006    1.53765E+007   -4.34642E+006    1.25611E+007   -1.21498E+006   -1.25377E+006   -2.80274E+005    1.76774E+006
            1335    1.46786E+007    1.15592E+007    1.15592E+007   -1.55247E+006   -4.29837E+006    1.58576E+007   -1.90280E+006    1.40832E+007   -4.19521E+006    1.12303E+007   -1.32671E+006   -1.22399E+006   -2.71520E+005    1.71441E+006
            1336    1.33816E+007    1.02453E+007    1.02453E+007   -1.71605E+006   -4.20651E+006    1.44518E+007   -1.44092E+006    1.28445E+007   -4.10550E+006    9.95365E+006   -1.52537E+006   -1.17137E+006   -2.25910E+005    1.50049E+006
            1337    1.32185E+007    1.00303E+007    1.00303E+007   -2.12495E+006   -4.04218E+006    1.40724E+007   -1.28771E+006    1.29001E+007   -3.94333E+006    9.81069E+006   -2.00424E+006   -1.16701E+006   -1.33502E+005    1.20096E+006
            1338    1.83411E+007    1.56198E+007    1.56198E+007   -1.56834E+006   -3.68972E+006    1.93095E+007   -3.45392E+006    1.80620E+007   -3.56760E+006    1.54899E+007   -1.56057E+006    1.53044E+006   -2.71699E+004   -3.64306E+005
            1339    1.66688E+007    1.43361E+007    1.43361E+007   -1.85130E+006   -2.77562E+006    1.71117E+007   -3.23640E+006    1.66110E+007   -2.60698E+006    1.41632E+007   -1.84706E+006    1.68272E+006    6.43512E+003   -3.05872E+005
            1340    1.53729E+007    1.36136E+007    1.36136E+007   -1.68883E+006   -1.82876E+006    1.54424E+007   -3.36534E+006    1.53715E+007   -1.60165E+006    1.35143E+007   -1.81666E+006    1.20288E+006    1.22872E+004   -2.55178E+005
            1341    1.46012E+007    1.30973E+007    1.30973E+007   -1.20748E+006   -1.78340E+006    1.48807E+007   -3.36880E+006    1.45757E+007   -1.13724E+006    1.30213E+007   -1.77762E+006    1.02163E+006    2.77431E+004   -2.02121E+005
            1342    1.37576E+007    1.25857E+007    1.25857E+007   -5.97698E+005   -1.68206E+006    1.42677E+007   -3.43530E+006    1.36610E+007   -5.71864E+005    1.25570E+007   -1.67923E+006    5.96452E+005    2.92384E+004   -1.53592E+005
            1343    1.36177E+007    1.25422E+007    1.25422E+007   -4.92576E+005   -1.59183E+006    1.41340E+007   -3.48593E+006    1.35174E+007   -4.83883E+005    1.25319E+007   -1.59022E+006    3.55031E+005    3.02979E+004   -9.49182E+004
            1344    1.32184E+007    1.22677E+007    1.22677E+007   -2.51867E+005   -1.55328E+006    1.38210E+007   -3.48752E+006    1.30731E+007   -2.50901E+005    1.22659E+007   -1.55246E+006    1.46221E+005    3.06666E+004   -3.38710E+004
            1345    1.34116E+007    1.24158E+007    1.24158E+007   -3.73350E+005   -1.54187E+006    1.39576E+007   -3.50018E+006    1.32963E+007   -3.73053E+005    1.24146E+007   -1.54105E+006   -1.18540E+005    3.04155E+004    1.81508E+004
            1346    1.33629E+007    1.23664E+007    1.23664E+007   -3.13785E+005   -1.58789E+006    1.39543E+007   -3.48826E+006    1.32252E+007   -3.10008E+005    1.23613E+007   -1.58655E+006   -2.41103E+005    3.04520E+004    8.66247E+004
            1347    1.77388E+007    1.50435E+007    1.50435E+007   -1.53992E+006   -3.66004E+006    1.87035E+007   -3.28118E+006    1.74503E+007   -3.53865E+006    1.48623E+007   -1.48007E+006    1.49859E+006   -9.79657E+004   -9.91005E+005
            1348    1.62307E+007    1.39339E+007    1.39339E+007   -1.78599E+006   -2.76339E+006    1.66973E+007   -3.12819E+006    1.61643E+007   -2.59675E+006    1.37280E+007   -1.74663E+006    1.62661E+006   -5.99931E+003   -8.48168E+005
            1349    1.50038E+007    1.32745E+007    1.32745E+007   -1.64563E+006   -1.81153E+006    1.50860E+007   -3.27245E+006    1.50017E+007   -1.62521E+006    1.31491E+007   -1.70652E+006    1.17055E+006    2.66151E+004   -7.10211E+005
            1350    1.42816E+007    1.28193E+007    1.28193E+007   -1.20877E+006   -1.70297E+006    1.45223E+007   -3.30252E+006    1.42623E+007   -1.16470E+006    1.27280E+007   -1.65570E+006    9.89826E+005    7.11932E+004   -5.59972E+005
            1351    1.34758E+007    1.23411E+007    1.23411E+007   -6.38258E+005   -1.58162E+006    1.39227E+007   -3.37373E+006    1.34012E+007   -6.22364E+005    1.23017E+007   -1.55819E+006    5.85762E+005    8.02974E+004   -4.26432E+005
            1352    1.33321E+007    1.23056E+007    1.23056E+007   -5.14780E+005   -1.48520E+006    1.37908E+007   -3.43519E+006    1.32523E+007   -5.14774E+005    1.22918E+007   -1.47145E+006    3.44832E+005    8.77053E+004   -2.50814E+005
            1353    1.29683E+007    1.20595E+007    1.20595E+007   -2.94598E+005   -1.44607E+006    1.35056E+007   -3.43962E+006    1.28525E+007   -3.00504E+005    1.20574E+007   -1.43798E+006    1.33692E+005    9.06281E+004   -1.00938E+005
            1354    1.31633E+007    1.22099E+007    1.22099E+007   -4.02870E+005   -1.44228E+006    1.36522E+007   -3.45491E+006    1.30705E+007   -4.09274E+005    1.22082E+007   -1.43420E+006   -1.25222E+005    8.80568E+004    7.78824E+004
            1355    1.31345E+007    1.21701E+007    1.21701E+007   -3.66817E+005   -1.48982E+006    1.36600E+007   -3.43784E+006    1.30259E+007   -3.68638E+005    1.21607E+007   -1.47853E+006   -2.64743E+005    8.60744E+004    2.31911E+005
            1356    1.67166E+007    1.40636E+007    1.40636E+007   -1.50680E+006   -3.60162E+006    1.76652E+007   -2.98506E+006    1.64174E+007   -3.48445E+006    1.38140E+007   -1.37439E+006    1.42847E+006   -1.21863E+005   -1.42460E+006
            1357    1.54654E+007    1.32227E+007    1.32227E+007   -1.66651E+006   -2.76073E+006    1.59834E+007   -2.93182E+006    1.53779E+007   -2.59290E+006    1.29681E+007   -1.57972E+006    1.53253E+006    1.91289E+004   -1.25521E+006
            1358    1.43642E+007    1.26857E+007    1.26857E+007   -1.51115E+006   -1.84026E+006    1.45260E+007   -3.11143E+006    1.43557E+007   -1.66663E+006    1.25203E+007   -1.51937E+006    1.11749E+006    6.25167E+004   -1.06009E+006
            1359    1.36909E+007    1.23032E+007    1.23032E+007   -1.16804E+006   -1.59734E+006    1.39005E+007   -3.17927E+006    1.36758E+007   -1.20867E+006    1.21888E+007   -1.44237E+006    9.33059E+005    1.27478E+005   -8.37001E+005
            1360    1.29662E+007    1.19007E+007    1.19007E+007   -6.79839E+005   -1.41945E+006    1.33202E+007   -3.26714E+006    1.29186E+007   -6.96270E+005    1.18463E+007   -1.34866E+006    5.67633E+005    1.43492E+005   -6.23937E+005
            1361    1.28048E+007    1.18675E+007    1.18675E+007   -5.30732E+005   -1.30840E+006    1.31759E+007   -3.34280E+006    1.27515E+007   -5.58483E+005    1.18488E+007   -1.26196E+006    3.25942E+005    1.54505E+005   -3.68837E+005
            1362    1.25104E+007    1.16782E+007    1.16782E+007   -3.46295E+005   -1.26706E+006    1.29453E+007   -3.35496E+006    1.24338E+007   -3.73159E+005    1.16760E+007   -1.23799E+006    1.13370E+005    1.56775E+005   -1.22744E+005
            1363    1.26865E+007    1.18158E+007    1.18158E+007   -4.31133E+005   -1.26873E+006    1.30845E+007   -3.37198E+006    1.26240E+007   -4.59765E+005    1.18130E+007   -1.23734E+006   -1.36855E+005    1.54632E+005    1.28437E+005
            1364    1.27128E+007    1.18023E+007    1.18023E+007   -4.34950E+005   -1.33783E+006    1.31401E+007   -3.34318E+006    1.26403E+007   -4.56246E+005    1.17837E+007   -1.29795E+006   -2.96769E+005    1.48497E+005    3.89930E+005
            1365    1.54781E+007    1.28977E+007    1.28977E+007   -1.42637E+006   -3.52106E+006    1.64188E+007   -2.65010E+006    1.51543E+007   -3.41045E+006    1.25977E+007   -1.23695E+006    1.33463E+006   -1.50246E+005   -1.62989E+006
            1366    1.45217E+007    1.23542E+007    1.23542E+007   -1.47291E+006   -2.77447E+006    1.51287E+007   -2.70229E+006    1.43896E+007   -2.61733E+006    1.20613E+007   -1.33707E+006    1.41578E+006    2.74873E+004   -1.47849E+006
            1367    1.35360E+007    1.19181E+007    1.19181E+007   -1.29027E+006   -1.92339E+006    1.38415E+007   -2.90148E+006    1.35027E+007   -1.77434E+006    1.17165E+007   -1.23771E+006    1.05489E+006    9.79105E+004   -1.26573E+006
            1368    1.29489E+007    1.16457E+007    1.16457E+007   -1.02944E+006   -1.56073E+006    1.32064E+007   -3.01850E+006    1.29244E+007   -1.32244E+006    1.15120E+007   -1.13409E+006    8.70174E+005    1.85592E+005   -9.93053E+005
            1369    1.22960E+007    1.13080E+007    1.13080E+007   -7.09569E+005   -1.24871E+006    1.25567E+007   -3.11657E+006    1.22694E+007   -8.54341E+005    1.12404E+007   -1.03635E+006    5.50600E+005    2.17710E+005   -7.35377E+005
            1370    1.21274E+007    1.12896E+007    1.12896E+007   -5.40982E+005   -1.11427E+006    1.24038E+007   -3.21144E+006    1.20968E+007   -6.77582E+005    1.12677E+007   -9.55777E+005    3.07349E+005    2.38346E+005   -4.20057E+005
            1371    1.18951E+007    1.11472E+007    1.11472E+007   -4.15500E+005   -1.05450E+006    1.22017E+007   -3.22574E+006    1.18564E+007   -5.26515E+005    1.11453E+007   -9.41615E+005    8.87367E+004    2.41775E+005   -1.21848E+005
            1372    1.20722E+007    1.12869E+007    1.12869E+007   -4.70918E+005   -1.07682E+006    1.23637E+007   -3.24639E+006    1.20379E+007   -5.89477E+005    1.12818E+007   -9.53184E+005   -1.56504E+005    2.39419E+005    1.95214E+005
            1373    1.21398E+007    1.12874E+007    1.12874E+007   -5.32028E+005   -1.14917E+006    1.24366E+007   -3.20207E+006    1.21044E+007   -6.38684E+005    1.12579E+007   -1.01300E+006   -3.45675E+005    2.27551E+005    4.96257E+005
            1374    1.42902E+007    1.17927E+007    1.17927E+007   -1.34692E+006   -3.42134E+006    1.52141E+007   -2.34149E+006    1.39454E+007   -3.32218E+006    1.14741E+007   -1.12744E+006    1.21529E+006   -1.33377E+005   -1.67869E+006
            1375    1.35158E+007    1.14321E+007    1.14321E+007   -1.25882E+006   -2.77986E+006    1.42120E+007   -2.46449E+006    1.33212E+007   -2.63587E+006    1.11256E+007   -1.09631E+006    1.28446E+006    5.30616E+004   -1.54454E+006
            1376    1.26734E+007    1.11249E+007    1.11249E+007   -1.04396E+006   -1.99914E+006    1.31240E+007   -2.69392E+006    1.25921E+007   -1.86857E+006    1.09043E+007   -9.54017E+005    9.83931E+005    1.22425E+005   -1.33720E+006
            1377    1.21201E+007    1.09181E+007    1.09181E+007   -7.69813E+005   -1.59236E+006    1.25104E+007   -2.85196E+006    1.20571E+007   -1.42863E+006    1.07752E+007   -7.90709E+005    7.97052E+005    2.15465E+005   -1.04814E+006
            1378    1.15580E+007    1.06632E+007    1.06632E+007   -5.48560E+005   -1.21244E+006    1.18757E+007   -2.96742E+006    1.15150E+007   -1.00861E+006    1.05917E+007   -6.80868E+005    5.23487E+005    2.62391E+005   -7.49775E+005
            1379    1.13696E+007    1.06426E+007    1.06426E+007   -3.94362E+005   -1.03268E+006    1.16753E+007   -3.07185E+006    1.13291E+007   -8.06638E+005    1.06202E+007   -5.98042E+005    2.83650E+005    2.92859E+005   -4.22353E+005
            1380    1.11972E+007    1.05507E+007    1.05507E+007   -3.29593E+005   -9.38589E+005    1.14893E+007   -3.09418E+006    1.11599E+007   -6.87569E+005    1.05497E+007   -5.79568E+005    6.18135E+004    2.99222E+005   -9.02287E+004
            1381    1.13529E+007    1.06663E+007    1.06663E+007   -3.68145E+005   -9.80273E+005    1.16465E+007   -3.10595E+006    1.13156E+007   -7.35388E+005    1.06581E+007   -6.04904E+005   -1.77079E+005    2.95525E+005    2.50681E+005
            1382    1.15058E+007    1.07150E+007    1.07150E+007   -4.80606E+005   -1.07778E+006    1.17927E+007   -3.05219E+006    1.14708E+007   -8.33604E+005    1.06729E+007   -6.82759E+005   -3.89807E+005    2.71649E+005    5.82569E+005
            1383    1.31963E+007    1.07937E+007    1.07937E+007   -1.15479E+006   -3.37017E+006    1.41638E+007   -2.08957E+006    1.27679E+007   -3.28220E+006    1.04915E+007   -9.40556E+005    1.10352E+006   -1.41838E+005   -1.57967E+006
            1384    1.27173E+007    1.06647E+007    1.06647E+007   -1.01110E+006   -2.88593E+006    1.35507E+007   -2.25589E+006    1.24007E+007   -2.75834E+006    1.03746E+007   -8.48567E+005    1.18128E+006    7.37062E+004   -1.47049E+006
            1385    1.18859E+007    1.03457E+007    1.03457E+007   -7.39878E+005   -2.20470E+006    1.25504E+007   -2.46705E+006    1.16802E+007   -2.07881E+006    1.01210E+007   -6.41094E+005    9.51459E+005    1.72721E+005   -1.30457E+006
            1386    1.13845E+007    1.02141E+007    1.02141E+007   -4.59027E+005   -1.76847E+006    1.19826E+007   -2.66220E+006    1.12132E+007   -1.63032E+006    1.00743E+007   -4.57362E+005    7.56472E+005    2.67647E+005   -1.00498E+006
            1387    1.08830E+007    1.00102E+007    1.00102E+007   -2.48298E+005   -1.40502E+006    1.14152E+007   -2.78561E+006    1.07434E+007   -1.25629E+006    9.93838E+006   -3.25248E+005    5.14697E+005    3.27329E+005   -7.20886E+005
            1388    1.06511E+007    9.97520E+006    9.97520E+006   -8.68398E+004   -1.18052E+006    1.11557E+007   -2.90261E+006    1.05236E+007   -1.02575E+006    9.95437E+006   -2.20774E+005    2.71036E+005    3.64967E+005   -3.88679E+005
            1389    1.05273E+007    9.91349E+006    9.91349E+006   -5.29797E+004   -1.09684E+006    1.10103E+007   -2.92122E+006    1.04099E+007   -9.37612E+005    9.91307E+006   -2.11793E+005    3.74820E+004    3.75005E+005   -5.52105E+004
            1390    1.06493E+007    1.00061E+007    1.00061E+007   -7.61270E+004   -1.13169E+006    1.11377E+007   -2.93274E+006    1.05306E+007   -9.73034E+005    9.99463E+006   -2.23367E+005   -2.03906E+005    3.68361E+005    2.86080E+005
            1391    1.08646E+007    1.00625E+007    1.00625E+007   -2.33933E+005   -1.29276E+006    1.13553E+007   -2.84528E+006    1.07476E+007   -1.13363E+006    1.00082E+007   -3.38722E+005   -4.40967E+005    3.36362E+005    6.33103E+005
            1392    1.25009E+007    1.01439E+007    1.01439E+007   -1.14831E+006   -3.28911E+006    1.34331E+007   -1.90218E+006    1.20781E+007   -3.21339E+006    9.86431E+006   -9.44400E+005    9.87148E+005   -1.72334E+005   -1.50095E+006
            1393    1.19494E+007    9.96573E+006    9.96573E+006   -7.59523E+005   -2.91456E+006    1.28803E+007   -2.09722E+006    1.15000E+007   -2.82780E+006    9.71174E+006   -5.92294E+005    1.02169E+006   -1.46759E+004   -1.34798E+006
            1394    1.13322E+007    9.78559E+006    9.78559E+006   -4.61228E+005   -2.38564E+006    1.21712E+007   -2.31291E+006    1.09555E+007   -2.29714E+006    9.58802E+006   -3.52155E+005    8.99171E+005    1.13697E+005   -1.15931E+006
            1395    1.07428E+007    9.60375E+006    9.60375E+006   -1.22569E+005   -1.92703E+006    1.15308E+007   -2.51805E+006    1.03936E+007   -1.83900E+006    9.46973E+006   -7.65799E+004    7.16693E+005    2.16703E+005   -9.42264E+005
            1396    1.02411E+007    9.40865E+006    9.40865E+006    1.35294E+005   -1.58292E+006    1.09916E+007   -2.65367E+006    9.90905E+006   -1.49905E+006    9.34581E+006    1.14267E+005    4.96131E+005    2.90891E+005   -6.24804E+005
            1397    1.00046E+007    9.37196E+006    9.37196E+006    2.82241E+005   -1.34736E+006    1.07193E+007   -2.76895E+006    9.69921E+006   -1.26202E+006    9.35507E+006    2.13794E+005    2.59223E+005    3.42507E+005   -3.19313E+005
            1398    9.90857E+006    9.34313E+006    9.34313E+006    3.31981E+005   -1.26812E+006    1.06112E+007   -2.80233E+006    9.61144E+006   -1.18490E+006    9.34309E+006    2.48808E+005    1.46434E+004    3.55230E+005   -1.53876E+004
            1399    1.00076E+007    9.39051E+006    9.39051E+006    2.81742E+005   -1.32221E+006    1.07127E+007   -2.78335E+006    9.71210E+006   -1.23530E+006    9.37736E+006    2.07982E+005   -2.28318E+005    3.47403E+005    2.82304E+005
            1400    1.02344E+007    9.44984E+006    9.44984E+006    1.55789E+005   -1.51848E+006    1.09683E+007   -2.69572E+006    9.91927E+006   -1.43149E+006    9.39240E+006    1.26236E+005   -4.69932E+005    3.02094E+005    6.01279E+005
            1401    9.74259E+006    8.88108E+006    8.88108E+006    4.26326E+005   -1.77325E+006    1.06543E+007   -2.51139E+006    9.15859E+006   -1.72672E+006    8.82760E+006    4.33283E+005   -5.03565E+005    1.97936E+005    5.09208E+005
            1402    9.52233E+006    8.87227E+006    8.87227E+006    5.64230E+005   -1.51930E+006    1.03916E+007   -2.63907E+006    8.98774E+006   -1.48373E+006    8.86048E+006    5.40451E+005   -2.57184E+005    2.39549E+005    2.18013E+005
            1403    9.48863E+006    8.88529E+006    8.88529E+006    5.60979E+005   -1.44643E+006    1.03317E+007   -2.66661E+006    8.99206E+006   -1.41518E+006    8.88529E+006    5.29731E+005    1.70889E+003    2.48508E+005   -4.27170E+003
            1404    9.53161E+006    8.87325E+006    8.87325E+006    5.55828E+005   -1.52782E+006    1.04011E+007   -2.63375E+006    8.99753E+006   -1.49213E+006    8.86125E+006    5.32135E+005    2.63471E+005    2.38692E+005   -2.16217E+005
            1405    9.75553E+006    8.88213E+006    8.88213E+006    4.14184E+005   -1.78541E+006    1.06675E+007   -2.50363E+006    9.17237E+006   -1.73908E+006    8.82758E+006    4.22404E+005    5.06370E+005    1.95328E+005   -5.16378E+005
            1406    1.01940E+007    8.97387E+006    8.97387E+006    1.05337E+005   -2.16334E+006    1.11372E+007   -2.30529E+006    9.60104E+006   -2.10248E+006    8.84711E+006    1.71245E+005    7.12560E+005    1.27751E+005   -8.52174E+005
            1407    1.09602E+007    9.30712E+006    9.30712E+006   -3.52313E+005   -2.60409E+006    1.19112E+007   -2.11690E+006    1.04205E+007   -2.53156E+006    9.08822E+006   -2.05953E+005    8.80039E+005    2.85646E+004   -1.21045E+006
            1408    1.18373E+007    9.70126E+006    9.70126E+006   -9.37539E+005   -3.05009E+006    1.27514E+007   -1.90454E+006    1.14016E+007   -2.97030E+006    9.45726E+006   -7.73326E+005    9.90840E+005   -5.16175E+004   -1.31668E+006
            1409    1.20919E+007    9.48352E+006    9.48352E+006   -1.29701E+006   -3.59110E+006    1.30746E+007   -1.53180E+006    1.15870E+007   -3.50267E+006    9.25170E+006   -1.15363E+006    1.06562E+006   -1.08138E+005   -1.23033E+006
            1410    1.95034E+007    1.64565E+007    1.64565E+007   -9.60750E+005   -4.61584E+006    2.10723E+007   -3.62663E+006    1.87094E+007   -4.55011E+006    1.63794E+007   -9.49382E+005    1.17068E+006   -6.60460E+004   -4.50685E+005
            1411    1.87249E+007    1.56073E+007    1.56073E+007   -1.10488E+006   -4.62950E+006    2.02368E+007   -3.29096E+006    1.79557E+007   -4.55519E+006    1.54457E+007   -1.01766E+006    1.19213E+006   -1.83936E+005   -1.21932E+006
            1412    1.74386E+007    1.42660E+007    1.42660E+007   -1.27899E+006   -4.59102E+006    1.88571E+007   -2.79868E+006    1.67088E+007   -4.50383E+006    1.40012E+007   -1.10132E+006    1.21794E+006   -2.66777E+005   -1.67235E+006
            1413    1.60023E+007    1.28511E+007    1.28511E+007   -1.41598E+006   -4.45160E+006    1.73027E+007   -2.32783E+006    1.53343E+007   -4.35407E+006    1.25123E+007   -1.17477E+006    1.22486E+006   -3.01140E+005   -1.85650E+006
            1414    1.45883E+007    1.15308E+007    1.15308E+007   -1.44631E+006   -4.25916E+006    1.57899E+007   -1.94176E+006    1.39585E+007   -4.15843E+006    1.11691E+007   -1.18534E+006    1.20064E+006   -2.86808E+005   -1.82998E+006
            1415    1.34364E+007    1.05077E+007    1.05077E+007   -1.43273E+006   -4.04191E+006    1.45497E+007   -1.67770E+006    1.28478E+007   -3.94256E+006    1.01604E+007   -1.18474E+006    1.15861E+006   -2.52228E+005   -1.70429E+006
            1416    1.25261E+007    9.71619E+006    9.71619E+006   -1.31643E+006   -3.90031E+006    1.36165E+007   -1.49981E+006    1.19041E+007   -3.80367E+006    9.42089E+006   -1.11778E+006    1.12822E+006   -1.77278E+005   -1.46126E+006
            1417    1.77242E+007    1.51702E+007    1.51702E+007   -1.74880E+006   -3.26224E+006    1.84324E+007   -3.38638E+006    1.75780E+007   -3.17587E+006    1.50769E+007   -1.74186E+006   -1.25851E+006    2.20732E+004   -3.41911E+005
            1418    1.62465E+007    1.41449E+007    1.41449E+007   -1.87714E+006   -2.31702E+006    1.64619E+007   -3.31692E+006    1.62331E+007   -2.24322E+006    1.40677E+007   -1.87373E+006   -1.09595E+006    2.02729E+003   -2.50370E+005
            1419    1.48921E+007    1.31374E+007    1.31374E+007   -1.61968E+006   -1.88617E+006    1.50236E+007   -3.21052E+006    1.48868E+007   -1.55550E+006    1.30673E+007   -1.88021E+006   -9.94770E+005   -1.50920E+004   -2.05799E+005
            1420    1.39579E+007    1.25897E+007    1.25897E+007   -9.60392E+005   -1.74308E+006    1.43328E+007   -3.29541E+006    1.39084E+007   -9.41575E+005    1.25686E+007   -1.74082E+006   -5.18547E+005   -2.37054E+004   -1.31858E+005
            1421    1.72806E+007    1.47376E+007    1.47376E+007   -1.71217E+006   -3.26843E+006    1.80060E+007   -3.25234E+006    1.71218E+007   -3.18299E+006    1.45972E+007   -1.65722E+006   -1.23462E+006    5.18602E+004   -9.48851E+005
            1422    1.59473E+007    1.38509E+007    1.38509E+007   -1.82457E+006   -2.35498E+006    1.62059E+007   -3.22380E+006    1.59275E+007   -2.27812E+006    1.37437E+007   -1.79422E+006   -1.07114E+006   -4.21360E+003   -7.51592E+005
            1423    1.46530E+007    1.29203E+007    1.29203E+007   -1.62346E+006   -1.83939E+006    1.47597E+007   -3.15250E+006    1.46494E+007   -1.60141E+006    1.28320E+007   -1.77309E+006   -9.82166E+005   -4.89080E+004   -5.70975E+005
            1424    1.37275E+007    1.23835E+007    1.23835E+007   -1.00451E+006   -1.65990E+006    1.40434E+007   -3.23971E+006    1.36922E+007   -9.95025E+005    1.23510E+007   -1.63679E+006   -5.25241E+005   -6.86746E+004   -4.12378E+005
            1425    1.64758E+007    1.39333E+007    1.39333E+007   -1.67512E+006   -3.29091E+006    1.72242E+007   -2.98908E+006    1.62961E+007   -3.20769E+006    1.37213E+007   -1.54635E+006   -1.18822E+006    7.94848E+004   -1.41095E+006
            1426    1.53733E+007    1.33032E+007    1.33032E+007   -1.69034E+006   -2.42365E+006    1.57268E+007   -3.06306E+006    1.53339E+007   -2.34716E+006    1.31479E+007   -1.61158E+006   -1.02685E+006   -4.39676E+003   -1.14506E+006
            1427    1.41865E+007    1.24836E+007    1.24836E+007   -1.53792E+006   -1.86226E+006    1.43458E+007   -3.02780E+006    1.41781E+007   -1.70965E+006    1.23617E+007   -1.56867E+006   -9.57398E+005   -8.35734E+004   -9.02774E+005
            1428    1.32900E+007    1.19968E+007    1.19968E+007   -1.07885E+006   -1.49747E+006    1.34943E+007   -3.14018E+006    1.32751E+007   -1.11266E+006    1.19461E+007   -1.41289E+006   -5.37684E+005   -1.16985E+005   -6.25242E+005
            1429    1.54848E+007    1.29532E+007    1.29532E+007   -1.62419E+006   -3.30243E+006    1.62556E+007   -2.67552E+006    1.52782E+007   -3.22253E+006    1.26798E+007   -1.43073E+006   -1.12450E+006    8.12656E+004   -1.66990E+006
            1430    1.45407E+007    1.25038E+007    1.25038E+007   -1.52426E+006   -2.50039E+006    1.50042E+007   -2.82638E+006    1.44667E+007   -2.42738E+006    1.22934E+007   -1.38683E+006   -9.61088E+005   -8.11744E+003   -1.43715E+006
            1431    1.35404E+007    1.19049E+007    1.19049E+007   -1.30880E+006   -1.94017E+006    1.38450E+007   -2.88530E+006    1.35072E+007   -1.82196E+006    1.17512E+007   -1.27336E+006   -9.16891E+005   -1.06619E+005   -1.11060E+006
            1432    1.27130E+007    1.14763E+007    1.14763E+007   -1.04493E+006   -1.42008E+006    1.28964E+007   -3.00377E+006    1.27005E+007   -1.25705E+006    1.14016E+007   -1.13324E+006   -5.45616E+005   -1.46978E+005   -8.10798E+005
            1433    1.43391E+007    1.18034E+007    1.18034E+007   -1.55928E+006   -3.34484E+006    1.51483E+007   -2.29977E+006    1.40858E+007   -3.26746E+006    1.14877E+007   -1.32089E+006   -1.06023E+006    7.30654E+004   -1.77399E+006
            1434    1.36599E+007    1.16852E+007    1.16852E+007   -1.25532E+006   -2.59539E+006    1.42806E+007   -2.61150E+006    1.35109E+007   -2.52777E+006    1.14431E+007   -1.08086E+006   -8.97294E+005   -1.91021E+004   -1.53975E+006
            1435    1.28148E+007    1.12182E+007    1.12182E+007   -1.01779E+006   -2.10594E+006    1.33242E+007   -2.69816E+006    1.27102E+007   -2.00080E+006    1.10381E+007   -9.42832E+005   -8.77917E+005   -1.38934E+005   -1.22619E+006
            1436    1.20659E+007    1.08682E+007    1.08682E+007   -7.88311E+005   -1.56929E+006    1.24375E+007   -2.83686E+006    1.20089E+007   -1.46589E+006    1.07742E+007   -7.97733E+005   -5.62284E+005   -1.93213E+005   -9.01550E+005
            1437    1.35077E+007    1.10227E+007    1.10227E+007   -1.44120E+006   -3.32995E+006    1.43527E+007   -2.08385E+006    1.32057E+007   -3.25521E+006    1.06989E+007   -1.19210E+006   -1.00807E+006    5.94397E+004   -1.75257E+006
            1438    1.27181E+007    1.08236E+007    1.08236E+007   -9.45418E+005   -2.66801E+006    1.34916E+007   -2.40338E+006    1.24516E+007   -2.61370E+006    1.05729E+007   -7.49055E+005   -8.19077E+005    1.44839E+004   -1.52333E+006
            1439    1.21622E+007    1.06014E+007    1.06014E+007   -7.33351E+005   -2.24667E+006    1.28481E+007   -2.54046E+006    1.19477E+007   -2.16915E+006    1.04217E+007   -6.31189E+005   -8.18180E+005   -1.14793E+005   -1.20292E+006
            1440    1.14391E+007    1.02808E+007    1.02808E+007   -4.64731E+005   -1.74438E+006    1.20251E+007   -2.69055E+006    1.12764E+007   -1.67619E+006    1.01719E+007   -4.24035E+005   -5.66454E+005   -1.81746E+005   -9.45732E+005
            1441    1.25253E+007    1.01931E+007    1.01931E+007   -9.79133E+005   -3.34725E+006    1.35403E+007   -1.95557E+006    1.20061E+007   -3.26935E+006    9.89447E+006   -7.58400E+005   -1.00009E+006    4.27204E+004   -1.56425E+006
            1442    1.23512E+007    1.03865E+007    1.03865E+007   -9.19863E+005   -2.79515E+006    1.31816E+007   -2.22382E+006    1.20247E+007   -2.74032E+006    1.01685E+007   -7.56737E+005   -8.17844E+005    7.75001E+003   -1.36368E+006
            1443    1.16625E+007    1.00911E+007    1.00911E+007   -5.21701E+005   -2.39440E+006    1.24855E+007   -2.39167E+006    1.13168E+007   -2.33209E+006    9.89014E+006   -3.83045E+005   -7.69476E+005   -8.31726E+004   -1.27230E+006
            1444    1.08538E+007    9.65194E+006    9.65194E+006   -2.00198E+005   -1.98288E+006    1.16348E+007   -2.48962E+006    1.05169E+007   -1.92771E+006    9.52791E+006   -1.31343E+005   -5.82722E+005   -1.64014E+005   -9.70698E+005
            1445    1.02668E+007    9.05335E+006    9.05335E+006    2.16069E+005   -2.20885E+006    1.12622E+007   -2.35352E+006    9.59021E+006   -2.16969E+006    8.93207E+006    2.98187E+005   -5.96352E+005   -8.50939E+004   -8.90113E+005
            1446    1.10628E+007    9.40198E+006    9.40198E+006   -3.11397E+005   -2.63963E+006    1.20416E+007   -2.15032E+006    1.04901E+007   -2.59267E+006    9.17832E+006   -1.34694E+005   -7.18746E+005   -7.68613E+003   -1.31281E+006
            1447    1.22016E+007    1.02049E+007    1.02049E+007   -7.00544E+005   -2.97332E+006    1.31782E+007   -2.17700E+006    1.17111E+007   -2.92057E+006    9.88170E+006   -4.30115E+005   -8.18958E+005    7.13989E+004   -1.69658E+006
            1448    1.36015E+007    1.11674E+007    1.11674E+007   -1.36272E+006   -3.29811E+006    1.44655E+007   -2.16886E+006    1.32864E+007   -3.24576E+006    1.09311E+007   -1.17881E+006   -8.61958E+005    1.07505E+005   -1.50367E+006
            1449    1.93362E+007    1.68176E+007    1.68176E+007   -8.71831E+005   -3.82548E+006    2.06431E+007   -4.04010E+006    1.88186E+007   -3.79188E+006    1.67739E+007   -8.61680E+005   -8.28733E+005    4.48856E+004   -4.27529E+005
            1450    1.86106E+007    1.59960E+007    1.59960E+007   -9.92752E+005   -3.89537E+006    1.98913E+007   -3.70261E+006    1.80908E+007   -3.85759E+006    1.58775E+007   -9.12071E+005   -8.42483E+005    1.24406E+005   -1.17732E+006
            1451    1.74689E+007    1.47474E+007    1.47474E+007   -1.14316E+006   -3.95799E+006    1.87054E+007   -3.21541E+006    1.69474E+007   -3.91318E+006    1.45399E+007   -9.80481E+005   -8.61090E+005    1.90938E+005   -1.61540E+006
            1452    1.60904E+007    1.32703E+007    1.32703E+007   -1.32001E+006   -3.98694E+006    1.72572E+007   -2.65444E+006    1.55815E+007   -3.93556E+006    1.30024E+007   -1.10348E+006   -8.72896E+005    2.24164E+005   -1.78127E+006
            1453    1.47925E+007    1.19319E+007    1.19319E+007   -1.45281E+006   -3.95049E+006    1.58824E+007   -2.17619E+006    1.43066E+007   -3.89506E+006    1.16558E+007   -1.23215E+006   -8.66259E+005    2.31893E+005   -1.72210E+006
            1454    1.35709E+007    1.06461E+007    1.06461E+007   -1.60537E+006   -3.94098E+006    1.45871E+007   -1.69993E+006    1.31072E+007   -3.88653E+006    1.04220E+007   -1.43568E+006   -8.25432E+005    2.12086E+005   -1.45120E+006
            1455    1.35016E+007    1.05142E+007    1.05142E+007   -1.97155E+006   -3.81409E+006    1.43283E+007   -1.57619E+006    1.32144E+007   -3.76253E+006    1.03612E+007   -1.87016E+006   -8.07408E+005    1.66686E+005   -1.14320E+006
            1456    9.81713E+006    8.92511E+006    8.92511E+006    4.77972E+005   -1.84525E+006    1.07704E+007   -2.51928E+006    9.16751E+006   -1.81742E+006    8.87845E+006    4.96803E+005   -4.23097E+005   -1.40595E+005   -5.08274E+005
            1457    9.59712E+006    8.90842E+006    8.90842E+006    6.16863E+005   -1.60464E+006    1.05131E+007   -2.64021E+006    8.99091E+006   -1.58546E+006    8.89820E+006    6.07900E+005   -2.24132E+005   -1.73713E+005   -2.16051E+005
            1458    9.55329E+006    8.91549E+006    8.91549E+006    6.06982E+005   -1.52301E+006    1.04385E+007   -2.66649E+006    8.99546E+006   -1.50678E+006    8.91549E+006    5.90752E+005   -2.65046E+003   -1.85217E+005   -3.38378E+002
            1459    9.59634E+006    8.90423E+006    8.90423E+006    6.07919E+005   -1.60538E+006    1.05096E+007   -2.63559E+006    8.99477E+006   -1.58658E+006    8.89467E+006    5.98678E+005    2.17986E+005   -1.72911E+005    2.08022E+005
            1460    9.81916E+006    8.92525E+006    8.92525E+006    4.75833E+005   -1.84708E+006    1.07723E+007   -2.51800E+006    9.16987E+006   -1.81937E+006    8.87813E+006    4.95250E+005    4.22896E+005   -1.39714E+005    5.12345E+005
            1461    1.02853E+007    9.04770E+006    9.04770E+006    1.66623E+005   -2.22159E+006    1.12693E+007   -2.33091E+006    9.63134E+006   -2.18358E+006    8.93259E+006    2.43728E+005    5.90953E+005   -8.09316E+004    8.64269E+005
            1462    1.10625E+007    9.41631E+006    9.41631E+006   -2.97051E+005   -2.62488E+006    1.20412E+007   -2.16480E+006    1.04900E+007   -2.57806E+006    9.21069E+006   -1.38239E+005    7.17626E+005   -1.25668E+004    1.24753E+006
            1463    1.19573E+007    9.85654E+006    9.85654E+006   -8.51377E+005   -3.04614E+006    1.29027E+007   -1.98634E+006    1.14910E+007   -2.99602E+006    9.63837E+006   -6.83329E+005    7.94163E+005    5.36059E+004    1.33168E+006
            1464    1.21815E+007    9.77493E+006    9.77493E+006   -1.07347E+006   -3.40325E+006    1.31782E+007   -1.76607E+006    1.16644E+007   -3.35451E+006    9.60008E+006   -9.47354E+005    7.76229E+005    1.44909E+005    1.16726E+006
            1465    1.03441E+007    9.44536E+006    9.44536E+006    1.11651E+005   -1.67608E+006    1.11214E+007   -2.62698E+006    9.98763E+006   -1.62514E+006    9.39115E+006    1.14921E+005   -4.09235E+005   -2.28200E+005   -6.12142E+005
            1466    1.09861E+007    1.00589E+007    1.00589E+007   -2.57128E+005   -1.49284E+006    1.15517E+007   -2.76964E+006    1.08281E+007   -1.41804E+006    1.00087E+007   -2.81771E+005   -4.03905E+005   -2.45492E+005   -6.18128E+005
            1467    1.16616E+007    1.06721E+007    1.06721E+007   -6.01165E+005   -1.34253E+006    1.20146E+007   -2.90946E+006    1.16084E+007   -1.21752E+006    1.06302E+007   -6.84274E+005   -4.07348E+005   -2.45373E+005   -5.71588E+005
            1468    1.22925E+007    1.12418E+007    1.12418E+007   -8.42074E+005   -1.24915E+006    1.24910E+007   -3.05021E+006    1.22773E+007   -1.02652E+006    1.12105E+007   -1.03336E+006   -3.97905E+005   -1.88059E+005   -4.81749E+005
            1469    1.28763E+007    1.17360E+007    1.17360E+007   -8.64143E+005   -1.39960E+006    1.31356E+007   -3.15743E+006    1.28512E+007   -9.02276E+005    1.17134E+007   -1.33878E+006   -3.94259E+005   -1.44907E+005   -3.73070E+005
            1470    1.33034E+007    1.21014E+007    1.21014E+007   -8.01696E+005   -1.56908E+006    1.36705E+007   -3.24354E+006    1.32535E+007   -8.00086E+005    1.20860E+007   -1.55525E+006   -3.90705E+005   -8.12463E+004   -2.24366E+005
            1471    1.35375E+007    1.22935E+007    1.22935E+007   -7.71921E+005   -1.67129E+006    1.39648E+007   -3.28343E+006    1.34701E+007   -7.61304E+005    1.22813E+007   -1.66974E+006   -3.89757E+005   -2.76711E+004   -8.73415E+004
            1472    1.00513E+007    9.31465E+006    9.31465E+006    2.31920E+005   -1.48423E+006    1.07989E+007   -2.68744E+006    9.71344E+006   -1.43792E+006    9.30241E+006    1.97844E+005   -1.98515E+005   -2.62052E+005   -2.84336E+005
            1473    1.06169E+007    9.86987E+006    9.86987E+006   -1.05254E+005   -1.28952E+006    1.11594E+007   -2.82503E+006    1.04668E+007   -1.21781E+006    9.85970E+006   -1.66792E+005   -1.69305E+005   -2.73490E+005   -2.80074E+005
            1474    1.12845E+007    1.04560E+007    1.04560E+007   -4.80480E+005   -1.14703E+006    1.16030E+007   -2.94283E+006    1.12401E+007   -1.01074E+006    1.04492E+007   -6.09937E+005   -1.40186E+005   -2.64697E+005   -2.41284E+005
            1475    1.19363E+007    1.10379E+007    1.10379E+007   -6.73593E+005   -1.11110E+006    1.21490E+007   -3.08441E+006    1.19182E+007   -8.06663E+005    1.10343E+007   -9.74447E+005   -1.04266E+005   -2.00103E+005   -1.80582E+005
            1476    1.25114E+007    1.15220E+007    1.15220E+007   -6.34623E+005   -1.31625E+006    1.28383E+007   -3.19039E+006    1.24695E+007   -6.70523E+005    1.15206E+007   -1.27886E+006   -7.47081E+004   -1.52470E+005   -1.15575E+005
            1477    1.29505E+007    1.18906E+007    1.18906E+007   -5.52381E+005   -1.51384E+006    1.34044E+007   -3.27479E+006    1.28698E+007   -5.59807E+005    1.18900E+007   -1.50580E+006   -5.21369E+004   -8.50847E+004   -7.28794E+004
            1478    1.31785E+007    1.20796E+007    1.20796E+007   -5.13141E+005   -1.61536E+006    1.36950E+007   -3.31703E+006    1.30742E+007   -5.13866E+005    1.20795E+007   -1.61450E+006   -3.88139E+004   -3.04520E+004   -1.59013E+004
            1479    9.97697E+006    9.30503E+006    9.30503E+006    3.00398E+005   -1.42042E+006    1.07255E+007   -2.72833E+006    9.63457E+006   -1.37531E+006    9.30499E+006    2.55319E+005    1.04866E+004   -2.74912E+005    1.61044E+004
            1480    1.05814E+007    9.86138E+006    9.86138E+006   -6.95073E+004   -1.26834E+006    1.11297E+007   -2.84118E+006    1.04269E+007   -1.19546E+006    9.86099E+006   -1.41992E+005    3.03614E+004   -2.86150E+005    5.62133E+004
            1481    1.12934E+007    1.04768E+007    1.04768E+007   -4.46986E+005   -1.15301E+006    1.16298E+007   -2.95895E+006    1.12436E+007   -1.02330E+006    1.04757E+007   -5.75591E+005    5.28107E+004   -2.72769E+005    9.86279E+004
            1482    1.20012E+007    1.10855E+007    1.10855E+007   -6.98581E+005   -1.12167E+006    1.22072E+007   -3.08841E+006    1.19844E+007   -8.62730E+005    1.10837E+007   -9.55757E+005    7.53789E+004   -2.05497E+005    1.25977E+005
            1483    1.26499E+007    1.16183E+007    1.16183E+007   -7.20988E+005   -1.32085E+006    1.29392E+007   -3.19217E+006    1.26179E+007   -7.63538E+005    1.16165E+007   -1.27645E+006    9.35463E+004   -1.54249E+005    1.23029E+005
            1484    1.31244E+007    1.20098E+007    1.20098E+007   -6.75152E+005   -1.51375E+006    1.35235E+007   -3.27363E+006    1.30639E+007   -6.83137E+005    1.20083E+007   -1.50425E+006    1.05396E+005   -8.49714E+004    9.37163E+004
            1485    1.33848E+007    1.22195E+007    1.22195E+007   -6.55514E+005   -1.62266E+006    1.38422E+007   -3.31379E+006    1.33059E+007   -6.55480E+005    1.22185E+007   -1.62166E+006    1.11953E+005   -2.98953E+004    2.72224E+004
            1486    1.00570E+007    9.30472E+006    9.30472E+006    2.32878E+005   -1.50966E+006    1.08144E+007   -2.67598E+006    9.70859E+006   -1.46393E+006    9.28885E+006    2.03028E+005    2.25115E+005   -2.57588E+005    3.24141E+005
            1487    1.06510E+007    9.86099E+006    9.86099E+006   -1.24241E+005   -1.34983E+006    1.12108E+007   -2.79564E+006    1.04906E+007   -1.27926E+006    9.84057E+006   -1.74395E+005    2.45216E+005   -2.66552E+005    3.93918E+005
            1488    1.13627E+007    1.04742E+007    1.04742E+007   -5.15613E+005   -1.22782E+006    1.17020E+007   -2.91026E+006    1.13123E+007   -1.10161E+006    1.04507E+007   -6.18259E+005    2.76003E+005   -2.56009E+005    4.40043E+005
            1489    1.20704E+007    1.10938E+007    1.10938E+007   -7.65166E+005   -1.17747E+006    1.22712E+007   -3.05038E+006    1.20545E+007   -9.22637E+005    1.10707E+007   -9.96983E+005    3.01282E+005   -1.91229E+005    4.37048E+005
            1490    1.27105E+007    1.16285E+007    1.16285E+007   -7.69999E+005   -1.37270E+006    1.30012E+007   -3.16192E+006    1.26783E+007   -8.04070E+005    1.16091E+007   -1.31924E+006    3.25874E+005   -1.44690E+005    3.78598E+005
            1491    1.31867E+007    1.20312E+007    1.20312E+007   -7.01582E+005   -1.56670E+006    1.35979E+007   -3.25431E+006    1.31226E+007   -7.01290E+005    1.20176E+007   -1.55333E+006    3.39666E+005   -7.99958E+004    2.52001E+005
            1492    1.34382E+007    1.22401E+007    1.22401E+007   -6.69610E+005   -1.67054E+006    1.39106E+007   -3.29998E+006    1.33539E+007   -6.61083E+005    1.22301E+007   -1.66902E+006    3.49367E+005   -2.81123E+004    9.08595E+004
            1493    1.03530E+007    9.41230E+006    9.41230E+006    8.55804E+004   -1.72743E+006    1.11397E+007   -2.59015E+006    9.98641E+006   -1.67703E+006    9.35181E+006    9.56699E+004    4.30110E+005   -2.20169E+005    6.47252E+005
            1494    1.10329E+007    1.00441E+007    1.00441E+007   -2.73587E+005   -1.58650E+006    1.16306E+007   -2.72801E+006    1.08551E+007   -1.51585E+006    9.97655E+006   -2.76657E+005    4.55754E+005   -2.29549E+005    7.24440E+005
            1495    1.17996E+007    1.07043E+007    1.07043E+007   -6.55281E+005   -1.49101E+006    1.21953E+007   -2.85266E+006    1.17328E+007   -1.37900E+006    1.06339E+007   -6.96969E+005    5.02707E+005   -2.29350E+005    7.59920E+005
            1496    1.25783E+007    1.13833E+007    1.13833E+007   -9.74072E+005   -1.40484E+006    1.27882E+007   -3.00147E+006    1.25617E+007   -1.23944E+006    1.13181E+007   -1.07428E+006    5.43712E+005   -1.71495E+005    7.28774E+005
            1497    1.32929E+007    1.19855E+007    1.19855E+007   -1.10577E+006   -1.50039E+006    1.34859E+007   -3.12643E+006    1.32797E+007   -1.15863E+006    1.19323E+007   -1.39441E+006    5.88698E+005   -1.31333E+005    6.04085E+005
            1498    1.38147E+007    1.24296E+007    1.24296E+007   -1.09709E+006   -1.65609E+006    1.40857E+007   -3.22548E+006    1.37892E+007   -1.08441E+006    1.23902E+007   -1.62933E+006    6.17808E+005   -7.38536E+004    4.00243E+005
            1499    1.41012E+007    1.26698E+007    1.26698E+007   -1.09038E+006   -1.74929E+006    1.44191E+007   -3.27672E+006    1.40665E+007   -1.06229E+006    1.26391E+007   -1.74661E+006    6.37211E+005   -2.50114E+004    1.33354E+005
            1500    1.08580E+007    9.60787E+006    9.60787E+006   -2.00107E+005   -2.05997E+006    1.16678E+007   -2.44926E+006    1.04907E+007   -2.00557E+006    9.47773E+006   -1.24368E+005    6.06841E+005   -1.52113E+005    9.86586E+005
            1501    1.14859E+007    1.02148E+007    1.02148E+007   -5.08842E+005   -1.90565E+006    1.21204E+007   -2.60010E+006    1.12925E+007   -1.83906E+006    1.00827E+007   -4.43377E+005    6.28866E+005   -1.60377E+005    1.03675E+006
            1502    1.22696E+007    1.09131E+007    1.09131E+007   -8.71366E+005   -1.79007E+006    1.27031E+007   -2.75054E+006    1.21918E+007   -1.69573E+006    1.07774E+007   -8.29997E+005    6.75894E+005   -1.65431E+005    1.08954E+006
            1503    1.30850E+007    1.16516E+007    1.16516E+007   -1.19360E+006   -1.66071E+006    1.33123E+007   -2.93244E+006    1.30663E+007   -1.54652E+006    1.15333E+007   -1.18947E+006    7.11310E+005   -1.17539E+005    1.01974E+006
            1504    1.38129E+007    1.22951E+007    1.22951E+007   -1.38041E+006   -1.65110E+006    1.39462E+007   -3.08787E+006    1.38069E+007   -1.45773E+006    1.22033E+007   -1.48196E+006    7.52085E+005   -8.86183E+004    8.40486E+005
            1505    1.43630E+007    1.27889E+007    1.27889E+007   -1.39630E+006   -1.74552E+006    1.45344E+007   -3.21569E+006    1.43534E+007   -1.37261E+006    1.27254E+007   -1.70576E+006    7.76608E+005   -4.89515E+004    5.52568E+005
            1506    1.46575E+007    1.30489E+007    1.30489E+007   -1.38723E+006   -1.82031E+006    1.48692E+007   -3.28045E+006    1.46431E+007   -1.34501E+006    1.30028E+007   -1.81647E+006    7.93039E+005   -1.49200E+004    1.88462E+005
            1507    1.15268E+007    9.89084E+006    9.89084E+006   -5.53242E+005   -2.47669E+006    1.23675E+007   -2.28697E+006    1.11571E+007   -2.41759E+006    9.69919E+006   -4.20698E+005    7.57667E+005   -7.56194E+004    1.22744E+006
            1508    1.21889E+007    1.05315E+007    1.05315E+007   -7.65493E+005   -2.38698E+006    1.29184E+007   -2.45966E+006    1.19426E+007   -2.31635E+006    1.03229E+007   -6.27529E+005    8.19582E+005   -8.42707E+004    1.32606E+006
            1509    1.30818E+007    1.13241E+007    1.13241E+007   -1.09740E+006   -2.33065E+006    1.36548E+007   -2.63203E+006    1.29501E+007   -2.23450E+006    1.11151E+007   -9.84475E+005    9.18872E+005   -1.08558E+005    1.35151E+006
            1510    1.39537E+007    1.21224E+007    1.21224E+007   -1.38405E+006   -2.23921E+006    1.43616E+007   -2.83306E+006    1.38946E+007   -2.13577E+006    1.19335E+007   -1.29854E+006    9.98383E+005   -7.60514E+004    1.26924E+006
            1511    1.47799E+007    1.28638E+007    1.28638E+007   -1.61528E+006   -2.19959E+006    1.50634E+007   -3.01631E+006    1.47539E+007   -2.08948E+006    1.27109E+007   -1.57246E+006    1.08042E+006   -5.71563E+004    1.04373E+006
            1512    1.53888E+007    1.34182E+007    1.34182E+007   -1.79019E+006   -2.14475E+006    1.55630E+007   -3.16109E+006    1.53796E+007   -2.04015E+006    1.33034E+007   -1.77994E+006    1.13768E+006   -3.25625E+004    6.90168E+005
            1513    1.57475E+007    1.37402E+007    1.37402E+007   -1.88616E+006   -2.12582E+006    1.58660E+007   -3.24273E+006    1.57434E+007   -2.03551E+006    1.36495E+007   -1.88575E+006    1.17248E+006   -9.71870E+003    2.37021E+005
            1514    1.20443E+007    1.00327E+007    1.00327E+007   -8.71612E+005   -2.89512E+006    1.29278E+007   -2.08866E+006    1.16526E+007   -2.83791E+006    9.77969E+006   -6.75785E+005    8.25210E+005    1.07419E+004    1.46324E+006
            1515    1.28162E+007    1.08046E+007    1.08046E+007   -1.07583E+006   -2.77743E+006    1.35820E+007   -2.31710E+006    1.25583E+007   -2.72386E+006    1.05433E+007   -8.68095E+005    8.30432E+005    4.17667E+004    1.56430E+006
            1516    1.37395E+007    1.16605E+007    1.16605E+007   -1.25827E+006   -2.77405E+006    1.44346E+007   -2.54273E+006    1.35495E+007   -2.70990E+006    1.14037E+007   -1.06556E+006    9.21589E+005    2.23850E+004    1.58498E+006
            1517    1.47855E+007    1.26379E+007    1.26379E+007   -1.48960E+006   -2.72770E+006    1.53656E+007   -2.80688E+006    1.46682E+007   -2.65845E+006    1.24104E+007   -1.33136E+006    9.95215E+005    3.00292E+004    1.50579E+006
            1518    1.57445E+007    1.35376E+007    1.35376E+007   -1.63365E+006   -2.72359E+006    1.62612E+007   -3.06011E+006    1.56593E+007   -2.65011E+006    1.33627E+007   -1.53231E+006    1.07132E+006    3.48562E+004    1.24915E+006
            1519    1.65097E+007    1.42585E+007    1.42585E+007   -1.75463E+006   -2.70654E+006    1.69650E+007   -3.26577E+006    1.64478E+007   -2.63009E+006    1.41396E+007   -1.71219E+006    1.12380E+006    1.82703E+004    8.38215E+005
            1520    1.69539E+007    1.46784E+007    1.46784E+007   -1.79985E+006   -2.71407E+006    1.73925E+007   -3.38817E+006    1.68983E+007   -2.63731E+006    1.45966E+007   -1.79477E+006    1.15254E+006    1.45277E+004    2.89803E+005
            1521    1.26927E+007    1.02600E+007    1.02600E+007   -1.18068E+006   -3.39365E+006    1.36537E+007   -1.89523E+006    1.22473E+007   -3.32357E+006    9.98180E+006   -9.72541E+005    9.54691E+005    4.38206E+004    1.53683E+006
            1522    1.32912E+007    1.08611E+007    1.08611E+007   -1.26285E+006   -3.35023E+006    1.42114E+007   -2.08269E+006    1.29147E+007   -3.28127E+006    1.05503E+007   -1.02093E+006    9.75723E+005    8.71362E+004    1.69513E+006
            1523    1.43556E+007    1.18443E+007    1.18443E+007   -1.41448E+006   -3.40120E+006    1.52455E+007   -2.34288E+006    1.40413E+007   -3.32754E+006    1.15247E+007   -1.16857E+006    1.04656E+006    1.01722E+005    1.78714E+006
            1524    1.54828E+007    1.29219E+007    1.29219E+007   -1.51534E+006   -3.42862E+006    1.63505E+007   -2.65931E+006    1.52134E+007   -3.35247E+006    1.26343E+007   -1.30396E+006    1.10493E+006    1.02442E+005    1.73174E+006
            1525    1.66389E+007    1.40488E+007    1.40488E+007   -1.56727E+006   -3.45235E+006    1.75012E+007   -3.00974E+006    1.63961E+007   -3.37409E+006    1.38234E+007   -1.42012E+006    1.16273E+006    1.03213E+005    1.50521E+006
            1526    1.75787E+007    1.49772E+007    1.49772E+007   -1.59900E+006   -3.45646E+006    1.84337E+007   -3.30724E+006    1.73558E+007   -3.37780E+006    1.48334E+007   -1.53382E+006    1.19942E+006    6.50281E+004    1.03538E+006
            1527    1.81289E+007    1.55211E+007    1.55211E+007   -1.61014E+006   -3.46302E+006    1.89842E+007   -3.48266E+006    1.79140E+007   -3.38428E+006    1.54341E+007   -1.60184E+006    1.21967E+006    3.05492E+004    3.76276E+005
            1528    1.94849E+007    1.69488E+007    1.69488E+007   -8.16514E+005   -3.89026E+006    2.08391E+007   -4.08069E+006    1.89279E+007   -3.85801E+006    1.69054E+007   -8.05289E+005    8.15426E+005    4.68987E+004    4.50409E+005
            1529    1.87267E+007    1.60848E+007    1.60848E+007   -9.65016E+005   -3.95814E+006    2.00430E+007   -3.72056E+006    1.81768E+007   -3.92061E+006    1.59618E+007   -8.79561E+005    8.38028E+005    1.33742E+005    1.21534E+006
            1530    1.74811E+007    1.47214E+007    1.47214E+007   -1.15156E+006   -4.01448E+006    1.87358E+007   -3.18511E+006    1.69416E+007   -3.96887E+006    1.45011E+007   -9.76914E+005    8.66574E+005    1.98975E+005    1.67200E+006
            1531    1.60991E+007    1.32852E+007    1.32852E+007   -1.28430E+006   -3.99847E+006    1.72836E+007   -2.66747E+006    1.55718E+007   -3.94585E+006    1.29964E+007   -1.04813E+006    8.83528E+005    2.32033E+005    1.85607E+006
            1532    1.47298E+007    1.19521E+007    1.19521E+007   -1.30864E+006   -3.90235E+006    1.58544E+007   -2.24703E+006    1.42024E+007   -3.84615E+006    1.16431E+007   -1.05588E+006    8.74261E+005    2.38871E+005    1.82764E+006
            1533    1.36151E+007    1.09204E+007    1.09204E+007   -1.27299E+006   -3.77050E+006    1.46909E+007   -1.95897E+006    1.30847E+007   -3.71566E+006    1.06286E+007   -1.03601E+006    8.44572E+005    2.15307E+005    1.69223E+006
            1534    1.26389E+007    1.01033E+007    1.01033E+007   -1.06335E+006   -3.61765E+006    1.37209E+007   -1.80743E+006    1.20374E+007   -3.56535E+006    9.87572E+006   -8.88071E+005    7.81895E+005    2.15800E+005    1.40509E+006
            1535    1.35844E+007    1.11383E+007    1.11383E+007   -1.37663E+006   -3.30869E+006    1.44470E+007   -2.15100E+006    1.32700E+007   -3.25630E+006    1.09047E+007   -1.19544E+006   -8.61750E+005   -1.07243E+005    1.49176E+006
            1536    1.22442E+007    1.02393E+007    1.02393E+007   -7.17886E+005   -2.97717E+006    1.32165E+007   -2.18141E+006    1.17614E+007   -2.92423E+006    9.91489E+006   -4.46421E+005   -8.21487E+005   -7.18025E+004    1.70388E+006
            1537    1.10857E+007    9.42059E+006    9.42059E+006   -3.16672E+005   -2.64397E+006    1.20646E+007   -2.15331E+006    1.05147E+007   -2.59688E+006    9.19367E+006   -1.36852E+005   -7.21177E+005    5.61839E+003    1.32514E+006
            1538    1.02761E+007    9.06240E+006    9.06240E+006    2.13652E+005   -2.20837E+006    1.12708E+007   -2.35589E+006    9.60189E+006   -2.16920E+006    8.93971E+006    2.97176E+005   -5.97207E+005    8.41121E+004    8.97264E+005
            1539    1.08719E+007    9.66860E+006    9.66860E+006   -2.04944E+005   -1.98255E+006    1.16512E+007   -2.49370E+006    1.05375E+007   -1.92714E+006    9.54371E+006   -1.35467E+005   -5.84708E+005    1.63684E+005    9.75273E+005
            1540    1.14698E+007    1.03067E+007    1.03067E+007   -4.77369E+005   -1.74372E+006    1.20504E+007   -2.69520E+006    1.13109E+007   -1.67488E+006    1.01971E+007   -4.36658E+005   -5.69864E+005    1.81141E+005    9.49637E+005
            1541    1.20929E+007    1.08921E+007    1.08921E+007   -7.98875E+005   -1.56626E+006    1.24584E+007   -2.84232E+006    1.20380E+007   -1.46167E+006    1.07985E+007   -8.09843E+005   -5.64044E+005    1.92370E+005    8.99816E+005
            1542    1.27348E+007    1.14971E+007    1.14971E+007   -1.04864E+006   -1.41876E+006    1.29158E+007   -3.00989E+006    1.27227E+007   -1.25091E+006    1.14234E+007   -1.14281E+006   -5.44707E+005    1.46573E+005    8.04471E+005
            1543    1.33084E+007    1.20126E+007    1.20126E+007   -1.07770E+006   -1.50381E+006    1.35164E+007   -3.14369E+006    1.32931E+007   -1.10986E+006    1.19623E+007   -1.42140E+006   -5.37504E+005    1.16807E+005    6.20584E+005
            1544    1.37405E+007    1.23952E+007    1.23952E+007   -1.00419E+006   -1.66276E+006    1.40579E+007   -3.24274E+006    1.37049E+007   -9.94340E+005    1.23627E+007   -1.64019E+006   -5.26285E+005    6.78787E+004    4.08541E+005
            1545    1.39598E+007    1.25906E+007    1.25906E+007   -9.61497E+005   -1.74392E+006    1.43345E+007   -3.29507E+006    1.39103E+007   -9.42569E+005    1.25695E+007   -1.74178E+006   -5.19311E+005    2.30542E+004    1.28734E+005
            1546    1.16887E+007    1.01119E+007    1.01119E+007   -5.31924E+005   -2.39732E+006    1.25093E+007   -2.39424E+006    1.13466E+007   -2.33485E+006    9.91014E+006   -3.92585E+005   -7.71843E+005    8.21912E+004    1.27671E+006
            1547    1.21933E+007    1.06259E+007    1.06259E+007   -7.43968E+005   -2.25089E+006    1.28768E+007   -2.54367E+006    1.19812E+007   -2.17312E+006    1.04443E+007   -6.40152E+005   -8.21689E+005    1.13270E+005    1.21197E+006
            1548    1.28656E+007    1.12612E+007    1.12612E+007   -1.03588E+006   -2.10617E+006    1.33673E+007   -2.70637E+006    1.27649E+007   -2.00080E+006    1.10806E+007   -9.60719E+005   -8.81316E+005    1.36658E+005    1.22995E+006
            1549    1.35712E+007    1.19321E+007    1.19321E+007   -1.32009E+006   -1.93701E+006    1.38691E+007   -2.89167E+006    1.35396E+007   -1.81884E+006    1.17794E+007   -1.28553E+006   -9.18411E+005    1.04467E+005    1.10605E+006
            1550    1.42019E+007    1.24999E+007    1.24999E+007   -1.53966E+006   -1.85910E+006    1.43590E+007   -3.03371E+006    1.41939E+007   -1.70627E+006    1.23791E+007   -1.57170E+006   -9.57706E+005    8.27462E+004    8.95016E+005
            1551    1.46647E+007    1.29294E+007    1.29294E+007   -1.62604E+006   -1.84218E+006    1.47716E+007   -3.15373E+006    1.46611E+007   -1.60317E+006    1.28415E+007   -1.77712E+006   -9.83052E+005    4.88291E+004    5.64779E+005
            1552    1.49003E+007    1.31440E+007    1.31440E+007   -1.62188E+006   -1.88708E+006    1.50311E+007   -3.21169E+006    1.48950E+007   -1.55740E+006    1.30738E+007   -1.88138E+006   -9.96273E+005    1.47212E+004    2.01098E+005
            1553    1.23465E+007    1.03783E+007    1.03783E+007   -9.19825E+005   -2.80078E+006    1.31791E+007   -2.21924E+006    1.20178E+007   -2.74594E+006    1.01591E+007   -7.55466E+005   -8.18476E+005   -9.06328E+003    1.36770E+006
            1554    1.27657E+007    1.08612E+007    1.08612E+007   -9.61141E+005   -2.67488E+006    1.35360E+007   -2.40838E+006    1.25030E+007   -2.62035E+006    1.06085E+007   -7.62996E+005   -8.22631E+005   -1.60712E+004    1.53318E+006
            1555    1.37097E+007    1.17255E+007    1.17255E+007   -1.26876E+006   -2.60216E+006    1.43277E+007   -2.61820E+006    1.35627E+007   -2.53413E+006    1.14825E+007   -1.09381E+006   -9.02673E+005    1.77572E+004    1.54462E+006
            1556    1.45806E+007    1.25412E+007    1.25412E+007   -1.53048E+006   -2.49997E+006    1.50411E+007   -2.83690E+006    1.45078E+007   -2.42709E+006    1.23321E+007   -1.39427E+006   -9.63371E+005    6.83956E+003    1.43210E+006
            1557    1.53791E+007    1.33084E+007    1.33084E+007   -1.69139E+006   -2.42392E+006    1.57323E+007   -3.06436E+006    1.53398E+007   -2.34737E+006    1.31539E+007   -1.61344E+006   -1.02761E+006    4.59237E+003    1.14003E+006
            1558    1.59602E+007    1.38634E+007    1.38634E+007   -1.82481E+006   -2.35541E+006    1.62189E+007   -3.22774E+006    1.59403E+007   -2.27866E+006    1.37563E+007   -1.79438E+006   -1.07107E+006    3.99456E+003    7.52193E+005
            1559    1.62568E+007    1.41538E+007    1.41538E+007   -1.87817E+006   -2.31888E+006    1.64727E+007   -3.31893E+006    1.62434E+007   -2.24513E+006    1.40768E+007   -1.87486E+006   -1.09621E+006   -2.18278E+003    2.46505E+005
            1560    1.25487E+007    1.02126E+007    1.02126E+007   -9.89158E+005   -3.34820E+006    1.35608E+007   -1.95842E+006    1.20346E+007   -3.27016E+006    9.91143E+006   -7.65997E+005   -1.00130E+006   -4.26432E+004    1.57493E+006
            1561    1.35234E+007    1.10369E+007    1.10369E+007   -1.44305E+006   -3.33134E+006    1.43683E+007   -2.08751E+006    1.32219E+007   -3.25696E+006    1.07149E+007   -1.19538E+006   -1.00708E+006   -6.06852E+004    1.74831E+006
            1562    1.43777E+007    1.18389E+007    1.18389E+007   -1.56046E+006   -3.34964E+006    1.51885E+007   -2.30960E+006    1.41240E+007   -3.27226E+006    1.15247E+007   -1.32368E+006   -1.06268E+006   -7.50358E+004    1.76993E+006
            1563    1.55039E+007    1.29736E+007    1.29736E+007   -1.61838E+006   -3.30428E+006    1.62779E+007   -2.68365E+006    1.52956E+007   -3.22444E+006    1.27009E+007   -1.42548E+006   -1.12504E+006   -8.12211E+004    1.66827E+006
            1564    1.64985E+007    1.39583E+007    1.39583E+007   -1.66996E+006   -3.29081E+006    1.72491E+007   -2.99918E+006    1.63180E+007   -3.20775E+006    1.37473E+007   -1.54202E+006   -1.18809E+006   -7.92183E+004    1.40729E+006
            1565    1.72904E+007    1.47489E+007    1.47489E+007   -1.71147E+006   -3.26644E+006    1.80154E+007   -3.25701E+006    1.71321E+007   -3.18113E+006    1.46088E+007   -1.65664E+006   -1.23409E+006   -5.23352E+004    9.48056E+005
            1566    1.77255E+007    1.51723E+007    1.51723E+007   -1.74652E+006   -3.26250E+006    1.84348E+007   -3.38776E+006    1.75788E+007   -3.17607E+006    1.50788E+007   -1.73947E+006   -1.25908E+006   -2.25956E+004    3.44654E+005
            1567    1.93273E+007    1.68061E+007    1.68061E+007   -8.73638E+005   -3.82836E+006    2.06345E+007   -4.03472E+006    1.88091E+007   -3.79479E+006    1.67615E+007   -8.62526E+005   -8.28054E+005   -4.60588E+004    4.46887E+005
            1568    1.86139E+007    1.59983E+007    1.59983E+007   -9.91354E+005   -3.89796E+006    1.98962E+007   -3.70299E+006    1.80928E+007   -3.86024E+006    1.58798E+007   -9.10585E+005   -8.41602E+005   -1.24570E+005    1.17803E+006
            1569    1.74853E+007    1.47600E+007    1.47600E+007   -1.15048E+006   -3.95994E+006    1.87200E+007   -3.21653E+006    1.69664E+007   -3.91505E+006    1.45538E+007   -9.89117E+005   -8.62411E+005   -1.90533E+005    1.61005E+006
            1570    1.61174E+007    1.32939E+007    1.32939E+007   -1.32664E+006   -3.98892E+006    1.72828E+007   -2.65945E+006    1.56112E+007   -3.93752E+006    1.30257E+007   -1.10984E+006   -8.75075E+005   -2.22917E+005    1.78374E+006
            1571    1.48313E+007    1.19756E+007    1.19756E+007   -1.44199E+006   -3.94976E+006    1.59253E+007   -2.19461E+006    1.43426E+007   -3.89435E+006    1.16986E+007   -1.22043E+006   -8.66727E+005   -2.32812E+005    1.72782E+006
            1572    1.36006E+007    1.06857E+007    1.06857E+007   -1.58953E+006   -3.93513E+006    1.46208E+007   -1.72034E+006    1.31339E+007   -3.88056E+006    1.04563E+007   -1.41471E+006   -8.27500E+005   -2.13408E+005    1.47325E+006
            1573    1.34877E+007    1.05127E+007    1.05127E+007   -1.94540E+006   -3.81045E+006    1.43232E+007   -1.58563E+006    1.31929E+007   -3.75888E+006    1.03605E+007   -1.84475E+006   -8.05744E+005   -1.68568E+005    1.13879E+006
            1574    1.81359E+007    1.55257E+007    1.55257E+007   -1.61051E+006   -3.46709E+006    1.89927E+007   -3.48269E+006    1.79202E+007   -3.38847E+006    1.54383E+007   -1.60177E+006    1.21891E+006   -3.15199E+004   -3.86291E+005
            1575    1.69593E+007    1.46821E+007    1.46821E+007   -1.79697E+006   -2.71980E+006    1.74019E+007   -3.38844E+006    1.69027E+007   -2.64306E+006    1.45997E+007   -1.79132E+006    1.15270E+006   -1.52375E+004   -3.05637E+005
            1576    1.57513E+007    1.37417E+007    1.37417E+007   -1.88614E+006   -2.13014E+006    1.58719E+007   -3.24182E+006    1.57471E+007   -2.03966E+006    1.36505E+007   -1.88541E+006    1.17242E+006    9.59329E+003   -2.54031E+005
            1577    1.46522E+007    1.30429E+007    1.30429E+007   -1.38984E+006   -1.81919E+006    1.48621E+007   -3.27796E+006    1.46380E+007   -1.34788E+006    1.29963E+007   -1.81456E+006    7.93714E+005    1.66188E+004   -2.05371E+005
            1578    1.40945E+007    1.26641E+007    1.26641E+007   -1.09063E+006   -1.74719E+006    1.44113E+007   -3.27544E+006    1.40601E+007   -1.06275E+006    1.26331E+007   -1.74408E+006    6.36728E+005    2.62299E+004   -1.46003E+005
            1579    1.34332E+007    1.22356E+007    1.22356E+007   -6.70103E+005   -1.66920E+006    1.39048E+007   -3.29877E+006    1.33492E+007   -6.61649E+005    1.22255E+007   -1.66752E+006    3.49226E+005    2.89992E+004   -9.78187E+004
            1580    1.33823E+007    1.22178E+007    1.22178E+007   -6.55723E+005   -1.62095E+006    1.38388E+007   -3.31371E+006    1.33036E+007   -6.55694E+005    1.22168E+007   -1.61993E+006    1.12394E+005    3.00333E+004   -3.03512E+004
            1581    1.31790E+007    1.20794E+007    1.20794E+007   -5.13899E+005   -1.61597E+006    1.36954E+007   -3.31652E+006    1.30747E+007   -5.14651E+005    1.20793E+007   -1.61508E+006   -3.92571E+004    3.09819E+004    1.41465E+004
            1582    1.35399E+007    1.22958E+007    1.22958E+007   -7.72463E+005   -1.67084E+006    1.39667E+007   -3.28418E+006    1.34726E+007   -7.61744E+005    1.22836E+007   -1.66936E+006   -3.90680E+005    2.69753E+004    8.51789E+004
            1583    1.75726E+007    1.49684E+007    1.49684E+007   -1.59475E+006   -3.46413E+006    1.84325E+007   -3.30317E+006    1.73467E+007   -3.38556E+006    1.48223E+007   -1.52728E+006    1.19861E+006   -6.59549E+004   -1.05298E+006
            1584    1.65023E+007    1.42485E+007    1.42485E+007   -1.74912E+006   -2.71596E+006    1.69644E+007   -3.26113E+006    1.64384E+007   -2.63964E+006    1.41276E+007   -1.70453E+006    1.12302E+006   -1.98230E+004   -8.57440E+005
            1585    1.53666E+007    1.33971E+007    1.33971E+007   -1.78350E+006   -2.14895E+006    1.55460E+007   -3.15487E+006    1.53568E+007   -2.04354E+006    1.32804E+007   -1.77224E+006    1.13481E+006    3.44306E+004   -7.13025E+005
            1586    1.43338E+007    1.27632E+007    1.27632E+007   -1.39490E+006   -1.73997E+006    1.45032E+007   -3.20945E+006    1.43244E+007   -1.37292E+006    1.26986E+007   -1.69738E+006    7.73815E+005    5.04350E+004   -5.69495E+005
            1587    1.37853E+007    1.24059E+007    1.24059E+007   -1.09359E+006   -1.64842E+006    1.40543E+007   -3.22130E+006    1.37601E+007   -1.08245E+006    1.23663E+007   -1.61995E+006    6.13500E+005    7.65689E+004   -4.08601E+005
            1588    1.31685E+007    1.20172E+007    1.20172E+007   -6.99865E+005   -1.56061E+006    1.35778E+007   -3.25223E+006    1.31050E+007   -7.00083E+005    1.20036E+007   -1.54679E+006    3.35785E+005    8.12687E+004   -2.55669E+005
            1589    1.31175E+007    1.20044E+007    1.20044E+007   -6.75389E+005   -1.51104E+006    1.35154E+007   -3.27264E+006    1.30575E+007   -6.83571E+005    1.20029E+007   -1.50140E+006    1.02842E+005    8.55814E+004   -9.24496E+004
            1590    1.29531E+007    1.18926E+007    1.18926E+007   -5.53437E+005   -1.51409E+006    1.34067E+007   -3.27502E+006    1.28726E+007   -5.60902E+005    1.18919E+007   -1.50597E+006   -5.56330E+004    8.54062E+004    7.39522E+004
            1591    1.33145E+007    1.21091E+007    1.21091E+007   -8.04971E+005   -1.57269E+006    1.36818E+007   -3.24381E+006    1.32646E+007   -8.02809E+005    1.20934E+007   -1.55911E+006   -3.95338E+005    7.99666E+004    2.25353E+005
            1592    1.66068E+007    1.40161E+007    1.40161E+007   -1.56334E+006   -3.45591E+006    1.74721E+007   -2.99897E+006    1.63616E+007   -3.37771E+006    1.37885E+007   -1.41387E+006    1.16122E+006   -1.04422E+005   -1.51506E+006
            1593    1.56939E+007    1.34894E+007    1.34894E+007   -1.62678E+006   -2.72448E+006    1.62139E+007   -3.04606E+006    1.56072E+007   -2.65111E+006    1.33115E+007   -1.52224E+006    1.06817E+006   -3.49466E+004   -1.26630E+006
            1594    1.47081E+007    1.28034E+007    1.28034E+007   -1.59965E+006   -2.19175E+006    1.49952E+007   -3.00401E+006    1.46812E+007   -2.08096E+006    1.26489E+007   -1.55595E+006    1.07092E+006    6.06136E+004   -1.05887E+006
            1595    1.37435E+007    1.22400E+007    1.22400E+007   -1.36347E+006   -1.63933E+006    1.38793E+007   -3.07907E+006    1.37373E+007   -1.44789E+006    1.21479E+007   -1.46280E+006    7.41167E+005    9.16176E+004   -8.48881E+005
            1596    1.32394E+007    1.19453E+007    1.19453E+007   -1.09222E+006   -1.48720E+006    1.34325E+007   -3.12195E+006    1.32261E+007   -1.14990E+006    1.18932E+007   -1.37741E+006    5.78276E+005    1.34842E+005   -6.00869E+005
            1597    1.26813E+007    1.16069E+007    1.16069E+007   -7.63513E+005   -1.36384E+006    1.29708E+007   -3.15986E+006    1.26492E+007   -7.99140E+005    1.15883E+007   -1.30959E+006    3.16307E+005    1.46561E+005   -3.72986E+005
            1598    1.26427E+007    1.16135E+007    1.16135E+007   -7.19557E+005   -1.31776E+006    1.29312E+007   -3.19205E+006    1.26108E+007   -7.62549E+005    1.16118E+007   -1.27315E+006    8.73216E+004    1.54715E+005   -1.14872E+005
            1599    1.25198E+007    1.15278E+007    1.15278E+007   -6.36351E+005   -1.31969E+006    1.28475E+007   -3.19057E+006    1.24777E+007   -6.72093E+005    1.15261E+007   -1.28226E+006   -8.15141E+004    1.52426E+005    1.21855E+005
            1600    1.28972E+007    1.17522E+007    1.17522E+007   -8.68031E+005   -1.40510E+006    1.31573E+007   -3.15969E+006    1.28720E+007   -9.04515E+005    1.17290E+007   -1.34537E+006   -4.00292E+005    1.43079E+005    3.76859E+005
            1601    1.54325E+007    1.28741E+007    1.28741E+007   -1.51370E+006   -3.42514E+006    1.62992E+007   -2.64508E+006    1.51628E+007   -3.34910E+006    1.25846E+007   -1.30027E+006    1.10206E+006   -1.01486E+005   -1.73713E+006
            1602    1.46969E+007    1.25601E+007    1.25601E+007   -1.47612E+006   -2.71859E+006    1.52787E+007   -2.78848E+006    1.45781E+007   -2.64943E+006    1.23310E+007   -1.31610E+006    9.89357E+005   -2.74606E+004   -1.51056E+006
            1603    1.38439E+007    1.20348E+007    1.20348E+007   -1.35680E+006   -2.22095E+006    1.42558E+007   -2.81902E+006    1.37831E+007   -2.11703E+006    1.18463E+007   -1.27219E+006    9.84595E+005    8.20379E+004   -1.26952E+006
            1604    1.29924E+007    1.15828E+007    1.15828E+007   -1.16397E+006   -1.64200E+006    1.32248E+007   -2.92560E+006    1.29726E+007   -1.52815E+006    1.14668E+007   -1.16186E+006    6.95396E+005    1.22353E+005   -1.01036E+006
            1605    1.25170E+007    1.13397E+007    1.13397E+007   -9.52260E+005   -1.39081E+006    1.27305E+007   -2.99888E+006    1.24997E+007   -1.22610E+006    1.12772E+007   -1.05444E+006    5.29694E+005    1.75672E+005   -7.13187E+005
            1606    1.20429E+007    1.10754E+007    1.10754E+007   -7.55279E+005   -1.16898E+006    1.22444E+007   -3.05039E+006    1.20269E+007   -9.14826E+005    1.10541E+007   -9.88067E+005    2.89101E+005    1.92892E+005   -4.21309E+005
            1607    1.20010E+007    1.10860E+007    1.10860E+007   -6.97407E+005   -1.12127E+006    1.22073E+007   -3.08911E+006    1.19841E+007   -8.60693E+005    1.10846E+007   -9.56547E+005    6.71850E+004    2.05732E+005   -1.13995E+005
            1608    1.19513E+007    1.10499E+007    1.10499E+007   -6.76466E+005   -1.11434E+006    1.21643E+007   -3.08637E+006    1.19333E+007   -8.06099E+005    1.10460E+007   -9.80758E+005   -1.10613E+005    1.98621E+005    1.89104E+005
            1609    1.23145E+007    1.12594E+007    1.12594E+007   -8.47696E+005   -1.25252E+006    1.25120E+007   -3.05307E+006    1.22996E+007   -1.02527E+006    1.12279E+007   -1.04339E+006   -4.01574E+005    1.86545E+005    4.82293E+005
            1610    1.42932E+007    1.17906E+007    1.17906E+007   -1.40755E+006   -3.39045E+006    1.51811E+007   -2.33088E+006    1.39787E+007   -3.31699E+006    1.14705E+007   -1.16089E+006    1.04253E+006   -9.99018E+004   -1.78590E+006
            1611    1.36390E+007    1.15781E+007    1.15781E+007   -1.23827E+006   -2.75643E+006    1.43346E+007   -2.52781E+006    1.34469E+007   -2.69250E+006    1.13222E+007   -1.04631E+006    9.13626E+005   -1.80493E+004   -1.57746E+006
            1612    1.29681E+007    1.12400E+007    1.12400E+007   -1.06225E+006   -2.30464E+006    1.35446E+007   -2.62437E+006    1.28332E+007   -2.20875E+006    1.10350E+007   -9.53108E+005    9.03941E+005    1.15005E+005   -1.33401E+006
            1613    1.21832E+007    1.08535E+007    1.08535E+007   -8.39724E+005   -1.76674E+006    1.26202E+007   -2.74901E+006    1.21035E+007   -1.67277E+006    1.07227E+007   -8.02846E+005    6.58574E+005    1.71044E+005   -1.06793E+006
            1614    1.17539E+007    1.06755E+007    1.06755E+007   -6.36294E+005   -1.47564E+006    1.21511E+007   -2.85451E+006    1.16862E+007   -1.36354E+006    1.06090E+007   -6.81896E+005    4.88733E+005    2.33120E+005   -7.37259E+005
            1615    1.13498E+007    1.04676E+007    1.04676E+007   -5.10972E+005   -1.22009E+006    1.16877E+007   -2.91219E+006    1.12998E+007   -1.09268E+006    1.04458E+007   -6.16525E+005    2.65177E+005    2.57556E+005   -4.23975E+005
            1616    1.13032E+007    1.04861E+007    1.04861E+007   -4.51314E+005   -1.15047E+006    1.16366E+007   -2.96144E+006    1.12544E+007   -1.01929E+006    1.04852E+007   -5.81633E+005    4.60454E+004    2.72468E+005   -8.72576E+004
            1617    1.13063E+007    1.04734E+007    1.04734E+007   -4.90854E+005   -1.14646E+006    1.16199E+007   -2.94537E+006    1.12635E+007   -1.00773E+006    1.04663E+007   -6.22423E+005   -1.43940E+005    2.63483E+005    2.47086E+005
            1618    1.16890E+007    1.06954E+007    1.06954E+007   -6.12073E+005   -1.34104E+006    1.20364E+007   -2.91409E+006    1.16377E+007   -1.21326E+006    1.06535E+007   -6.97961E+005   -4.09283E+005    2.45253E+005    5.71289E+005
            1619    1.32380E+007    1.08176E+007    1.08176E+007   -1.25327E+006   -3.33973E+006    1.41573E+007   -2.07486E+006    1.28602E+007   -3.27103E+006    1.05076E+007   -1.01202E+006    9.71318E+005   -8.40489E+004   -1.68953E+006
            1620    1.27356E+007    1.07458E+007    1.07458E+007   -1.05109E+006   -2.75675E+006    1.35025E+007   -2.31265E+006    1.24748E+007   -2.70352E+006    1.04878E+007   -8.46337E+005    8.23143E+005   -3.65098E+004   -1.54904E+006
            1621    1.21087E+007    1.04771E+007    1.04771E+007   -7.35820E+005   -2.36290E+006    1.28400E+007   -2.45946E+006    1.18590E+007   -2.29258E+006    1.02735E+007   -6.02535E+005    8.09286E+005    8.98106E+004   -1.30473E+006
            1622    1.14338E+007    1.01845E+007    1.01845E+007   -4.86560E+005   -1.88366E+006    1.20682E+007   -2.60477E+006    1.12394E+007   -1.81749E+006    1.00574E+007   -4.25548E+005    6.17010E+005    1.64456E+005   -1.01477E+006
            1623    1.10156E+007    1.00370E+007    1.00370E+007   -2.66933E+005   -1.57366E+006    1.16106E+007   -2.73213E+006    1.08391E+007   -1.50281E+006    9.97207E+006   -2.72883E+005    4.46827E+005    2.32046E+005   -7.09400E+005
            1624    1.06570E+007    9.86946E+006    9.86946E+006   -1.29356E+005   -1.34194E+006    1.12114E+007   -2.79939E+006    1.05001E+007   -1.27063E+006    9.85009E+006   -1.81301E+005    2.39566E+005    2.67374E+005   -3.83625E+005
            1625    1.06030E+007    9.88078E+006    9.88078E+006   -8.18960E+004   -1.26349E+006    1.11443E+007   -2.84513E+006    1.04533E+007   -1.18919E+006    9.88043E+006   -1.55839E+005    2.76968E+004    2.86565E+005   -5.38006E+004
            1626    1.06391E+007    9.88905E+006    9.88905E+006   -1.18399E+005   -1.28553E+006    1.11746E+007   -2.82837E+006    1.04937E+007   -1.21268E+006    9.87882E+006   -1.81023E+005   -1.69959E+005    2.73407E+005    2.81230E+005
            1627    1.10075E+007    1.00783E+007    1.00783E+007   -2.67065E+005   -1.48929E+006    1.15676E+007   -2.77399E+006    1.08533E+007   -1.41356E+006    1.00280E+007   -2.92439E+005   -4.05599E+005    2.45555E+005    6.19899E+005
            1628    1.26592E+007    1.02347E+007    1.02347E+007   -1.16621E+006   -3.38847E+006    1.36232E+007   -1.89335E+006    1.22087E+007   -3.31858E+006    9.95749E+006   -9.58874E+005    9.52262E+005   -4.29448E+004   -1.53135E+006
            1629    1.19934E+007    9.99786E+006    9.99786E+006   -8.52917E+005   -2.87993E+006    1.28778E+007   -2.08834E+006    1.15986E+007   -2.82291E+006    9.74872E+006   -6.60805E+005    8.20673E+005   -7.00749E+003   -1.44713E+006
            1630    1.14875E+007    9.86883E+006    9.86883E+006   -5.34526E+005   -2.45952E+006    1.23284E+007   -2.29159E+006    1.11159E+007   -2.40074E+006    9.68130E+006   -4.05775E+005    7.51570E+005    7.89741E+004   -1.21054E+006
            1631    1.08357E+007    9.59673E+006    9.59673E+006   -1.91467E+005   -2.04685E+006    1.16436E+007   -2.45280E+006    1.04693E+007   -1.99261E+006    9.46936E+006   -1.18333E+005    6.01040E+005    1.54591E+005   -9.74651E+005
            1632    1.03532E+007    9.41637E+006    9.41637E+006    8.38292E+004   -1.72040E+006    1.11368E+007   -2.59327E+006    9.99033E+006   -1.66983E+006    9.35701E+006    9.26234E+004    4.26431E+005    2.21600E+005   -6.41283E+005
            1633    1.00683E+007    9.31561E+006    9.31561E+006    2.24755E+005   -1.50573E+006    1.08213E+007   -2.67821E+006    9.72520E+006   -1.45927E+006    9.29978E+006    1.94127E+005    2.24853E+005    2.59000E+005   -3.24101E+005
            1634    9.99252E+006    9.31863E+006    9.31863E+006    2.88364E+005   -1.41673E+006    1.07354E+007   -2.73009E+006    9.65706E+006   -1.37082E+006    9.31859E+006    2.42495E+005    1.17513E+004    2.75938E+005   -1.59615E+004
            1635    1.00648E+007    9.32859E+006    9.32859E+006    2.23858E+005   -1.47903E+006    1.08076E+007   -2.69114E+006    9.73275E+006   -1.43202E+006    9.31637E+006    1.89070E+005   -1.96532E+005    2.63332E+005    2.85480E+005
            1636    1.03584E+007    9.45819E+006    9.45819E+006    1.02054E+005   -1.67311E+006    1.11313E+007   -2.62905E+006    1.00076E+007   -1.62155E+006    9.40380E+006    1.04898E+005   -4.09214E+005    2.29371E+005    6.14478E+005
            1637    9.81522E+006    8.92859E+006    8.92859E+006    4.81521E+005   -1.83894E+006    1.07675E+007   -2.52372E+006    9.16709E+006   -1.81119E+006    8.88207E+006    5.00280E+005   -4.20441E+005    1.41568E+005    5.08800E+005
            1638    9.59614E+006    8.90775E+006    8.90775E+006    6.11028E+005   -1.60137E+006    1.05091E+007   -2.63914E+006    8.99507E+006   -1.58211E+006    8.89790E+006    6.01622E+005   -2.18829E+005    1.75304E+005    2.13111E+005
            1639    9.55269E+006    8.91524E+006    8.91524E+006    6.05603E+005   -1.52181E+006    1.04370E+007   -2.66634E+006    8.99624E+006   -1.50545E+006    8.91524E+006    5.89246E+005    1.45175E+003    1.85828E+005   -2.85447E+003
            1640    9.60407E+006    8.90980E+006    8.90980E+006    6.02610E+005   -1.60628E+006    1.05161E+007   -2.63538E+006    9.00555E+006   -1.58716E+006    8.89998E+006    5.93318E+005    2.20579E+005    1.73876E+005   -2.11307E+005
            1641    9.82315E+006    8.92902E+006    8.92902E+006    4.72926E+005   -1.84617E+006    1.07752E+007   -2.51859E+006    9.17639E+006   -1.81832E+006    8.88187E+006    4.92225E+005    4.23602E+005    1.40211E+005   -5.12353E+005
            1642    1.02775E+007    9.04486E+006    9.04486E+006    1.68777E+005   -2.21507E+006    1.12599E+007   -2.33285E+006    9.62552E+006   -2.17711E+006    8.93150E+006    2.44168E+005    5.88882E+005    8.28308E+004   -8.56155E+005
            1643    1.10358E+007    9.40032E+006    9.40032E+006   -2.86566E+005   -2.61340E+006    1.20137E+007   -2.16678E+006    1.04624E+007   -2.56676E+006    9.19852E+006   -1.31404E+005    7.14378E+005    1.54379E+004   -1.23263E+006
            1644    1.19201E+007    9.83673E+006    9.83673E+006   -8.27388E+005   -3.03169E+006    1.28684E+007   -1.99255E+006    1.14480E+007   -2.98171E+006    9.62177E+006   -6.62414E+005    7.91729E+005   -5.09360E+004   -1.31724E+006
            1645    1.21651E+007    9.76404E+006    9.76404E+006   -1.06338E+006   -3.39975E+006    1.31638E+007   -1.76697E+006    1.16441E+007   -3.35095E+006    9.58719E+006   -9.35333E+005    7.78071E+005   -1.42184E+005   -1.17399E+006
            1646    1.94944E+007    1.69599E+007    1.69599E+007   -8.16621E+005   -3.88793E+006    2.08478E+007   -4.08510E+006    1.89386E+007   -3.85564E+006    1.69162E+007   -8.05294E+005    8.16083E+005   -4.70340E+004   -4.52580E+005
            1647    1.87252E+007    1.60845E+007    1.60845E+007   -9.60816E+005   -3.95880E+006    2.00433E+007   -3.72163E+006    1.81734E+007   -3.92137E+006    1.59607E+007   -8.74490E+005    8.36800E+005   -1.34101E+005   -1.22122E+006
            1648    1.74637E+007    1.47064E+007    1.47064E+007   -1.14452E+006   -4.01454E+006    1.87209E+007   -3.18245E+006    1.69209E+007   -3.96895E+006    1.44848E+007   -9.68554E+005    8.64985E+005   -2.00446E+005   -1.67727E+006
            1649    1.60605E+007    1.32511E+007    1.32511E+007   -1.27668E+006   -3.99504E+006    1.72462E+007   -2.65980E+006    1.55302E+007   -3.94233E+006    1.29610E+007   -1.03924E+006    8.82505E+005   -2.33319E+005   -1.85840E+006
            1650    1.46766E+007    1.19010E+007    1.19010E+007   -1.30759E+006   -3.89852E+006    1.57995E+007   -2.23164E+006    1.41483E+007   -3.84217E+006    1.15914E+007   -1.05432E+006    8.73568E+005   -2.39445E+005   -1.82582E+006
            1651    1.35627E+007    1.08683E+007    1.08683E+007   -1.27397E+006   -3.76847E+006    1.46367E+007   -1.94195E+006    1.30315E+007   -3.71376E+006    1.05790E+007   -1.03944E+006    8.42668E+005   -2.13576E+005   -1.67985E+006
            1652    1.26254E+007    1.00930E+007    1.00930E+007   -1.05949E+006   -3.61453E+006    1.37075E+007   -1.80631E+006    1.20229E+007   -3.56218E+006    9.86676E+006   -8.85638E+005    7.79535E+005   -2.18005E+005   -1.39969E+006
            1653    1.78787E+007    1.54665E+007    1.54665E+007   -1.68845E+006   -3.05715E+006    1.85237E+007   -3.57364E+006    1.77602E+007   -3.02244E+006    1.54247E+007   -1.68138E+006   -8.00934E+005    1.33245E+004   -3.48196E+005
            1654    1.63335E+007    1.41374E+007    1.41374E+007   -1.91768E+006   -2.46105E+006    1.65985E+007   -3.25289E+006    1.63132E+007   -2.41172E+006    1.40844E+007   -1.91397E+006   -8.99325E+005   -1.44660E+003   -2.58489E+005
            1655    1.50962E+007    1.32776E+007    1.32776E+007   -1.76158E+006   -1.87488E+006    1.51525E+007   -3.21372E+006    1.50952E+007   -1.73855E+006    1.32487E+007   -1.86898E+006   -6.25622E+005   -9.64421E+003   -2.08544E+005
            1656    1.41567E+007    1.25909E+007    1.25909E+007   -1.32697E+006   -1.79314E+006    1.43840E+007   -3.15692E+006    1.41394E+007   -1.30633E+006    1.25681E+007   -1.79096E+006   -5.48194E+005   -1.62975E+004   -1.31805E+005
            1657    1.74345E+007    1.50280E+007    1.50280E+007   -1.64951E+006   -3.07592E+006    1.81039E+007   -3.43419E+006    1.73025E+007   -3.04175E+006    1.49380E+007   -1.59367E+006   -7.84497E+005    4.55640E+004   -9.62392E+005
            1658    1.60349E+007    1.38459E+007    1.38459E+007   -1.86118E+006   -2.49781E+006    1.63437E+007   -3.16230E+006    1.60064E+007   -2.44712E+006    1.37607E+007   -1.82668E+006   -8.81749E+005   -1.13110E+003   -7.66471E+005
            1659    1.48467E+007    1.30516E+007    1.30516E+007   -1.73637E+006   -1.85315E+006    1.49047E+007   -3.15402E+006    1.48457E+007   -1.78667E+006    1.30034E+007   -1.75464E+006   -6.18972E+005   -3.15952E+004   -5.77157E+005
            1660    1.39284E+007    1.23907E+007    1.23907E+007   -1.36554E+006   -1.70368E+006    1.40944E+007   -3.10717E+006    1.39192E+007   -1.36083E+006    1.23574E+007   -1.67504E+006   -5.44167E+005   -5.74165E+004   -4.09956E+005
            1661    1.66323E+007    1.42124E+007    1.42124E+007   -1.62190E+006   -3.11694E+006    1.73293E+007   -3.15785E+006    1.64801E+007   -3.08396E+006    1.40479E+007   -1.49038E+006   -7.52422E+005    6.53833E+004   -1.43565E+006
            1662    1.54597E+007    1.33044E+007    1.33044E+007   -1.73403E+006   -2.54467E+006    1.58491E+007   -3.00858E+006    1.54118E+007   -2.49323E+006    1.31668E+007   -1.64777E+006   -8.45862E+005   -5.77947E+003   -1.17572E+006
            1663    1.43557E+007    1.26000E+007    1.26000E+007   -1.59145E+006   -1.91443E+006    1.45145E+007   -3.03139E+006    1.43475E+007   -1.86660E+006    1.25160E+007   -1.55521E+006   -6.01026E+005   -4.46618E+004   -9.16555E+005
            1664    1.34891E+007    1.20183E+007    1.20183E+007   -1.36034E+006   -1.57854E+006    1.35968E+007   -3.02648E+006    1.34851E+007   -1.44402E+006    1.19687E+007   -1.44521E+006   -5.32650E+005   -8.44935E+004   -6.23520E+005
            1665    1.56372E+007    1.32149E+007    1.32149E+007   -1.56437E+006   -3.15827E+006    1.63732E+007   -2.83075E+006    1.54529E+007   -3.12689E+006    1.29862E+007   -1.36709E+006   -7.11481E+005    8.05253E+004   -1.69426E+006
            1666    1.46331E+007    1.25114E+007    1.25114E+007   -1.55010E+006   -2.63310E+006    1.51445E+007   -2.77607E+006    1.45425E+007   -2.58129E+006    1.23138E+007   -1.40428E+006   -8.04365E+005   -1.71360E+004   -1.46843E+006
            1667    1.36887E+007    1.20000E+007    1.20000E+007   -1.32694E+006   -2.02377E+006    1.40238E+007   -2.88310E+006    1.36487E+007   -1.98072E+006    1.18800E+007   -1.25003E+006   -5.79271E+005   -6.64826E+004   -1.13038E+006
            1668    1.29225E+007    1.15107E+007    1.15107E+007   -1.14734E+006   -1.66092E+006    1.31717E+007   -2.90083E+006    1.28995E+007   -1.58703E+006    1.14385E+007   -1.14897E+006   -5.25019E+005   -1.23757E+005   -8.10061E+005
            1669    1.44896E+007    1.20553E+007    1.20553E+007   -1.51329E+006   -3.20647E+006    1.52618E+007   -2.44518E+006    1.42645E+007   -3.17786E+006    1.17807E+007   -1.26728E+006   -6.54376E+005    8.67683E+004   -1.80846E+006
            1670    1.37468E+007    1.17079E+007    1.17079E+007   -1.28569E+006   -2.68508E+006    1.43930E+007   -2.57905E+006    1.35852E+007   -2.63837E+006    1.14732E+007   -1.09766E+006   -7.51403E+005   -1.41706E+004   -1.58251E+006
            1671    1.29144E+007    1.12953E+007    1.12953E+007   -1.03122E+006   -2.13588E+006    1.34312E+007   -2.70942E+006    1.28074E+007   -2.10227E+006    1.11444E+007   -9.13922E+005   -5.46163E+005   -5.92492E+004   -1.25562E+006
            1672    1.22620E+007    1.09294E+007    1.09294E+007   -8.25906E+005   -1.78322E+006    1.27126E+007   -2.77342E+006    1.21775E+007   -1.73384E+006    1.08412E+007   -7.87054E+005   -5.02458E+005   -1.29671E+005   -8.99594E+005
            1673    1.36496E+007    1.12654E+007    1.12654E+007   -1.38485E+006   -3.20159E+006    1.44670E+007   -2.22632E+006    1.33736E+007   -3.17528E+006    1.09849E+007   -1.13061E+006   -6.10248E+005    8.72805E+004   -1.77337E+006
            1674    1.28455E+007    1.08721E+007    1.08721E+007   -9.74276E+005   -2.78123E+006    1.36533E+007   -2.37220E+006    1.25548E+007   -2.73621E+006    1.06268E+007   -7.74027E+005   -7.19392E+005   -2.49593E+004   -1.55490E+006
            1675    1.22340E+007    1.06455E+007    1.06455E+007   -7.66140E+005   -2.27155E+006    1.29171E+007   -2.53594E+006    1.20230E+007   -2.24038E+006    1.04854E+007   -6.37250E+005   -5.28794E+005   -6.63991E+004   -1.25218E+006
            1676    1.16356E+007    1.03489E+007    1.03489E+007   -5.03085E+005   -1.93737E+006    1.22862E+007   -2.63614E+006    1.14342E+007   -1.89627E+006    1.02451E+007   -4.40393E+005   -4.84335E+005   -1.37972E+005   -9.60952E+005
            1677    1.25924E+007    1.03988E+007    1.03988E+007   -9.13115E+005   -3.16917E+006    1.35679E+007   -2.10549E+006    1.21251E+007   -3.14672E+006    1.01393E+007   -6.76135E+005   -5.30413E+005    1.19335E+005   -1.62100E+006
            1678    1.24793E+007    1.04943E+007    1.04943E+007   -8.76767E+005   -2.85663E+006    1.33509E+007   -2.25363E+006    1.21184E+007   -2.82276E+006    1.02932E+007   -7.09539E+005   -6.50346E+005    9.68986E+003   -1.37691E+006
            1679    1.17204E+007    1.01502E+007    1.01502E+007   -4.85659E+005   -2.41520E+006    1.25654E+007   -2.41645E+006    1.13548E+007   -2.38837E+006    9.96657E+006   -3.28847E+005   -5.24922E+005   -3.91592E+004   -1.30320E+006
            1680    1.09967E+007    9.73574E+006    9.73574E+006   -1.70766E+005   -2.09671E+006    1.18325E+007   -2.48942E+006    1.06073E+007   -2.06866E+006    9.62128E+006   -8.43629E+004   -4.51904E+005   -1.05401E+005   -9.80770E+005
            1681    1.03484E+007    9.11747E+006    9.11747E+006    1.89133E+005   -2.22444E+006    1.13419E+007   -2.36072E+006    9.68430E+006   -2.20549E+006    9.00360E+006    2.84048E+005   -4.35935E+005   -3.42560E+004   -9.27388E+005
            1682    1.11226E+007    9.46672E+006    9.46672E+006   -3.44445E+005   -2.61645E+006    1.20832E+007   -2.16861E+006    1.05814E+007   -2.59268E+006    9.24925E+006   -1.50754E+005   -5.24640E+005    2.38853E+004   -1.36716E+006
            1683    1.22634E+007    1.03105E+007    1.03105E+007   -7.44919E+005   -2.88041E+006    1.31909E+007   -2.22839E+006    1.18342E+007   -2.85406E+006    9.99390E+006   -4.54678E+005   -5.81743E+005    9.10076E+004   -1.76549E+006
            1684    1.35561E+007    1.11896E+007    1.11896E+007   -1.44129E+006   -3.13298E+006    1.43225E+007   -2.20510E+006    1.33155E+007   -3.10506E+006    1.09493E+007   -1.22898E+006   -6.15420E+005    1.12962E+005   -1.62429E+006
            1685    1.89896E+007    1.67548E+007    1.67548E+007   -8.63394E+005   -3.35947E+006    2.01142E+007   -4.17730E+006    1.86152E+007   -3.34343E+006    1.67278E+007   -8.52459E+005   -5.65241E+005    3.06703E+004   -4.40766E+005
            1686    1.82857E+007    1.59352E+007    1.59352E+007   -9.92363E+005   -3.45838E+006    1.93935E+007   -3.82813E+006    1.79058E+007   -3.43966E+006    1.58290E+007   -9.04970E+005   -5.80097E+005    9.29135E+004   -1.21972E+006
            1687    1.71789E+007    1.46853E+007    1.46853E+007   -1.16155E+006   -3.57132E+006    1.82566E+007   -3.31747E+006    1.67924E+007   -3.54871E+006    1.44843E+007   -9.83139E+005   -5.99790E+005    1.36601E+005   -1.68082E+006
            1688    1.58488E+007    1.32108E+007    1.32108E+007   -1.35694E+006   -3.66574E+006    1.68765E+007   -2.72937E+006    1.54636E+007   -3.63899E+006    1.29409E+007   -1.11384E+006   -6.19109E+005    1.62564E+005   -1.87531E+006
            1689    1.45849E+007    1.18573E+007    1.18573E+007   -1.51385E+006   -3.69563E+006    1.55529E+007   -2.21593E+006    1.42108E+007   -3.66641E+006    1.15747E+007   -1.26055E+006   -6.25943E+005    1.63925E+005   -1.83040E+006
            1690    1.33717E+007    1.05364E+007    1.05364E+007   -1.68758E+006   -3.74457E+006    1.42810E+007   -1.70143E+006    1.30086E+007   -3.71456E+006    1.02977E+007   -1.47891E+006   -6.20774E+005    1.43410E+005   -1.58831E+006
            1691    1.33120E+007    1.03692E+007    1.03692E+007   -2.08511E+006   -3.66032E+006    1.40295E+007   -1.54125E+006    1.30998E+007   -3.63033E+006    1.02039E+007   -1.94979E+006   -6.32885E+005    1.00959E+005   -1.29311E+006
            1692    9.91402E+006    8.97880E+006    8.97880E+006    4.54213E+005   -1.90062E+006    1.08794E+007   -2.51080E+006    9.25286E+006   -1.88753E+006    8.93723E+006    4.82691E+005   -3.15890E+005   -8.03631E+004   -5.26896E+005
            1693    9.69922E+006    8.96003E+006    8.96003E+006    5.94676E+005   -1.67171E+006    1.06317E+007   -2.62766E+006    9.07430E+006   -1.66351E+006    8.95149E+006    5.95003E+005   -1.66397E+005   -1.09025E+005   -2.24345E+005
            1694    9.66360E+006    8.96707E+006    8.96707E+006    5.83491E+005   -1.60218E+006    1.05692E+007   -2.64946E+006    9.08215E+006   -1.59576E+006    8.96706E+006    5.77071E+005   -2.89313E+003   -1.18287E+005    2.49266E+002
            1695    9.69641E+006    8.95429E+006    8.95429E+006    5.85535E+005   -1.67161E+006    1.06259E+007   -2.62274E+006    9.07665E+006   -1.66350E+006    8.94630E+006    5.85411E+005    1.63056E+005   -1.09127E+005    2.15990E+005
            1696    9.91618E+006    8.97959E+006    8.97959E+006    4.48613E+005   -1.90009E+006    1.08797E+007   -2.50937E+006    9.25881E+006   -1.88716E+006    8.93741E+006    4.77866E+005    3.13854E+005   -7.95576E+004    5.32877E+005
            1697    1.03594E+007    9.10523E+006    9.10523E+006    1.35085E+005   -2.23325E+006    1.13385E+007   -2.33569E+006    9.72188E+006   -2.21450E+006    8.99719E+006    2.24383E+005    4.34146E+005   -3.35419E+004    9.02197E+005
            1698    1.11277E+007    9.48576E+006    9.48576E+006   -3.38015E+005   -2.59862E+006    1.20844E+007   -2.18304E+006    1.05924E+007   -2.57522E+006    9.28722E+006   -1.62874E+005    5.22206E+005    2.48588E+004    1.30179E+006
            1699    1.19916E+007    9.92571E+006    9.92571E+006   -9.26216E+005   -2.94845E+006    1.28742E+007   -2.01702E+006    1.15987E+007   -2.92300E+006    9.71123E+006   -7.37185E+005    5.67231E+005    7.16500E+004    1.41806E+006
            1700    1.21688E+007    9.74920E+006    9.74920E+006   -1.23333E+006   -3.33264E+006    1.30818E+007   -1.72774E+006    1.17510E+007   -3.30401E+006    9.56259E+006   -1.07535E+006    6.03167E+005    9.08500E+004    1.30659E+006
            1701    1.04214E+007    9.46511E+006    9.46511E+006    1.34631E+005   -1.78138E+006    1.12465E+007   -2.60612E+006    1.00136E+007   -1.75936E+006    9.41694E+006    1.60784E+005   -2.95959E+005   -1.48292E+005   -6.16709E+005
            1702    1.10462E+007    1.00260E+007    1.00260E+007   -3.00265E+005   -1.62143E+006    1.16474E+007   -2.70142E+006    1.08663E+007   -1.58695E+006    9.98094E+006   -2.89729E+005   -2.79563E+005   -1.74465E+005   -6.32568E+005
            1703    1.16894E+007    1.06240E+007    1.06240E+007   -6.52338E+005   -1.43882E+006    1.20628E+007   -2.84428E+006    1.16297E+007   -1.39422E+006    1.05892E+007   -6.62187E+005   -2.60735E+005   -1.58305E+005   -5.76412E+005
            1704    1.23141E+007    1.11668E+007    1.11668E+007   -9.62619E+005   -1.32407E+006    1.24908E+007   -2.96002E+006    1.23021E+007   -1.22844E+006    1.11429E+007   -1.03434E+006   -2.45943E+005   -1.47249E+005   -4.84623E+005
            1705    1.28737E+007    1.16504E+007    1.16504E+007   -1.04288E+006   -1.39647E+006    1.30469E+007   -3.07036E+006    1.28628E+007   -1.07515E+006    1.16358E+007   -1.34962E+006   -2.24035E+005   -1.00683E+005   -3.73654E+005
            1706    1.32921E+007    1.20038E+007    1.20038E+007   -9.74188E+005   -1.58158E+006    1.35854E+007   -3.14933E+006    1.32608E+007   -9.79328E+005    1.19966E+007   -1.56930E+006   -2.13033E+005   -6.82627E+004   -2.23490E+005
            1707    1.35181E+007    1.21919E+007    1.21919E+007   -9.25983E+005   -1.69363E+006    1.38855E+007   -3.19076E+006    1.34689E+007   -9.23353E+005    1.21882E+007   -1.69254E+006   -2.04237E+005   -1.92068E+004   -8.68065E+004
            1708    1.01694E+007    9.36340E+006    9.36340E+006    2.54716E+005   -1.60886E+006    1.09723E+007   -2.66975E+006    9.77405E+006   -1.58869E+006    9.35238E+006    2.45566E+005   -1.56850E+005   -1.77876E+005   -2.85346E+005
            1709    1.07702E+007    9.89870E+006    9.89870E+006   -1.42610E+005   -1.47620E+006    1.13749E+007   -2.75996E+006    1.05821E+007   -1.44080E+006    9.88881E+006   -1.68121E+005   -1.51938E+005   -2.04568E+005   -2.83908E+005
            1710    1.14401E+007    1.04834E+007    1.04834E+007   -5.43643E+005   -1.32925E+006    1.18127E+007   -2.87017E+006    1.13792E+007   -1.27943E+006    1.04766E+007   -5.86659E+005   -1.42806E+005   -1.85471E+005   -2.39155E+005
            1711    1.21136E+007    1.10495E+007    1.10495E+007   -8.75072E+005   -1.24462E+006    1.22941E+007   -2.97661E+006    1.21009E+007   -1.13422E+006    1.10454E+007   -9.81317E+005   -1.34895E+005   -1.66505E+005   -1.80621E+005
            1712    1.26910E+007    1.15334E+007    1.15334E+007   -9.68550E+005   -1.33866E+006    1.28720E+007   -3.07539E+006    1.26789E+007   -1.00592E+006    1.15311E+007   -1.29902E+006   -1.25134E+005   -1.12006E+005   -1.15581E+005
            1713    1.31415E+007    1.18966E+007    1.18966E+007   -9.20892E+005   -1.54652E+006    1.34431E+007   -3.14307E+006    1.31079E+007   -9.29055E+005    1.18951E+007   -1.53682E+006   -1.21137E+005   -7.50586E+004   -7.25997E+004
            1714    1.33730E+007    1.20860E+007    1.20860E+007   -8.83808E+005   -1.65676E+006    1.37427E+007   -3.18179E+006    1.33226E+007   -8.83243E+005    1.20849E+007   -1.65624E+006   -1.17199E+005   -1.93854E+004   -1.78151E+004
            1715    1.00561E+007    9.31259E+006    9.31259E+006    3.14734E+005   -1.54270E+006    1.08553E+007   -2.69487E+006    9.65874E+006   -1.52441E+006    9.31255E+006    2.96475E+005    1.02645E+004   -1.83385E+005    1.66757E+004
            1716    1.06382E+007    9.80913E+006    9.80913E+006   -1.15081E+005   -1.42223E+006    1.12314E+007   -2.75727E+006    1.04552E+007   -1.38837E+006    9.80870E+006   -1.48518E+005    3.20708E+004   -2.07205E+005    5.80963E+004
            1717    1.13016E+007    1.03937E+007    1.03937E+007   -5.10265E+005   -1.26753E+006    1.16612E+007   -2.87197E+006    1.12443E+007   -1.21876E+006    1.03925E+007   -5.57836E+005    5.66503E+004   -1.84897E+005    1.01069E+005
            1718    1.19805E+007    1.09582E+007    1.09582E+007   -8.45383E+005   -1.19169E+006    1.21499E+007   -2.97372E+006    1.19692E+007   -1.06985E+006    1.09563E+007   -9.65250E+005    8.20365E+004   -1.64320E+005    1.30590E+005
            1719    1.25855E+007    1.14647E+007    1.14647E+007   -9.01438E+005   -1.32926E+006    1.27940E+007   -3.07801E+006    1.25692E+007   -9.32018E+005    1.14626E+007   -1.29655E+006    1.04492E+005   -1.10608E+005    1.26827E+005
            1720    1.30338E+007    1.18299E+007    1.18299E+007   -8.38463E+005   -1.54093E+006    1.33708E+007   -3.15017E+006    1.29911E+007   -8.45437E+005    1.18281E+007   -1.53212E+006    1.19992E+005   -7.41221E+004    9.73361E+004
            1721    1.32761E+007    1.20279E+007    1.20279E+007   -7.95414E+005   -1.65889E+006    1.36868E+007   -3.19119E+006    1.32127E+007   -7.94565E+005    1.20265E+007   -1.65836E+006    1.29719E+005   -1.96973E+004    2.95202E+004
            1722    1.01687E+007    9.35240E+006    9.35240E+006    2.56860E+005   -1.62617E+006    1.09786E+007   -2.66103E+006    9.76478E+006   -1.60629E+006    9.33833E+006    2.51058E+005    1.70326E+005   -1.74325E+005    3.25121E+005
            1723    1.07990E+007    9.89284E+006    9.89284E+006   -1.56897E+005   -1.52504E+006    1.14179E+007   -2.73697E+006    1.06014E+007   -1.49016E+006    9.87419E+006   -1.73120E+005    1.90616E+005   -1.99273E+005    3.97823E+005
            1724    1.15227E+007    1.05138E+007    1.05138E+007   -5.65829E+005   -1.40600E+006    1.19198E+007   -2.84731E+006    1.14535E+007   -1.35868E+006    1.04930E+007   -5.92374E+005    2.16442E+005   -1.78118E+005    4.35609E+005
            1725    1.22670E+007    1.11305E+007    1.11305E+007   -9.25799E+005   -1.33691E+006    1.24674E+007   -2.95594E+006    1.22515E+007   -1.24460E+006    1.11105E+007   -9.98108E+005    2.46667E+005   -1.59729E+005    4.30826E+005
            1726    1.29266E+007    1.16783E+007    1.16783E+007   -1.09413E+006   -1.39697E+006    1.30753E+007   -3.06241E+006    1.29186E+007   -1.14061E+006    1.16622E+007   -1.33434E+006    2.71198E+005   -1.06637E+005    3.70336E+005
            1727    1.34289E+007    1.20876E+007    1.20876E+007   -1.07414E+006   -1.59342E+006    1.36811E+007   -3.14002E+006    1.34063E+007   -1.07932E+006    1.20769E+007   -1.57747E+006    2.90701E+005   -7.13768E+004    2.45211E+005
            1728    1.36940E+007    1.23047E+007    1.23047E+007   -1.05007E+006   -1.70516E+006    1.40098E+007   -3.18314E+006    1.36587E+007   -1.04392E+006    1.22973E+007   -1.70397E+006    3.01384E+005   -1.88215E+004    8.67537E+004
            1729    1.04373E+007    9.43876E+006    9.43876E+006    1.09045E+005   -1.83329E+006    1.12720E+007   -2.57150E+006    1.00185E+007   -1.81132E+006    9.38459E+006    1.41235E+005    3.18223E+005   -1.39848E+005    6.51883E+005
            1730    1.11065E+007    1.00191E+007    1.00191E+007   -3.17704E+005   -1.72319E+006    1.17423E+007   -2.65941E+006    1.09037E+007   -1.68865E+006    9.95626E+006   -2.89376E+005    3.40458E+005   -1.63041E+005    7.43547E+005
            1731    1.18385E+007    1.06644E+007    1.06644E+007   -7.02891E+005   -1.59501E+006    1.22594E+007   -2.78882E+006    1.17626E+007   -1.55291E+006    1.06017E+007   -6.82333E+005    3.63714E+005   -1.41320E+005    7.71003E+005
            1732    1.26096E+007    1.13167E+007    1.13167E+007   -1.06422E+006   -1.50964E+006    1.28264E+007   -2.91429E+006    1.25919E+007   -1.43811E+006    1.12605E+007   -1.07947E+006    3.96129E+005   -1.28398E+005    7.42320E+005
            1733    1.32992E+007    1.19093E+007    1.19093E+007   -1.27428E+006   -1.50260E+006    1.34119E+007   -3.04413E+006    1.32948E+007   -1.32515E+006    1.18680E+007   -1.41042E+006    4.18287E+005   -8.33102E+004    6.14351E+005
            1734    1.38111E+007    1.23421E+007    1.23421E+007   -1.25989E+006   -1.66913E+006    1.40112E+007   -3.13768E+006    1.37975E+007   -1.25785E+006    1.23163E+007   -1.64536E+006    4.37516E+005   -5.61225E+004    4.07094E+005
            1735    1.40878E+007    1.25781E+007    1.25781E+007   -1.23106E+006   -1.77277E+006    1.43508E+007   -3.19141E+006    1.40643E+007   -1.21720E+006    1.25623E+007   -1.77083E+006    4.47014E+005   -1.40114E+004    1.37443E+005
            1736    1.09812E+007    9.69148E+006    9.69148E+006   -1.65241E+005   -2.14491E+006    1.18364E+007   -2.46044E+006    1.05685E+007   -2.11828E+006    9.57243E+006   -7.28225E+004    4.55752E+005   -9.41693E+004    9.98943E+005
            1737    1.16721E+007    1.02972E+007    1.02972E+007   -5.34251E+005   -2.06452E+006    1.23617E+007   -2.56615E+006    1.14431E+007   -2.02579E+006    1.01741E+007   -4.49821E+005    5.01702E+005   -1.23047E+005    1.05567E+006
            1738    1.24795E+007    1.10106E+007    1.10106E+007   -8.89569E+005   -1.97706E+006    1.29877E+007   -2.71467E+006    1.23723E+007   -1.93112E+006    1.08872E+007   -8.12106E+005    5.49756E+005   -1.08488E+005    1.09220E+006
            1739    1.33370E+007    1.17477E+007    1.17477E+007   -1.23546E+006   -1.91689E+006    1.36646E+007   -2.86513E+006    1.32977E+007   -1.85468E+006    1.16406E+007   -1.19056E+006    6.09460E+005   -1.04470E+005    1.02075E+006
            1740    1.40823E+007    1.23992E+007    1.23992E+007   -1.51455E+006   -1.84577E+006    1.42450E+007   -3.01298E+006    1.40736E+007   -1.77669E+006    1.23185E+007   -1.50293E+006    6.55484E+005   -6.76764E+004    8.40079E+005
            1741    1.46549E+007    1.28959E+007    1.28959E+007   -1.68607E+006   -1.83090E+006    1.47268E+007   -3.12630E+006    1.46533E+007   -1.73334E+006    1.28423E+007   -1.73011E+006    6.94393E+005   -4.59510E+004    5.50468E+005
            1742    1.49605E+007    1.31605E+007    1.31605E+007   -1.74012E+006   -1.85911E+006    1.50196E+007   -3.18710E+006    1.49594E+007   -1.70989E+006    1.31238E+007   -1.85265E+006    7.14958E+005   -1.28851E+004    1.86816E+005
            1743    1.15907E+007    9.95004E+006    9.95004E+006   -5.15640E+005   -2.50746E+006    1.24575E+007   -2.30898E+006    1.11959E+007   -2.48065E+006    9.77530E+006   -3.67709E+005    5.33402E+005   -3.12010E+004    1.25303E+006
            1744    1.22452E+007    1.05587E+007    1.05587E+007   -8.04584E+005   -2.41015E+006    1.29688E+007   -2.44798E+006    1.20050E+007   -2.37825E+006    1.03650E+007   -6.42837E+005    5.60533E+005   -4.81920E+004    1.37942E+006
            1745    1.31419E+007    1.13780E+007    1.13780E+007   -1.11653E+006   -2.32747E+006    1.37055E+007   -2.64468E+006    1.30155E+007   -2.29465E+006    1.11961E+007   -9.67437E+005    5.93040E+005   -3.01537E+004    1.38993E+006
            1746    1.40530E+007    1.21966E+007    1.21966E+007   -1.39159E+006   -2.27923E+006    1.44758E+007   -2.84191E+006    1.39897E+007   -2.24029E+006    1.20432E+007   -1.27716E+006    6.47358E+005   -3.40123E+004    1.29594E+006
            1747    1.48955E+007    1.29651E+007    1.29651E+007   -1.62976E+006   -2.21388E+006    1.51790E+007   -3.04049E+006    1.48697E+007   -2.17540E+006    1.28559E+007   -1.55907E+006    6.87511E+005   -1.56184E+004    1.06473E+006
            1748    1.55272E+007    1.35402E+007    1.35402E+007   -1.78399E+006   -2.18237E+006    1.57226E+007   -3.19128E+006    1.55157E+007   -2.14434E+006    1.34750E+007   -1.75677E+006    7.22337E+005   -1.07609E+004    6.99894E+005
            1749    1.58929E+007    1.38732E+007    1.38732E+007   -1.87057E+006   -2.16471E+006    1.60379E+007   -3.27930E+006    1.58867E+007   -2.12979E+006    1.38351E+007   -1.86742E+006    7.41623E+005   -1.43973E+003    2.41633E+005
            1750    1.21583E+007    1.01620E+007    1.01620E+007   -8.11562E+005   -2.90842E+006    1.30704E+007   -2.14733E+006    1.17412E+007   -2.87840E+006    9.93065E+006   -6.10269E+005    6.13838E+005    3.25571E+004    1.47513E+006
            1751    1.29732E+007    1.09004E+007    1.09004E+007   -1.07654E+006   -2.88030E+006    1.37807E+007   -2.31451E+006    1.26865E+007   -2.83821E+006    1.06472E+007   -8.65479E+005    7.07645E+005   -1.26822E+004    1.59741E+006
            1752    1.38518E+007    1.17274E+007    1.17274E+007   -1.29133E+006   -2.82911E+006    1.45565E+007   -2.53567E+006    1.36578E+007   -2.78614E+006    1.14793E+007   -1.08619E+006    7.48450E+005    8.58431E+003    1.63802E+006
            1753    1.48897E+007    1.26855E+007    1.26855E+007   -1.50366E+006   -2.81763E+006    1.55032E+007   -2.78808E+006    1.47584E+007   -2.76977E+006    1.24712E+007   -1.33719E+006    8.15748E+005    6.97018E+003    1.54939E+006
            1754    1.58255E+007    1.35671E+007    1.35671E+007   -1.67420E+006   -2.78424E+006    1.63513E+007   -3.03621E+006    1.57376E+007   -2.73528E+006    1.34108E+007   -1.56693E+006    8.63477E+005    1.18303E+004    1.29249E+006
            1755    1.65723E+007    1.42748E+007    1.42748E+007   -1.78086E+006   -2.76971E+006    1.70445E+007   -3.24142E+006    1.65057E+007   -2.72034E+006    1.41799E+007   -1.73529E+006    9.05279E+005    1.44844E+004    8.64052E+005
            1756    1.70053E+007    1.46858E+007    1.46858E+007   -1.83438E+006   -2.76621E+006    1.74520E+007   -3.36174E+006    1.69477E+007   -2.71654E+006    1.46309E+007   -1.82914E+006    9.26993E+005   -1.06734E+002    3.02388E+005
            1757    1.26692E+007    1.03858E+007    1.03858E+007   -1.15449E+006   -3.17046E+006    1.35563E+007   -2.02029E+006    1.23005E+007   -3.14653E+006    1.01357E+007   -9.28266E+005    5.20348E+005    1.48540E+005    1.60784E+006
            1758    1.33642E+007    1.10406E+007    1.10406E+007   -1.19430E+006   -3.22127E+006    1.42619E+007   -2.20835E+006    1.30116E+007   -3.19471E+006    1.07670E+007   -9.47274E+005    6.04394E+005    1.04556E+005    1.71948E+006
            1759    1.44463E+007    1.20589E+007    1.20589E+007   -1.36581E+006   -3.22840E+006    1.52873E+007   -2.48822E+006    1.41724E+007   -3.19979E+006    1.17805E+007   -1.11600E+006    6.50682E+005    1.06017E+005    1.81272E+006
            1760    1.55902E+007    1.31674E+007    1.31674E+007   -1.43897E+006   -3.24870E+006    1.64161E+007   -2.82657E+006    1.53512E+007   -3.21771E+006    1.29234E+007   -1.22597E+006    7.04191E+005    1.00792E+005    1.74953E+006
            1761    1.67580E+007    1.43250E+007    1.43250E+007   -1.50316E+006   -3.22921E+006    1.75542E+007   -3.19754E+006    1.65562E+007   -3.19775E+006    1.41463E+007   -1.35593E+006    7.37917E+005    7.91687E+004    1.51808E+006
            1762    1.77048E+007    1.52802E+007    1.52802E+007   -1.52312E+006   -3.20587E+006    1.84861E+007   -3.51708E+006    1.75235E+007   -3.17402E+006    1.51834E+007   -1.45809E+006    7.63454E+005    5.93924E+004    1.04291E+006
            1763    1.82608E+007    1.58421E+007    1.58421E+007   -1.53742E+006   -3.18789E+006    1.90300E+007   -3.70559E+006    1.80918E+007   -3.15650E+006    1.58025E+007   -1.52920E+006    7.72059E+005    1.58275E+004    3.77515E+005
            1764    1.90803E+007    1.68551E+007    1.68551E+007   -8.07249E+005   -3.38168E+006    2.02368E+007   -4.22206E+006    1.86836E+007   -3.36771E+006    1.68289E+007   -7.94999E+005    5.27332E+005    3.53701E+004    4.68149E+005
            1765    1.83636E+007    1.60065E+007    1.60065E+007   -9.70052E+005   -3.48501E+006    1.94915E+007   -3.85047E+006    1.79701E+007   -3.46777E+006    1.58952E+007   -8.75998E+005    5.48089E+005    1.02189E+005    1.26931E+006
            1766    1.71838E+007    1.46610E+007    1.46610E+007   -1.17583E+006   -3.61017E+006    1.82712E+007   -3.29167E+006    1.67893E+007   -3.58805E+006    1.44451E+007   -9.82069E+005    5.79081E+005    1.49593E+005    1.75293E+006
            1767    1.58772E+007    1.32440E+007    1.32440E+007   -1.33814E+006   -3.67019E+006    1.69142E+007   -2.74523E+006    1.54848E+007   -3.64341E+006    1.29516E+007   -1.07255E+006    6.05091E+005    1.77443E+005    1.96211E+006
            1768    1.45748E+007    1.19167E+007    1.19167E+007   -1.38557E+006   -3.66251E+006    1.55792E+007   -2.28955E+006    1.41663E+007   -3.63330E+006    1.15980E+007   -1.09605E+006    6.20027E+005    1.75661E+005    1.94883E+006
            1769    1.34958E+007    1.08769E+007    1.08769E+007   -1.37282E+006   -3.59028E+006    1.44672E+007   -1.97128E+006    1.30765E+007   -3.55967E+006    1.05686E+007   -1.09504E+006    6.21383E+005    1.67091E+005    1.82889E+006
            1770    1.25618E+007    1.00305E+007    1.00305E+007   -1.23296E+006   -3.51639E+006    1.35468E+007   -1.76037E+006    1.20815E+007   -3.48537E+006    9.77791E+006   -1.01143E+006    6.30640E+005    1.24838E+005    1.56373E+006
            1771    1.35377E+007    1.11600E+007    1.11600E+007   -1.45435E+006   -3.14263E+006    1.43026E+007   -2.18768E+006    1.32978E+007   -3.11475E+006    1.09228E+007   -1.24497E+006   -6.14205E+005   -1.12981E+005    1.61228E+006
            1772    1.23062E+007    1.03455E+007    1.03455E+007   -7.62254E+005   -2.88340E+006    1.32289E+007   -2.23329E+006    1.18845E+007   -2.85695E+006    1.00277E+007   -4.70914E+005   -5.83684E+005   -9.18624E+004    1.77303E+006
            1773    1.11455E+007    9.48562E+006    9.48562E+006   -3.49965E+005   -2.62024E+006    1.21059E+007   -2.17180E+006    1.06064E+007   -2.59639E+006    9.26492E+006   -1.53118E+005   -5.26103E+005   -2.50027E+004    1.37965E+006
            1774    1.03579E+007    9.12657E+006    9.12657E+006    1.87138E+005   -2.22430E+006    1.13509E+007   -2.36314E+006    9.69564E+006   -2.20530E+006    9.01121E+006    2.83493E+005   -4.36819E+005    3.37621E+004    9.34698E+005
            1775    1.10142E+007    9.75186E+006    9.75186E+006   -1.75912E+005   -2.09617E+006    1.18480E+007   -2.49326E+006    1.06277E+007   -2.06799E+006    9.63661E+006   -8.88434E+004   -4.52975E+005    1.05437E+005    9.85499E+005
            1776    1.16655E+007    1.03744E+007    1.03744E+007   -5.15882E+005   -1.93619E+006    1.23106E+007   -2.64079E+006    1.14686E+007   -1.89481E+006    1.02702E+007   -4.53006E+005   -4.86200E+005    1.37548E+005    9.64637E+005
            1777    1.22882E+007    1.09525E+007    1.09525E+007   -8.37631E+005   -1.77965E+006    1.27321E+007   -2.77840E+006    1.22066E+007   -1.73011E+006    1.08646E+007   -7.99300E+005   -5.03279E+005    1.28702E+005    8.98347E+005
            1778    1.29431E+007    1.15305E+007    1.15305E+007   -1.15506E+006   -1.65560E+006    1.31861E+007   -2.90660E+006    1.29213E+007   -1.58069E+006    1.14592E+007   -1.15867E+006   -5.24230E+005    1.23265E+005    8.04179E+005
            1779    1.35086E+007    1.20340E+007    1.20340E+007   -1.36425E+006   -1.58231E+006    1.36163E+007   -3.02915E+006    1.35047E+007   -1.44285E+006    1.19847E+007   -1.45441E+006   -5.34838E+005    8.42384E+004    6.18614E+005
            1780    1.39432E+007    1.24028E+007    1.24028E+007   -1.36767E+006   -1.70696E+006    1.41097E+007   -3.10937E+006    1.39339E+007   -1.36224E+006    1.23694E+007   -1.67906E+006   -5.47295E+005    5.65995E+004    4.05925E+005
            1781    1.41588E+007    1.25920E+007    1.25920E+007   -1.32820E+006   -1.79396E+006    1.43859E+007   -3.15660E+006    1.41415E+007   -1.30741E+006    1.25691E+007   -1.79193E+006   -5.48974E+005    1.52877E+004    1.28759E+005
            1782    1.17479E+007    1.01715E+007    1.01715E+007   -4.96212E+005   -2.41918E+006    1.25907E+007   -2.41871E+006    1.13857E+007   -2.39220E+006    9.98709E+006   -3.38743E+005   -5.27484E+005    3.84042E+004    1.30767E+006
            1783    1.22661E+007    1.06703E+007    1.06703E+007   -7.77307E+005   -2.27646E+006    1.29468E+007   -2.53885E+006    1.20574E+007   -2.24511E+006    1.05083E+007   -6.46633E+005   -5.32276E+005    6.50780E+004    1.26178E+006
            1784    1.29669E+007    1.13387E+007    1.13387E+007   -1.04912E+006   -2.13845E+006    1.34772E+007   -2.71705E+006    1.28633E+007   -2.10448E+006    1.11875E+007   -9.31886E+005   -5.50641E+005    5.84664E+004    1.25884E+006
            1785    1.37209E+007    1.20276E+007    1.20276E+007   -1.33805E+006   -2.02277E+006    1.40504E+007   -2.88894E+006    1.36824E+007   -1.97931E+006    1.19086E+007   -1.26247E+006   -5.81956E+005    6.61796E+004    1.12551E+006
            1786    1.43718E+007    1.26166E+007    1.26166E+007   -1.59411E+006   -1.91103E+006    1.45276E+007   -3.03715E+006    1.43639E+007   -1.86331E+006    1.25337E+007   -1.55890E+006   -6.00908E+005    4.40759E+004    9.08499E+005
            1787    1.48586E+007    1.30611E+007    1.30611E+007   -1.73923E+006   -1.85520E+006    1.49163E+007   -3.15555E+006    1.48576E+007   -1.78834E+006    1.30133E+007   -1.75831E+006   -6.19977E+005    3.16416E+004    5.70823E+005
            1788    1.51043E+007    1.32844E+007    1.32844E+007   -1.76302E+006   -1.87602E+006    1.51605E+007   -3.21513E+006    1.51033E+007   -1.73998E+006    1.32556E+007   -1.87021E+006   -6.26352E+005    9.88532E+003    2.04163E+005
            1789    1.24743E+007    1.04861E+007    1.04861E+007   -8.75864E+005   -2.86216E+006    1.33482E+007   -2.24935E+006    1.21108E+007   -2.82823E+006    1.02838E+007   -7.07471E+005   -6.51016E+005   -1.01268E+004    1.38095E+006
            1790    1.28932E+007    1.09110E+007    1.09110E+007   -9.89739E+005   -2.78625E+006    1.36973E+007   -2.37834E+006    1.26070E+007   -2.74112E+006    1.06639E+007   -7.87751E+005   -7.21445E+005    2.41316E+004    1.56490E+006
            1791    1.37960E+007    1.17492E+007    1.17492E+007   -1.29866E+006   -2.68965E+006    1.44388E+007   -2.58696E+006    1.36369E+007   -2.64303E+006    1.15140E+007   -1.11012E+006   -7.53718E+005    1.21482E+004    1.58692E+006
            1792    1.46726E+007    1.25480E+007    1.25480E+007   -1.55650E+006   -2.63344E+006    1.51814E+007   -2.78601E+006    1.45833E+007   -2.58150E+006    1.23517E+007   -1.41215E+006   -8.07557E+005    1.64043E+004    1.46317E+006
            1793    1.54647E+007    1.33083E+007    1.33083E+007   -1.73564E+006   -2.54520E+006    1.58535E+007   -3.00917E+006    1.54169E+007   -2.49367E+006    1.31713E+007   -1.65018E+006   -8.47304E+005    5.63068E+003    1.17059E+006
            1794    1.60466E+007    1.38570E+007    1.38570E+007   -1.86155E+006   -2.49872E+006    1.63557E+007   -3.16557E+006    1.60181E+007   -2.44793E+006    1.37716E+007   -1.82700E+006   -8.82861E+005    1.19889E+003    7.67377E+005
            1795    1.63434E+007    1.41456E+007    1.41456E+007   -1.91954E+006   -2.46256E+006    1.66081E+007   -3.25449E+006    1.63231E+007   -2.41327E+006    1.40927E+007   -1.91593E+006   -8.99704E+005    8.62021E+002    2.54016E+005
            1796    1.26142E+007    1.04180E+007    1.04180E+007   -9.23434E+005   -3.16775E+006    1.35857E+007   -2.10892E+006    1.21528E+007   -3.14538E+006    1.01560E+007   -6.83806E+005   -5.29362E+005   -1.20098E+005    1.63208E+006
            1797    1.36642E+007    1.12772E+007    1.12772E+007   -1.38724E+006   -3.20472E+006    1.44819E+007   -2.22842E+006    1.33882E+007   -3.17830E+006    1.09981E+007   -1.13450E+006   -6.11680E+005   -8.82890E+004    1.76924E+006
            1798    1.45272E+007    1.20913E+007    1.20913E+007   -1.51452E+006   -3.20869E+006    1.53000E+007   -2.45602E+006    1.43024E+007   -3.18005E+006    1.18181E+007   -1.27001E+006   -6.55530E+005   -8.73763E+004    1.80554E+006
            1799    1.56559E+007    1.32353E+007    1.32353E+007   -1.55867E+006   -3.15966E+006    1.63949E+007   -2.83897E+006    1.54702E+007   -3.12828E+006    1.30073E+007   -1.36209E+006   -7.12090E+005   -8.01094E+004    1.69215E+006
            1800    1.66541E+007    1.42377E+007    1.42377E+007   -1.61661E+006   -3.11503E+006    1.73527E+007   -3.16867E+006    1.65014E+007   -3.08211E+006    1.40740E+007   -1.48590E+006   -7.52155E+005   -6.50533E+004    1.43216E+006
            1801    1.74458E+007    1.50405E+007    1.50405E+007   -1.64868E+006   -3.07440E+006    1.81149E+007   -3.43914E+006    1.73140E+007   -3.04025E+006    1.49506E+007   -1.59298E+006   -7.84517E+005   -4.58648E+004    9.61610E+005
            1802    1.78801E+007    1.54698E+007    1.54698E+007   -1.68560E+006   -3.05611E+006    1.85259E+007   -3.57604E+006    1.77614E+007   -3.02144E+006    1.54280E+007   -1.67840E+006   -8.00509E+005   -1.34115E+004    3.51170E+005
            1803    1.89791E+007    1.67419E+007    1.67419E+007   -8.64807E+005   -3.36239E+006    2.01043E+007   -4.17156E+006    1.86040E+007   -3.34633E+006    1.67139E+007   -8.52867E+005   -5.65355E+005   -3.15615E+004    4.60277E+005
            1804    1.82861E+007    1.59342E+007    1.59342E+007   -9.92131E+005   -3.46075E+006    1.93950E+007   -3.82712E+006    1.79054E+007   -3.44203E+006    1.58280E+007   -9.04649E+005   -5.79646E+005   -9.34882E+004    1.22044E+006
            1805    1.71945E+007    1.46973E+007    1.46973E+007   -1.16901E+006   -3.57248E+006    1.82698E+007   -3.31862E+006    1.68104E+007   -3.54987E+006    1.44975E+007   -9.91733E+005   -6.00739E+005   -1.35686E+005    1.67645E+006
            1806    1.58746E+007    1.32339E+007    1.32339E+007   -1.36251E+006   -3.66700E+006    1.69009E+007   -2.73481E+006    1.54916E+007   -3.64020E+006    1.29642E+007   -1.11959E+006   -6.20021E+005   -1.62647E+005    1.87654E+006
            1807    1.46238E+007    1.19032E+007    1.19032E+007   -1.50238E+006   -3.69178E+006    1.55950E+007   -2.23636E+006    1.42480E+007   -3.66263E+006    1.16200E+007   -1.24831E+006   -6.25891E+005   -1.64081E+005    1.83552E+006
            1808    1.34029E+007    1.05793E+007    1.05793E+007   -1.66939E+006   -3.73754E+006    1.43168E+007   -1.72411E+006    1.30367E+007   -3.70756E+006    1.03355E+007   -1.45557E+006   -6.20436E+005   -1.45233E+005    1.60911E+006
            1809    1.32997E+007    1.03694E+007    1.03694E+007   -2.06016E+006   -3.65632E+006    1.40257E+007   -1.55098E+006    1.30816E+007   -3.62628E+006    1.02047E+007   -1.92547E+006   -6.33066E+005   -1.01577E+005    1.28892E+006
            1810    1.82674E+007    1.58476E+007    1.58476E+007   -1.53692E+006   -3.19031E+006    1.90379E+007   -3.70679E+006    1.80979E+007   -3.15904E+006    1.58076E+007   -1.52821E+006    7.70773E+005   -1.63387E+004   -3.88529E+005
            1811    1.70107E+007    1.46907E+007    1.46907E+007   -1.83091E+006   -2.77009E+006    1.74608E+007   -3.36323E+006    1.69522E+007   -2.72052E+006    1.46353E+007   -1.82507E+006    9.26314E+005   -1.09235E+003   -3.17885E+005
            1812    1.58957E+007    1.38742E+007    1.38742E+007   -1.87010E+006   -2.16877E+006    1.60430E+007   -3.27845E+006    1.58894E+007   -2.13366E+006    1.38355E+007   -1.86651E+006    7.42502E+005    1.98379E+003   -2.58870E+005
            1813    1.49547E+007    1.31546E+007    1.31546E+007   -1.74120E+006   -1.85827E+006    1.50129E+007   -3.18504E+006    1.49536E+007   -1.71172E+006    1.31175E+007   -1.85065E+006    7.14606E+005    1.35828E+004   -2.04316E+005
            1814    1.40814E+007    1.25725E+007    1.25725E+007   -1.23192E+006   -1.77046E+006    1.43430E+007   -3.19004E+006    1.40582E+007   -1.21819E+006    1.25565E+007   -1.76815E+006    4.46885E+005    1.53148E+004   -1.49790E+005
            1815    1.36891E+007    1.23002E+007    1.23002E+007   -1.05085E+006   -1.70353E+006    1.40038E+007   -3.18196E+006    1.36540E+007   -1.04476E+006    1.22928E+007   -1.70219E+006    3.01162E+005    1.94458E+004   -9.39115E+004
            1816    1.32735E+007    1.20261E+007    1.20261E+007   -7.95524E+005   -1.65731E+006    1.36834E+007   -3.19108E+006    1.32103E+007   -7.94687E+005    1.20247E+007   -1.65675E+006    1.29977E+005    2.00198E+004   -3.24854E+004
            1817    1.33726E+007    1.20854E+007    1.20854E+007   -8.83891E+005   -1.65709E+006    1.37424E+007   -3.18146E+006    1.33222E+007   -8.83336E+005    1.20843E+007   -1.65657E+006   -1.17264E+005    1.96029E+004    1.61097E+004
            1818    1.35205E+007    1.21942E+007    1.21942E+007   -9.26022E+005   -1.69375E+006    1.38880E+007   -3.19149E+006    1.34713E+007   -9.23356E+005    1.21905E+007   -1.69271E+006   -2.04886E+005    1.89301E+004    8.43447E+004
            1819    1.76976E+007    1.52723E+007    1.52723E+007   -1.51829E+006   -3.21074E+006    1.84830E+007   -3.51443E+006    1.75142E+007   -3.17903E+006    1.51734E+007   -1.45107E+006    7.61427E+005   -6.07706E+004   -1.05994E+006
            1820    1.65658E+007    1.42674E+007    1.42674E+007   -1.77548E+006   -2.77610E+006    1.70435E+007   -3.23859E+006    1.64976E+007   -2.72693E+006    1.41704E+007   -1.72768E+006    9.03156E+005   -1.48568E+004   -8.84266E+005
            1821    1.55045E+007    1.35179E+007    1.35179E+007   -1.77889E+006   -2.18632E+006    1.57042E+007   -3.18423E+006    1.54925E+007   -2.14818E+006    1.34504E+007   -1.74955E+006    7.21867E+005    1.06584E+004   -7.23122E+005
            1822    1.46232E+007    1.28687E+007    1.28687E+007   -1.67831E+006   -1.82957E+006    1.46982E+007   -3.12026E+006    1.46214E+007   -1.73204E+006    1.28141E+007   -1.72131E+006    6.91060E+005    4.81235E+004   -5.66670E+005
            1823    1.37821E+007    1.23184E+007    1.23184E+007   -1.25728E+006   -1.66123E+006    1.39796E+007   -3.13329E+006    1.37688E+007   -1.25612E+006    1.22922E+007   -1.63615E+006    4.33976E+005    5.72846E+004   -4.17284E+005
            1824    1.34105E+007    1.20733E+007    1.20733E+007   -1.07254E+006   -1.58694E+006    1.36603E+007   -3.13795E+006    1.33883E+007   -1.07835E+006    1.20626E+007   -1.57041E+006    2.88060E+005    7.26418E+004   -2.47118E+005
            1825    1.30263E+007    1.18240E+007    1.18240E+007   -8.37944E+005   -1.53846E+006    1.33624E+007   -3.14919E+006    1.29838E+007   -8.45121E+005    1.18222E+007   -1.52947E+006    1.18189E+005    7.47969E+004   -9.78846E+004
            1826    1.31435E+007    1.18984E+007    1.18984E+007   -9.21596E+005   -1.54642E+006    1.34448E+007   -3.14345E+006    1.31100E+007   -9.29671E+005    1.18968E+007   -1.53676E+006   -1.23014E+005    7.47642E+004    7.46558E+004
            1827    1.33025E+007    1.20113E+007    1.20113E+007   -9.76395E+005   -1.58513E+006    1.35964E+007   -3.14992E+006    1.32711E+007   -9.81380E+005    1.20040E+007   -1.57290E+006   -2.16146E+005    6.80586E+004    2.23916E+005
            1828    1.67245E+007    1.42914E+007    1.42914E+007   -1.49812E+006   -3.23269E+006    1.75241E+007   -3.18688E+006    1.65203E+007   -3.20128E+006    1.41106E+007   -1.34864E+006    7.36397E+005   -8.06889E+004   -1.52767E+006
            1829    1.57764E+007    1.35210E+007    1.35210E+007   -1.66640E+006   -2.78489E+006    1.63059E+007   -3.02325E+006    1.56869E+007   -2.73602E+006    1.33615E+007   -1.55574E+006    8.59611E+005   -1.07569E+004   -1.31084E+006
            1830    1.48249E+007    1.29038E+007    1.29038E+007   -1.61564E+006   -2.20867E+006    1.51125E+007   -3.02651E+006    1.47982E+007   -2.17010E+006    1.27922E+007   -1.54260E+006    6.83186E+005    1.70073E+004   -1.08007E+006
            1831    1.40090E+007    1.23405E+007    1.23405E+007   -1.49425E+006   -1.83651E+006    1.41770E+007   -3.00326E+006    1.39996E+007   -1.76655E+006    1.22592E+007   -1.48293E+006    6.47823E+005    7.13465E+004   -8.47297E+005
            1832    1.32449E+007    1.18680E+007    1.18680E+007   -1.26146E+006   -1.48929E+006    1.33573E+007   -3.03909E+006    1.32404E+007   -1.31659E+006    1.18272E+007   -1.39340E+006    4.09528E+005    8.52909E+004   -6.12476E+005
            1833    1.28967E+007    1.16561E+007    1.16561E+007   -1.08726E+006   -1.38862E+006    1.30447E+007   -3.06008E+006    1.28888E+007   -1.13620E+006    1.16406E+007   -1.32418E+006    2.64574E+005    1.08481E+005   -3.63027E+005
            1834    1.25766E+007    1.14585E+007    1.14585E+007   -8.99263E+005   -1.32608E+006    1.27846E+007   -3.07773E+006    1.25603E+007   -9.30223E+005    1.14566E+007   -1.29322E+006    9.88015E+004    1.11050E+005   -1.19632E+005
            1835    1.27001E+007    1.15398E+007    1.15398E+007   -9.70481E+005   -1.34198E+006    1.28818E+007   -3.07577E+006    1.26879E+007   -1.00736E+006    1.15373E+007   -1.30261E+006   -1.30023E+005    1.11613E+005    1.22391E+005
            1836    1.28925E+007    1.16656E+007    1.16656E+007   -1.04466E+006   -1.40157E+006    1.30672E+007   -3.07314E+006    1.28813E+007   -1.07529E+006    1.16507E+007   -1.35604E+006   -2.27085E+005    9.90405E+004    3.77634E+005
            1837    1.55386E+007    1.31174E+007    1.31174E+007   -1.43745E+006   -3.24671E+006    1.63641E+007   -2.81107E+006    1.52990E+007   -3.21572E+006    1.28714E+007   -1.22251E+006    7.02757E+005   -1.01611E+005   -1.75426E+006
            1838    1.48023E+007    1.26086E+007    1.26086E+007   -1.49027E+006   -2.80903E+006    1.54176E+007   -2.76975E+006    1.46693E+007   -2.76138E+006    1.23924E+007   -1.32178E+006    8.09546E+005   -5.15802E+003   -1.55434E+006
            1839    1.39451E+007    1.21082E+007    1.21082E+007   -1.36611E+006   -2.26428E+006    1.43725E+007   -2.82595E+006    1.38798E+007   -2.22543E+006    1.19543E+007   -1.25103E+006    6.39029E+005    3.69861E+004   -1.29619E+006
            1840    1.32404E+007    1.16746E+007    1.16746E+007   -1.20515E+006   -1.89919E+006    1.35738E+007   -2.85675E+006    1.31994E+007   -1.83689E+006    1.15694E+007   -1.16221E+006    5.98279E+005    1.08820E+005   -1.01024E+006
            1841    1.25464E+007    1.12712E+007    1.12712E+007   -1.04246E+006   -1.49560E+006    1.27669E+007   -2.91106E+006    1.25280E+007   -1.42460E+006    1.12171E+007   -1.05936E+006    3.84146E+005    1.31097E+005   -7.27687E+005
            1842    1.22395E+007    1.11118E+007    1.11118E+007   -9.15132E+005   -1.32984E+006    1.24416E+007   -2.95560E+006    1.22237E+007   -1.23762E+006    1.10932E+007   -9.88796E+005    2.38035E+005    1.61432E+005   -4.14257E+005
            1843    1.19785E+007    1.09572E+007    1.09572E+007   -8.44667E+005   -1.19042E+006    1.21476E+007   -2.97404E+006    1.19672E+007   -1.06723E+006    1.09555E+007   -9.66201E+005    7.55549E+004    1.64698E+005   -1.19389E+005
            1844    1.21297E+007    1.10622E+007    1.10622E+007   -8.80584E+005   -1.24603E+006    1.23083E+007   -2.97854E+006    1.21173E+007   -1.13425E+006    1.10577E+007   -9.87841E+005   -1.39787E+005    1.65562E+005    1.89342E+005
            1845    1.23340E+007    1.11827E+007    1.11827E+007   -9.70319E+005   -1.32459E+006    1.25073E+007   -2.96259E+006    1.23225E+007   -1.22591E+006    1.11588E+007   -1.04511E+006   -2.46286E+005    1.46812E+005    4.84848E+005
            1846    1.43846E+007    1.20028E+007    1.20028E+007   -1.36015E+006   -3.22214E+006    1.52249E+007   -2.47351E+006    1.41097E+007   -3.19358E+006    1.17234E+007   -1.10926E+006    6.49132E+005   -1.04850E+005   -1.81222E+006
            1847    1.37512E+007    1.16438E+007    1.16438E+007   -1.27107E+006   -2.81369E+006    1.44575E+007   -2.51967E+006    1.35545E+007   -2.77089E+006    1.13964E+007   -1.06648E+006    7.41358E+005   -4.94888E+003   -1.63058E+006
            1848    1.30305E+007    1.12935E+007    1.12935E+007   -1.08233E+006   -2.30536E+006    1.35989E+007   -2.63526E+006    1.29004E+007   -2.27276E+006    1.11147E+007   -9.36200E+005    5.83650E+005    3.45494E+004   -1.37219E+006
            1849    1.23911E+007    1.09480E+007    1.09480E+007   -8.57819E+005   -1.95545E+006    1.29034E+007   -2.71157E+006    1.22810E+007   -1.90967E+006    1.08287E+007   -7.84346E+005    5.39003E+005    1.12821E+005   -1.06960E+006
            1850    1.17900E+007    1.06330E+007    1.06330E+007   -6.84216E+005   -1.57875E+006    1.22118E+007   -2.79002E+006    1.17133E+007   -1.53693E+006    1.05738E+007   -6.66807E+005    3.52415E+005    1.43705E+005   -7.48384E+005
            1851    1.15100E+007    1.05072E+007    1.05072E+007   -5.61797E+005   -1.39822E+006    1.19054E+007   -2.84906E+006    1.14413E+007   -1.35067E+006    1.04879E+007   -5.90097E+005    2.08489E+005    1.79255E+005   -4.18922E+005
            1852    1.13096E+007    1.04014E+007    1.04014E+007   -5.15636E+005   -1.26366E+006    1.16650E+007   -2.87403E+006    1.12537E+007   -1.21452E+006    1.04004E+007   -5.63824E+005    5.14223E+004    1.84524E+005   -8.97118E+004
            1853    1.14622E+007    1.05011E+007    1.05011E+007   -5.55370E+005   -1.32791E+006    1.18290E+007   -2.87260E+006    1.14035E+007   -1.27753E+006    1.04939E+007   -5.98605E+005   -1.46520E+005    1.84505E+005    2.45406E+005
            1854    1.17161E+007    1.06467E+007    1.06467E+007   -6.64847E+005   -1.43602E+006    1.20827E+007   -2.84860E+006    1.16588E+007   -1.39056E+006    1.06121E+007   -6.75702E+005   -2.61604E+005    1.58233E+005    5.75579E+005
            1855    1.33113E+007    1.09955E+007    1.09955E+007   -1.18441E+006   -3.21395E+006    1.42095E+007   -2.19906E+006    1.29563E+007   -3.18741E+006    1.07226E+007   -9.38056E+005    6.03723E+005   -1.02615E+005   -1.71313E+006
            1856    1.28928E+007    1.08398E+007    1.08398E+007   -1.05177E+006   -2.86270E+006    1.37025E+007   -2.30846E+006    1.26019E+007   -2.82077E+006    1.05899E+007   -8.43750E+005    7.02362E+005    1.56000E+004   -1.58141E+006
            1857    1.21652E+007    1.05032E+007    1.05032E+007   -7.74774E+005   -2.38816E+006    1.28914E+007   -2.44676E+006    1.19209E+007   -2.35650E+006    1.03145E+007   -6.17699E+005    5.52312E+005    5.24269E+004   -1.35686E+006
            1858    1.16217E+007    1.02662E+007    1.02662E+007   -5.13152E+005   -2.04581E+006    1.23120E+007   -2.56907E+006    1.13910E+007   -2.00725E+006    1.01475E+007   -4.33039E+005    4.93987E+005    1.26327E+005   -1.03310E+006
            1859    1.10871E+007    1.00096E+007    1.00096E+007   -3.11736E+005   -1.71052E+006    1.17201E+007   -2.66245E+006    1.08859E+007   -1.67590E+006    9.94931E+006   -2.86063E+005    3.33256E+005    1.65204E+005   -7.27706E+005
            1860    1.08061E+007    9.90139E+006    9.90139E+006   -1.63074E+005   -1.51846E+006    1.14199E+007   -2.73995E+006    1.06123E+007   -1.48321E+006    9.88365E+006   -1.80595E+005    1.86443E+005    2.00205E+005   -3.87927E+005
            1861    1.06586E+007    9.82664E+006    9.82664E+006   -1.28958E+005   -1.41771E+006    1.12444E+007   -2.75999E+006    1.04811E+007   -1.38320E+006    9.82626E+006   -1.63089E+005    3.05133E+004    2.07673E+005   -5.53798E+004
            1862    1.07924E+007    9.91734E+006    9.91734E+006   -1.56634E+005   -1.47274E+006    1.13901E+007   -2.76265E+006    1.06096E+007   -1.43682E+006    9.90743E+006   -1.82647E+005   -1.52583E+005    2.04651E+005    2.84359E+005
            1863    1.10684E+007    1.00454E+007    1.00454E+007   -3.11233E+005   -1.61864E+006    1.16641E+007   -2.70519E+006    1.08927E+007   -1.58382E+006    1.00003E+007   -3.00872E+005   -2.80755E+005    1.74345E+005    6.34496E+005
            1864    1.26350E+007    1.03594E+007    1.03594E+007   -1.14070E+006   -3.16593E+006    1.35253E+007   -2.01759E+006    1.22619E+007   -3.14208E+006    1.01100E+007   -9.15117E+005    5.19908E+005   -1.47479E+005   -1.60247E+006
            1865    1.21087E+007    1.01259E+007    1.01259E+007   -7.93741E+005   -2.89652E+006    1.30224E+007   -2.14521E+006    1.16873E+007   -2.86666E+006    9.89813E+006   -5.95848E+005    6.10646E+005   -3.03756E+004   -1.45948E+006
            1866    1.15501E+007    9.92660E+006    9.92660E+006   -4.96041E+005   -2.49111E+006    1.24177E+007   -2.31315E+006    1.11526E+007   -2.46443E+006    9.75577E+006   -3.51886E+005    5.29379E+005    3.39815E+004   -1.23571E+006
            1867    1.09601E+007    9.68014E+006    9.68014E+006   -1.56500E+005   -2.13406E+006    1.18142E+007   -2.46319E+006    1.05474E+007   -2.10751E+006    9.56352E+006   -6.64428E+004    4.52249E+005    9.60174E+004   -9.87256E+005
            1868    1.04367E+007    9.44157E+006    9.44157E+006    1.07361E+005   -1.82695E+006    1.12685E+007   -2.57399E+006    1.00214E+007   -1.80490E+006    9.38845E+006    1.38430E+005    3.15813E+005    1.41096E+005   -6.45504E+005
            1869    1.01801E+007    9.36271E+006    9.36271E+006    2.48201E+005   -1.62334E+006    1.09861E+007   -2.66252E+006    9.78179E+006   -1.60314E+006    9.34868E+006    2.42030E+005    1.69941E+005    1.75558E+005   -3.25153E+005
            1870    1.00714E+007    9.32516E+006    9.32516E+006    3.02124E+005   -1.54024E+006    1.08654E+007   -2.69568E+006    9.68133E+006   -1.52158E+006    9.32512E+006    2.83498E+005    1.13003E+004    1.84425E+005   -1.60772E+004
            1871    1.01824E+007    9.37618E+006    9.37618E+006    2.46178E+005   -1.60471E+006    1.09809E+007   -2.67255E+006    9.79314E+006   -1.58419E+006    9.36514E+006    2.36699E+005   -1.55807E+005    1.79155E+005    2.86493E+005
            1872    1.04366E+007    9.47794E+006    9.47794E+006    1.24807E+005   -1.77974E+006    1.12577E+007   -2.60767E+006    1.00344E+007   -1.75746E+006    9.42950E+006    1.50970E+005   -2.96264E+005    1.49173E+005    6.19481E+005
            1873    9.91248E+006    8.98225E+006    8.98225E+006    4.58074E+005   -1.89505E+006    1.08773E+007   -2.51509E+006    9.25222E+006   -1.88202E+006    8.94081E+006    4.86478E+005   -3.13684E+005    8.12094E+004    5.26794E+005
            1874    9.69859E+006    8.95933E+006    8.95933E+006    5.89246E+005   -1.66923E+006    1.06286E+007   -2.62645E+006    9.07821E+006   -1.66100E+006    8.95109E+006    5.89260E+005   -1.62528E+005    1.10302E+005    2.21018E+005
            1875    9.66286E+006    8.96639E+006    8.96639E+006    5.82462E+005   -1.60155E+006    1.05679E+007   -2.64910E+006    9.08228E+006   -1.59508E+006    8.96639E+006    5.75999E+005    3.83741E+002    1.18645E+005   -3.85821E+003
            1876    9.70417E+006    8.95987E+006    8.95987E+006    5.80540E+005   -1.67270E+006    1.06326E+007   -2.62257E+006    9.08721E+006   -1.66443E+006    8.95166E+006    5.80485E+005    1.64954E+005    1.09929E+005   -2.19414E+005
            1877    9.91995E+006    8.98296E+006    8.98296E+006    4.45708E+005   -1.89943E+006    1.08824E+007   -2.50975E+006    9.26495E+006   -1.88645E+006    8.94080E+006    4.74896E+005    3.14365E+005    7.97573E+004   -5.32741E+005
            1878    1.03523E+007    9.10267E+006    9.10267E+006    1.37157E+005   -2.22729E+006    1.13300E+007   -2.33751E+006    9.71648E+006   -2.20861E+006    8.99650E+006    2.24644E+005    4.32549E+005    3.48330E+004   -8.93370E+005
            1879    1.11013E+007    9.46976E+006    9.46976E+006   -3.26868E+005   -2.58812E+006    1.20579E+007   -2.18493E+006    1.05644E+007   -2.56488E+006    9.27535E+006   -1.55700E+005    5.19625E+005   -2.31666E+004   -1.28558E+006
            1880    1.19556E+007    9.90618E+006    9.90618E+006   -9.00899E+005   -2.93649E+006    1.28427E+007   -2.02293E+006    1.15560E+007   -2.91110E+006    9.69525E+006   -7.15356E+005    5.66009E+005   -6.98532E+004   -1.40220E+006
            1881    1.21511E+007    9.73973E+006    9.73973E+006   -1.22110E+006   -3.32651E+006    1.30662E+007   -1.73071E+006    1.17302E+007   -3.29815E+006    9.55126E+006   -1.06098E+006    5.99732E+005   -9.11551E+004   -1.31398E+006
            1882    1.90896E+007    1.68661E+007    1.68661E+007   -8.06868E+005   -3.37922E+006    2.02454E+007   -4.22668E+006    1.86937E+007   -3.36525E+006    1.68398E+007   -7.94505E+005    5.27624E+005   -3.52891E+004   -4.70375E+005
            1883    1.83612E+007    1.60052E+007    1.60052E+007   -9.66619E+005   -3.48525E+006    1.94905E+007   -3.85111E+006    1.79664E+007   -3.46803E+006    1.58930E+007   -8.71645E+005    5.47404E+005   -1.02578E+005   -1.27525E+006
            1884    1.71668E+007    1.46464E+007    1.46464E+007   -1.16966E+006   -3.61006E+006    1.82564E+007   -3.28889E+006    1.67699E+007   -3.58797E+006    1.44287E+007   -9.74087E+005    5.78136E+005   -1.50106E+005   -1.75976E+006
            1885    1.58401E+007    1.32099E+007    1.32099E+007   -1.33211E+006   -3.66877E+006    1.68787E+007   -2.73634E+006    1.54452E+007   -3.64188E+006    1.29158E+007   -1.06491E+006    6.05346E+005   -1.78376E+005   -1.96517E+006
            1886    1.45241E+007    1.18662E+007    1.18662E+007   -1.38612E+006   -3.66129E+006    1.55275E+007   -2.27292E+006    1.41149E+007   -3.63211E+006    1.15464E+007   -1.09556E+006    6.19844E+005   -1.74643E+005   -1.94815E+006
            1887    1.34442E+007    1.08234E+007    1.08234E+007   -1.37476E+006   -3.59127E+006    1.44147E+007   -1.95247E+006    1.30236E+007   -3.56057E+006    1.05173E+007   -1.09936E+006    6.21978E+005   -1.66270E+005   -1.81721E+006
            1888    1.25482E+007    1.00156E+007    1.00156E+007   -1.23385E+006   -3.51765E+006    1.35332E+007   -1.75469E+006    1.20672E+007   -3.48659E+006    9.76396E+006   -1.01330E+006    6.32159E+005   -1.21847E+005   -1.55902E+006
            1889    1.77974E+007    1.54413E+007    1.54413E+007   -1.69674E+006   -2.94925E+006    1.83906E+007   -3.59845E+006    1.76978E+007   -2.93470E+006    1.54194E+007   -1.68937E+006   -5.17014E+005    1.05804E+004   -3.55073E+005
            1890    1.64770E+007    1.42953E+007    1.42953E+007   -1.88909E+006   -2.45951E+006    1.67548E+007   -3.31556E+006    1.64548E+007   -2.44668E+006    1.42783E+007   -1.88497E+006   -4.62161E+005    9.93901E+002   -2.60273E+005
            1891    1.52088E+007    1.32875E+007    1.32875E+007   -1.88970E+006   -1.95265E+006    1.52402E+007   -3.14840E+006    1.52085E+007   -1.93310E+006    1.32691E+007   -1.89085E+006   -4.85713E+005   -8.73258E+003   -2.10240E+005
            1892    1.42470E+007    1.26259E+007    1.26259E+007   -1.44899E+006   -1.78733E+006    1.44132E+007   -3.12985E+006    1.42380E+007   -1.44548E+006    1.26203E+007   -1.78527E+006   -2.47566E+005   -1.46490E+004   -1.32331E+005
            1893    1.73585E+007    1.50035E+007    1.50035E+007   -1.66250E+006   -2.97331E+006    1.79768E+007   -3.45589E+006    1.72467E+007   -2.95884E+006    1.49305E+007   -1.60398E+006   -5.08910E+005    2.49973E+004   -9.85582E+005
            1894    1.61726E+007    1.39991E+007    1.39991E+007   -1.83808E+006   -2.48924E+006    1.64883E+007   -3.22393E+006    1.61431E+007   -2.47643E+006    1.39485E+007   -1.80025E+006   -4.50261E+005    3.65364E+003   -7.78161E+005
            1895    1.49581E+007    1.30653E+007    1.30653E+007   -1.79224E+006   -1.99155E+006    1.50568E+007   -3.09382E+006    1.49552E+007   -1.96963E+006    1.30271E+007   -1.77605E+006   -4.77623E+005   -1.74529E+004   -5.83969E+005
            1896    1.40151E+007    1.24244E+007    1.24244E+007   -1.49115E+006   -1.68815E+006    1.41126E+007   -3.08171E+006    1.40120E+007   -1.49308E+006    1.24079E+007   -1.66970E+006   -2.47503E+005   -2.74076E+004   -4.13858E+005
            1897    1.65638E+007    1.41886E+007    1.41886E+007   -1.63486E+006   -3.02772E+006    1.72163E+007   -3.17533E+006    1.64313E+007   -3.01339E+006    1.40365E+007   -1.49711E+006   -4.94249E+005    3.81524E+004   -1.46951E+006
            1898    1.55894E+007    1.34479E+007    1.34479E+007   -1.70835E+006   -2.54124E+006    1.59892E+007   -3.06612E+006    1.55392E+007   -2.52852E+006    1.33423E+007   -1.61541E+006   -4.31738E+005    3.62574E+003   -1.18978E+006
            1899    1.44697E+007    1.26192E+007    1.26192E+007   -1.61761E+006   -2.07273E+006    1.46919E+007   -2.97627E+006    1.44536E+007   -2.04806E+006    1.25441E+007   -1.56724E+006   -4.64267E+005   -3.71528E+004   -9.26400E+005
            1900    1.35737E+007    1.20471E+007    1.20471E+007   -1.43591E+006   -1.61555E+006    1.36626E+007   -2.99854E+006    1.35710E+007   -1.58269E+006    1.20132E+007   -1.43487E+006   -2.48908E+005   -5.39970E+004   -6.30026E+005
            1901    1.55813E+007    1.31944E+007    1.31944E+007   -1.58855E+006   -3.07825E+006    1.62727E+007   -2.84254E+006    1.54199E+007   -3.06434E+006    1.29722E+007   -1.38025E+006   -4.71346E+005    4.11558E+004   -1.74220E+006
            1902    1.47450E+007    1.26436E+007    1.26436E+007   -1.53528E+006   -2.60878E+006    1.52524E+007   -2.83318E+006    1.46567E+007   -2.59743E+006    1.24742E+007   -1.37720E+006   -3.99495E+005    1.07950E+004   -1.49258E+006
            1903    1.37983E+007    1.20296E+007    1.20296E+007   -1.34847E+006   -2.15352E+006    1.41832E+007   -2.84255E+006    1.37453E+007   -2.13251E+006    1.19176E+007   -1.25744E+006   -4.41630E+005   -3.98413E+004   -1.14390E+006
            1904    1.29933E+007    1.15386E+007    1.15386E+007   -1.17650E+006   -1.71596E+006    1.32546E+007   -2.88205E+006    1.29680E+007   -1.70157E+006    1.14811E+007   -1.13341E+006   -2.44183E+005   -5.72763E+004   -8.20417E+005
            1905    1.44427E+007    1.20314E+007    1.20314E+007   -1.53588E+006   -3.15091E+006    1.51823E+007   -2.44822E+006    1.42374E+007   -3.13668E+006    1.17579E+007   -1.27660E+006   -4.56389E+005    3.63823E+004   -1.85821E+006
            1906    1.38473E+007    1.18247E+007    1.18247E+007   -1.27083E+006   -2.66831E+006    1.44930E+007   -2.62853E+006    1.36873E+007   -2.65769E+006    1.16147E+007   -1.07143E+006   -3.72623E+005    6.26293E+003   -1.60759E+006
            1907    1.30340E+007    1.13348E+007    1.13348E+007   -1.04715E+006   -2.26568E+006    1.36004E+007   -2.67398E+006    1.29049E+007   -2.24510E+006    1.11897E+007   -9.22701E+005   -4.22120E+005   -5.47323E+004   -1.27323E+006
            1908    1.23296E+007    1.09486E+007    1.09486E+007   -8.45525E+005   -1.85443E+006    1.28031E+007   -2.74956E+006    1.22362E+007   -1.84129E+006    1.08723E+007   -7.82318E+005   -2.45244E+005   -7.43132E+004   -9.18189E+005
            1909    1.36090E+007    1.12402E+007    1.12402E+007   -1.41753E+006   -3.15360E+006    1.43938E+007   -2.22301E+006    1.33565E+007   -3.13967E+006    1.09550E+007   -1.14624E+006   -4.37726E+005    3.20062E+004   -1.83418E+006
            1910    1.29016E+007    1.09691E+007    1.09691E+007   -9.52500E+005   -2.72858E+006    1.36976E+007   -2.42932E+006    1.26222E+007   -2.72047E+006    1.07447E+007   -7.36219E+005   -3.28907E+005    2.62696E+004   -1.59126E+006
            1911    1.23523E+007    1.07101E+007    1.07101E+007   -7.53195E+005   -2.37167E+006    1.30818E+007   -2.52841E+006    1.21103E+007   -2.35549E+006    1.05576E+007   -6.16877E+005   -3.93934E+005   -4.40824E+004   -1.26340E+006
            1912    1.16871E+007    1.03741E+007    1.03741E+007   -4.93999E+005   -1.98826E+006    1.23623E+007   -2.63060E+006    1.14692E+007   -1.97861E+006    1.02810E+007   -4.10606E+005   -2.42667E+005   -6.59453E+004   -9.76978E+005
            1913    1.25864E+007    1.03893E+007    1.03893E+007   -9.57834E+005   -3.14867E+006    1.35379E+007   -2.09426E+006    1.21462E+007   -3.13191E+006    1.01234E+007   -7.08738E+005   -4.61981E+005    1.89531E+004   -1.66528E+006
            1914    1.25030E+007    1.05527E+007    1.05527E+007   -9.03220E+005   -2.78426E+006    1.33369E+007   -2.28840E+006    1.21785E+007   -2.77596E+006    1.03623E+007   -7.21183E+005   -3.30130E+005    3.09000E+004   -1.43230E+006
            1915    1.18213E+007    1.02169E+007    1.02169E+007   -5.11934E+005   -2.45585E+006    1.26727E+007   -2.41637E+006    1.14534E+007   -2.44403E+006    1.00382E+007   -3.45033E+005   -3.57385E+005   -1.77867E+004   -1.33505E+006
            1916    1.10558E+007    9.76462E+006    9.76462E+006   -1.93371E+005   -2.13246E+006    1.18971E+007   -2.47960E+006    1.06631E+007   -2.12429E+006    9.65631E+006   -9.32236E+004   -2.54278E+005   -5.05795E+004   -1.00809E+006
            1917    1.04198E+007    9.17421E+006    9.17421E+006    2.10944E+005   -2.25849E+006    1.14327E+007   -2.37555E+006    9.72820E+006   -2.25102E+006    9.06780E+006    3.09882E+005   -2.69521E+005   -2.89539E+004   -9.42438E+005
            1918    1.11848E+007    9.53523E+006    9.53523E+006   -3.26410E+005   -2.61782E+006    1.21530E+007   -2.19700E+006    1.06373E+007   -2.60882E+006    9.32613E+006   -1.26318E+005   -3.19675E+005    4.91018E+003   -1.39232E+006
            1919    1.22974E+007    1.03697E+007    1.03697E+007   -7.30461E+005   -2.84941E+006    1.32191E+007   -2.26328E+006    1.18762E+007   -2.83973E+006    1.00596E+007   -4.30031E+005   -3.52085E+005    3.57548E+004   -1.80121E+006
            1920    1.36255E+007    1.13127E+007    1.13127E+007   -1.40253E+006   -3.06972E+006    1.43824E+007   -2.28014E+006    1.33932E+007   -3.06017E+006    1.10905E+007   -1.18996E+006   -3.66172E+005    5.41597E+004   -1.62973E+006
            1921    1.89369E+007    1.69262E+007    1.69262E+007   -8.07535E+005   -3.01958E+006    1.99458E+007   -4.36637E+006    1.86429E+007   -3.01496E+006    1.69105E+007   -7.96424E+005   -3.01161E+005    1.92093E+004   -4.44922E+005
            1922    1.82470E+007    1.61067E+007    1.61067E+007   -9.41440E+005   -3.13999E+006    1.92467E+007   -4.00841E+006    1.79454E+007   -3.13452E+006    1.60124E+007   -8.52632E+005   -3.10093E+005    5.13913E+004   -1.22966E+006
            1923    1.71661E+007    1.48594E+007    1.48594E+007   -1.11425E+006   -3.29141E+006    1.81508E+007   -3.48456E+006    1.68512E+007   -3.28436E+006    1.46709E+007   -9.32807E+005   -3.24375E+005    8.19326E+004   -1.69712E+006
            1924    1.58654E+007    1.33834E+007    1.33834E+007   -1.31511E+006   -3.43568E+006    1.68190E+007   -2.87752E+006    1.55418E+007   -3.42713E+006    1.31290E+007   -1.06926E+006   -3.37973E+005    9.80637E+004   -1.88966E+006
            1925    1.46378E+007    1.20376E+007    1.20376E+007   -1.46889E+006   -3.51588E+006    1.55535E+007   -2.35096E+006    1.43104E+007   -3.50615E+006    1.17722E+007   -1.21314E+006   -3.45164E+005    1.04997E+005   -1.84589E+006
            1926    1.34555E+007    1.07313E+007    1.07313E+007   -1.62980E+006   -3.60096E+006    1.43323E+007   -1.83353E+006    1.31247E+007   -3.59093E+006    1.05155E+007   -1.42400E+006   -3.35327E+005    1.02019E+005   -1.58756E+006
            1927    1.34268E+007    1.05885E+007    1.05885E+007   -2.00955E+006   -3.53661E+006    1.41251E+007   -1.68077E+006    1.32294E+007   -3.52641E+006    1.04495E+007   -1.88077E+006   -3.28705E+005    9.17768E+004   -1.27752E+006
            1928    9.99701E+006    9.03662E+006    9.03662E+006    4.76679E+005   -1.95049E+006    1.09871E+007   -2.52093E+006    9.29876E+006   -1.94541E+006    8.99969E+006    5.08523E+005   -1.94604E+005   -5.33718E+004   -5.35271E+005
            1929    9.79167E+006    9.01622E+006    9.01622E+006    6.14601E+005   -1.73718E+006    1.07534E+007   -2.63121E+006    9.12318E+006   -1.73400E+006    9.00912E+006    6.18518E+005   -1.03982E+005   -6.92934E+004   -2.26842E+005
            1930    9.75515E+006    9.02295E+006    9.02295E+006    6.02435E+005   -1.66681E+006    1.06898E+007   -2.65286E+006    9.13254E+006   -1.66437E+006    9.02295E+006    5.99990E+005   -1.60921E+003   -7.44499E+004   -1.62428E+002
            1931    9.78894E+006    9.01108E+006    9.01108E+006    6.05381E+005   -1.73635E+006    1.07474E+007   -2.62670E+006    9.12626E+006   -1.73324E+006    9.00448E+006    6.08878E+005    1.00787E+005   -6.90140E+004    2.18624E+005
            1932    9.99570E+006    9.03599E+006    9.03599E+006    4.72615E+005   -1.94760E+006    1.09836E+007   -2.52033E+006    9.30157E+006   -1.94255E+006    8.99852E+006    5.05034E+005    1.93623E+005   -5.31756E+004    5.39903E+005
            1933    1.04323E+007    9.16504E+006    9.16504E+006    1.59117E+005   -2.26630E+006    1.14313E+007   -2.35262E+006    9.76723E+006   -2.25899E+006    9.06473E+006    2.52120E+005    2.67801E+005   -2.72924E+004    9.16126E+005
            1934    1.11834E+007    9.55017E+006    9.55017E+006   -3.16650E+005   -2.59795E+006    1.21481E+007   -2.21186E+006    1.06408E+007   -2.58900E+006    9.36048E+006   -1.35903E+005    3.18096E+005    1.79326E+003    1.32533E+006
            1935    1.20365E+007    9.99922E+006    9.99922E+006   -8.88294E+005   -2.92614E+006    1.29254E+007   -2.06160E+006    1.16389E+007   -2.91670E+006    9.79741E+006   -6.95910E+005    3.45665E+005    2.98145E+004    1.43429E+006
            1936    1.21996E+007    9.88350E+006    9.88350E+006   -1.13228E+006   -3.22835E+006    1.31119E+007   -1.84096E+006    1.17842E+007   -3.21920E+006    9.72092E+006   -9.78852E+005    3.22976E+005    8.04998E+004    1.29394E+006
            1937    1.05319E+007    9.51704E+006    9.51704E+006    1.15214E+005   -1.86409E+006    1.13811E+007   -2.58939E+006    1.01007E+007   -1.85617E+006    9.47121E+006    1.53131E+005   -1.98109E+005   -8.29311E+004   -6.31398E+005
            1938    1.11789E+007    1.00846E+007    1.00846E+007   -2.93742E+005   -1.75178E+006    1.18363E+007   -2.67968E+006    1.09619E+007   -1.73926E+006    1.00420E+007   -2.63709E+005   -2.09390E+005   -1.01888E+005   -6.35860E+005
            1939    1.18409E+007    1.06682E+007    1.06682E+007   -6.79094E+005   -1.61126E+006    1.22795E+007   -2.79262E+006    1.17580E+007   -1.59199E+006    1.06347E+007   -6.64830E+005   -2.19814E+005   -1.08217E+005   -5.80990E+005
            1940    1.24634E+007    1.12067E+007    1.12067E+007   -1.03012E+006   -1.47155E+006    1.26782E+007   -2.90167E+006    1.24458E+007   -1.44696E+006    1.11836E+007   -1.03167E+006   -2.21988E+005   -8.48532E+004   -4.85418E+005
            1941    1.30302E+007    1.16788E+007    1.16788E+007   -1.26825E+006   -1.43298E+006    1.31118E+007   -2.99254E+006    1.30279E+007   -1.32743E+006    1.16642E+007   -1.35919E+006   -2.26319E+005   -7.36145E+004   -3.74140E+005
            1942    1.34471E+007    1.20282E+007    1.20282E+007   -1.23434E+006   -1.59616E+006    1.36244E+007   -3.06591E+006    1.34362E+007   -1.23513E+006    1.20207E+007   -1.58781E+006   -2.27474E+005   -3.71176E+004   -2.23638E+005
            1943    1.36747E+007    1.22124E+007    1.22124E+007   -1.19459E+006   -1.71530E+006    1.39277E+007   -3.10082E+006    1.36524E+007   -1.19140E+006    1.22079E+007   -1.71404E+006   -2.28983E+005   -1.79074E+004   -8.70108E+004
            1944    1.02462E+007    9.38170E+006    9.38170E+006    2.33570E+005   -1.68992E+006    1.10716E+007   -2.64178E+006    9.82759E+006   -1.68385E+006    9.37173E+006    2.37463E+005   -8.86903E+004   -9.91086E+004   -2.91681E+005
            1945    1.08225E+007    9.89538E+006    9.89538E+006   -1.42209E+005   -1.57018E+006    1.14656E+007   -2.72766E+006    1.06074E+007   -1.56064E+006    9.88683E+006   -1.43198E+005   -7.17926E+004   -1.11817E+005   -2.85860E+005
            1946    1.14815E+007    1.04531E+007    1.04531E+007   -5.75574E+005   -1.43302E+006    1.18861E+007   -2.81484E+006    1.14091E+007   -1.41667E+006    1.04476E+007   -5.86368E+005   -5.69808E+004   -1.15175E+005   -2.42080E+005
            1947    1.21301E+007    1.10065E+007    1.10065E+007   -9.49651E+005   -1.29048E+006    1.22970E+007   -2.92212E+006    1.21194E+007   -1.26480E+006    1.10037E+007   -9.72507E+005   -3.95780E+004   -8.91842E+004   -1.80007E+005
            1948    1.26955E+007    1.14725E+007    1.14725E+007   -1.11020E+006   -1.33305E+006    1.28055E+007   -3.00973E+006    1.26911E+007   -1.14139E+006    1.14714E+007   -1.30079E+006   -2.56064E+004   -7.71423E+004   -1.14395E+005
            1949    1.31299E+007    1.18274E+007    1.18274E+007   -1.04355E+006   -1.54686E+006    1.33743E+007   -3.07900E+006    1.31081E+007   -1.04655E+006    1.18270E+007   -1.54346E+006   -1.47466E+004   -3.87347E+004   -7.17950E+004
            1950    1.33551E+007    1.20103E+007    1.20103E+007   -9.99033E+005   -1.66569E+006    1.36760E+007   -3.11518E+006    1.33176E+007   -9.99632E+005    1.20103E+007   -1.66507E+006   -8.38965E+003   -2.00672E+004   -1.61671E+004
            1951    1.01627E+007    9.35639E+006    9.35639E+006    2.98159E+005   -1.63352E+006    1.09899E+007   -2.67368E+006    9.73673E+006   -1.62760E+006    9.35636E+006    2.92278E+005    2.45598E+003   -1.06696E+005    1.68219E+004
            1952    1.07584E+007    9.85718E+006    9.85718E+006   -1.10561E+005   -1.54745E+006    1.14046E+007   -2.73306E+006    1.05393E+007   -1.53718E+006    9.85683E+006   -1.20483E+005    9.26257E+003   -1.20919E+005    5.78672E+004
            1953    1.14446E+007    1.04334E+007    1.04334E+007   -5.37989E+005   -1.43189E+006    1.18653E+007   -2.82118E+006    1.13656E+007   -1.41434E+006    1.04325E+007   -5.54589E+005    1.95228E+004   -1.23737E+005    1.00523E+005
            1954    1.21312E+007    1.10028E+007    1.10028E+007   -9.31941E+005   -1.31576E+006    1.23186E+007   -2.91837E+006    1.21175E+007   -1.28985E+006    1.10014E+007   -9.56406E+005    3.11302E+004   -9.58522E+004    1.28317E+005
            1955    1.27543E+007    1.15080E+007    1.15080E+007   -1.14584E+006   -1.34456E+006    1.28525E+007   -3.00585E+006    1.27508E+007   -1.18798E+006    1.15066E+007   -1.30108E+006    4.15800E+004   -8.09248E+004    1.24447E+005
            1956    1.32108E+007    1.18777E+007    1.18777E+007   -1.10619E+006   -1.54882E+006    1.34266E+007   -3.07424E+006    1.31941E+007   -1.10982E+006    1.18769E+007   -1.54433E+006    4.90972E+004   -4.05876E+004    9.49387E+004
            1957    1.34612E+007    1.20770E+007    1.20770E+007   -1.07315E+006   -1.67506E+006    1.37520E+007   -3.10959E+006    1.34308E+007   -1.07361E+006    1.20767E+007   -1.67433E+006    5.34937E+004   -2.00583E+004    2.78303E+004
            1958    1.02482E+007    9.37263E+006    9.37263E+006    2.35447E+005   -1.70828E+006    1.10809E+007   -2.63327E+006    9.82060E+006   -1.70211E+006    9.35956E+006    2.42350E+005    1.05450E+005   -9.69463E+004    3.32864E+005
            1959    1.08548E+007    9.89192E+006    9.89192E+006   -1.57549E+005   -1.61996E+006    1.15119E+007   -2.70480E+006    1.06298E+007   -1.61018E+006    9.87464E+006   -1.50041E+005    1.17792E+005   -1.07549E+005    4.02859E+005
            1960    1.15667E+007    1.04857E+007    1.04857E+007   -5.96856E+005   -1.51084E+006    1.19966E+007   -2.79267E+006    1.14850E+007   -1.49479E+006    1.04665E+007   -5.93666E+005    1.35365E+005   -1.09339E+005    4.44186E+005
            1961    1.22849E+007    1.10892E+007    1.10892E+007   -9.87948E+005   -1.39354E+006    1.24827E+007   -2.90256E+006    1.22698E+007   -1.37187E+006    1.10715E+007   -9.91984E+005    1.51433E+005   -8.21944E+004    4.37830E+005
            1962    1.29312E+007    1.16190E+007    1.16190E+007   -1.22727E+006   -1.39546E+006    1.30144E+007   -2.99875E+006    1.29287E+007   -1.27233E+006    1.16059E+007   -1.33730E+006    1.67547E+005   -7.07256E+004    3.77094E+005
            1963    1.34163E+007    1.20196E+007    1.20196E+007   -1.19071E+006   -1.59367E+006    1.36133E+007   -3.07840E+006    1.34027E+007   -1.19190E+006    1.20126E+007   -1.58554E+006    1.77302E+005   -3.44062E+004    2.49640E+005
            1964    1.36740E+007    1.22297E+007    1.22297E+007   -1.15702E+006   -1.71457E+006    1.39443E+007   -3.11937E+006    1.36484E+007   -1.15514E+006    1.22266E+007   -1.71335E+006    1.83987E+005   -1.77594E+004    8.94208E+004
            1965    1.05387E+007    9.48881E+006    9.48881E+006    8.98605E+004   -1.90464E+006    1.13934E+007   -2.55801E+006    1.01009E+007   -1.89688E+006    9.43768E+006    1.33226E+005    2.01712E+005   -7.94460E+004    6.68389E+005
            1966    1.12319E+007    1.00831E+007    1.00831E+007   -3.06370E+005   -1.83470E+006    1.19178E+007   -2.64734E+006    1.09943E+007   -1.82299E+006    1.00251E+007   -2.60118E+005    2.22039E+005   -9.34594E+004    7.47876E+005
            1967    1.19950E+007    1.07247E+007    1.07247E+007   -7.19075E+005   -1.75444E+006    1.24791E+007   -2.75040E+006    1.18939E+007   -1.73617E+006    1.06670E+007   -6.79611E+005    2.51984E+005   -1.00432E+005    7.76774E+005
            1968    1.27788E+007    1.13862E+007    1.13862E+007   -1.10091E+006   -1.66565E+006    1.30518E+007   -2.87320E+006    1.27507E+007   -1.64454E+006    1.13362E+007   -1.07207E+006    2.77910E+005   -7.55706E+004    7.42176E+005
            1969    1.34918E+007    1.19807E+007    1.19807E+007   -1.40413E+006   -1.61560E+006    1.35963E+007   -2.98699E+006    1.34881E+007   -1.57192E+006    1.19458E+007   -1.41294E+006    3.06160E+005   -6.63515E+004    6.13424E+005
            1970    1.40148E+007    1.24196E+007    1.24196E+007   -1.50903E+006   -1.67980E+006    1.40994E+007   -3.07691E+006    1.40124E+007   -1.51238E+006    1.24004E+007   -1.65729E+006    3.23686E+005   -3.22988E+004    4.05544E+005
            1971    1.43017E+007    1.26583E+007    1.26583E+007   -1.49473E+006   -1.78753E+006    1.44459E+007   -3.12536E+006    1.42950E+007   -1.48813E+006    1.26491E+007   -1.78489E+006    3.35812E+005   -1.68124E+004    1.35657E+005
            1972    1.10450E+007    9.72177E+006    9.72177E+006   -1.90852E+005   -2.18408E+006    1.19059E+007   -2.44895E+006    1.06290E+007   -2.17556E+006    9.60832E+006   -8.59234E+004    2.69797E+005   -4.51848E+004    1.02701E+006
            1973    1.17193E+007    1.03186E+007    1.03186E+007   -5.29262E+005   -2.11136E+006    1.24300E+007   -2.55934E+006    1.14754E+007   -2.10132E+006    1.02052E+007   -4.25866E+005    2.76613E+005   -5.38278E+004    1.07474E+006
            1974    1.25318E+007    1.10216E+007    1.10216E+007   -9.09636E+005   -2.03479E+006    1.30564E+007   -2.69240E+006    1.24174E+007   -2.02157E+006    1.09097E+007   -8.10885E+005    2.98807E+005   -5.87037E+004    1.11667E+006
            1975    1.33837E+007    1.17649E+007    1.17649E+007   -1.25833E+006   -1.95227E+006    1.37172E+007   -2.85145E+006    1.33432E+007   -1.93923E+006    1.16744E+007   -1.18079E+006    3.17831E+005   -3.81996E+004    1.03877E+006
            1976    1.41371E+007    1.24185E+007    1.24185E+007   -1.53602E+006   -1.89448E+006    1.43130E+007   -2.99599E+006    1.41269E+007   -1.87697E+006    1.23580E+007   -1.49309E+006    3.41575E+005   -3.66705E+004    8.53623E+005
            1977    1.47096E+007    1.29212E+007    1.29212E+007   -1.73742E+006   -1.83887E+006    1.47601E+007   -3.11498E+006    1.47088E+007   -1.82164E+006    1.28913E+007   -1.72478E+006    3.55297E+005   -1.48828E+004    5.59154E+005
            1978    1.50171E+007    1.31881E+007    1.31881E+007   -1.80624E+006   -1.85172E+006    1.50398E+007   -3.17672E+006    1.50170E+007   -1.80177E+006    1.31768E+007   -1.84490E+006    3.65001E+005   -8.84703E+003    1.90100E+005
            1979    1.16787E+007    1.00178E+007    1.00178E+007   -5.41492E+005   -2.52600E+006    1.25438E+007   -2.31677E+006    1.12900E+007   -2.51513E+006    9.84885E+006   -3.83416E+005    3.45791E+005   -1.34048E+004    1.28803E+006
            1980    1.23651E+007    1.06426E+007    1.06426E+007   -7.83591E+005   -2.48514E+006    1.31278E+007   -2.45797E+006    1.20975E+007   -2.47055E+006    1.04590E+007   -6.14551E+005    3.86489E+005   -3.08794E+004    1.39337E+006
            1981    1.32757E+007    1.14470E+007    1.14470E+007   -1.12186E+006   -2.43761E+006    1.38846E+007   -2.62916E+006    1.31278E+007   -2.41819E+006    1.12735E+007   -9.67819E+005    4.32304E+005   -4.31409E+004    1.41066E+006
            1982    1.41789E+007    1.22601E+007    1.22601E+007   -1.40291E+006   -2.38386E+006    1.46439E+007   -2.82443E+006    1.41023E+007   -2.36428E+006    1.21176E+007   -1.28003E+006    4.65015E+005   -2.55964E+004    1.31559E+006
            1983    1.50258E+007    1.30202E+007    1.30202E+007   -1.63917E+006   -2.34698E+006    1.53672E+007   -3.01135E+006    1.49882E+007   -2.32522E+006    1.29240E+007   -1.56471E+006    5.02485E+005   -2.51955E+004    1.07943E+006
            1984    1.56524E+007    1.35904E+007    1.35904E+007   -1.80293E+006   -2.30896E+006    1.58993E+007   -3.15949E+006    1.56340E+007   -2.28937E+006    1.35401E+007   -1.77224E+006    5.25494E+005   -9.46306E+003    7.11086E+005
            1985    1.60181E+007    1.39215E+007    1.39215E+007   -1.88552E+006   -2.29972E+006    1.62212E+007   -3.24543E+006    1.60061E+007   -2.28120E+006    1.38997E+007   -1.88227E+006    5.39955E+005   -6.46418E+003    2.44464E+005
            1986    1.21744E+007    1.01993E+007    1.01993E+007   -8.50611E+005   -2.85163E+006    1.30510E+007   -2.16570E+006    1.17959E+007   -2.84252E+006    9.97275E+006   -6.33131E+005    3.40510E+005    2.88183E+004    1.53490E+006
            1987    1.29910E+007    1.09674E+007    1.09674E+007   -1.07047E+006   -2.80283E+006    1.37702E+007   -2.36470E+006    1.27272E+007   -2.79477E+006    1.07323E+007   -8.43376E+005    3.30181E+005    4.43695E+004    1.63717E+006
            1988    1.39116E+007    1.18200E+007    1.18200E+007   -1.26897E+006   -2.78922E+006    1.46092E+007   -2.58728E+006    1.37228E+007   -2.77886E+006    1.15951E+007   -1.05440E+006    3.80384E+005    2.27265E+004    1.66319E+006
            1989    1.49613E+007    1.28005E+007    1.28005E+007   -1.48904E+006   -2.75252E+006    1.55530E+007   -2.85297E+006    1.48406E+007   -2.74163E+006    1.26144E+007   -1.31383E+006    4.06665E+005    2.88974E+004    1.57291E+006
            1990    1.59158E+007    1.37029E+007    1.37029E+007   -1.63928E+006   -2.73043E+006    1.64333E+007   -3.11106E+006    1.58313E+007   -2.71826E+006    1.35791E+007   -1.52761E+006    4.42219E+005    2.14142E+004    1.30504E+006
            1991    1.66737E+007    1.44269E+007    1.44269E+007   -1.75222E+006   -2.70074E+006    1.71277E+007   -3.32466E+006    1.66128E+007   -2.68811E+006    1.43671E+007   -1.70505E+006    4.61884E+005    1.26352E+004    8.73441E+005
            1992    1.71108E+007    1.48480E+007    1.48480E+007   -1.79757E+006   -2.69297E+006    1.75409E+007   -3.45247E+006    1.70580E+007   -2.68019E+006    1.48297E+007   -1.79205E+006    4.73256E+005    7.65705E+003    3.03017E+005
            1993    1.27261E+007    1.04269E+007    1.04269E+007   -1.17871E+006   -3.18203E+006    1.36089E+007   -2.02204E+006    1.23638E+007   -3.16559E+006    1.01740E+007   -9.42258E+005    4.50243E+005    4.71992E+003    1.64471E+006
            1994    1.33580E+007    1.10558E+007    1.10558E+007   -1.23433E+006   -3.16089E+006    1.42167E+007   -2.22020E+006    1.30400E+007   -3.14790E+006    1.07782E+007   -9.69703E+005    4.25469E+005    5.01988E+004    1.78323E+006
            1995    1.44245E+007    1.20624E+007    1.20624E+007   -1.38944E+006   -3.16957E+006    1.52320E+007   -2.50112E+006    1.41742E+007   -3.15601E+006    1.17829E+007   -1.12347E+006    4.49593E+005    4.80388E+004    1.87225E+006
            1996    1.55376E+007    1.31604E+007    1.31604E+007   -1.47142E+006   -3.14707E+006    1.63075E+007   -2.84730E+006    1.53323E+007   -3.13397E+006    1.29208E+007   -1.24491E+006    4.58771E+005    5.21001E+004    1.80563E+006
            1997    1.66748E+007    1.43057E+007    1.43057E+007   -1.51763E+006   -3.10686E+006    1.74125E+007   -3.22706E+006    1.65031E+007   -3.09378E+006    1.41365E+007   -1.36154E+006    4.74435E+005    4.99453E+004    1.56317E+006
            1998    1.75942E+007    1.52487E+007    1.52487E+007   -1.53690E+006   -3.05567E+006    1.83044E+007   -3.55204E+006    1.74458E+007   -3.04297E+006    1.51671E+007   -1.46805E+006    4.80890E+005    3.10360E+004    1.07240E+006
            1999    1.81316E+007    1.58014E+007    1.58014E+007   -1.54382E+006   -3.02564E+006    1.88270E+007   -3.74397E+006    1.79946E+007   -3.01309E+006    1.57801E+007   -1.53511E+006    4.85414E+005    1.52119E+004    3.88634E+005
            2000    1.90337E+007    1.70403E+007    1.70403E+007   -7.47597E+005   -3.03288E+006    2.00732E+007   -4.41995E+006    1.87214E+007   -3.02828E+006    1.70233E+007   -7.35209E+005    3.01628E+005    1.91743E+004    4.70241E+005
            2001    1.83240E+007    1.61844E+007    1.61844E+007   -9.12549E+005   -3.15945E+006    1.93439E+007   -4.03747E+006    1.80102E+007   -3.15389E+006    1.60837E+007   -8.17435E+005    3.13355E+005    5.26712E+004    1.27398E+006
            2002    1.71590E+007    1.48310E+007    1.48310E+007   -1.12282E+006   -3.32119E+006    1.81522E+007   -3.46233E+006    1.68378E+007   -3.31400E+006    1.46276E+007   -9.26589E+005    3.29629E+005    8.25623E+004    1.76230E+006
            2003    1.58721E+007    1.34045E+007    1.34045E+007   -1.28449E+006   -3.43189E+006    1.68364E+007   -2.89606E+006    1.55402E+007   -3.42331E+006    1.31273E+007   -1.01579E+006    3.43648E+005    9.70419E+004    1.97211E+006
            2004    1.45887E+007    1.20727E+007    1.20727E+007   -1.32923E+006   -3.46683E+006    1.55396E+007   -2.42556E+006    1.42300E+007   -3.45720E+006    1.17717E+007   -1.03779E+006    3.46405E+005    1.06339E+005    1.95865E+006
            2005    1.35356E+007    1.10347E+007    1.10347E+007   -1.31030E+006   -3.43909E+006    1.44738E+007   -2.09511E+006    1.31510E+007   -3.42963E+006    1.07479E+007   -1.03290E+006    3.40809E+005    9.65015E+004    1.83201E+006
            2006    1.26000E+007    1.02008E+007    1.02008E+007   -1.12302E+006   -3.37234E+006    1.35732E+007   -1.90182E+006    1.21359E+007   -3.36277E+006    9.97717E+006   -9.08943E+005    3.08787E+005    1.10261E+005    1.54874E+006
            2007    1.36073E+007    1.12828E+007    1.12828E+007   -1.41627E+006   -3.07968E+006    1.43625E+007   -2.26229E+006    1.33757E+007   -3.07010E+006    1.10636E+007   -1.20667E+006   -3.66434E+005   -5.37865E+004    1.61745E+006
            2008    1.23398E+007    1.04047E+007    1.04047E+007   -7.48170E+005   -2.85160E+006    1.32563E+007   -2.26832E+006    1.19264E+007   -2.84190E+006    1.00935E+007   -4.46609E+005   -3.52754E+005   -3.57935E+004    1.80891E+006
            2009    1.12074E+007    9.55422E+006    9.55422E+006   -3.31835E+005   -2.62099E+006    1.21752E+007   -2.20046E+006    1.06622E+007   -2.61196E+006    9.34182E+006   -1.28464E+005   -3.20667E+005   -5.89499E+003    1.40511E+006
            2010    1.04293E+007    9.18337E+006    9.18337E+006    2.08677E+005   -2.25815E+006    1.14415E+007   -2.37796E+006    9.73987E+006   -2.25068E+006    9.07550E+006    3.09072E+005   -2.69803E+005    2.84609E+004    9.49740E+005
            2011    1.10741E+007    9.78110E+006    9.78110E+006   -1.98402E+005   -2.13269E+006    1.19138E+007   -2.48334E+006    1.06841E+007   -2.12447E+006    9.67198E+006   -9.74963E+004   -2.55425E+005    5.04854E+004    1.01292E+006
            2012    1.17180E+007    1.03999E+007    1.03999E+007   -5.07183E+005   -1.98820E+006    1.23881E+007   -2.63484E+006    1.15046E+007   -1.97847E+006    1.03064E+007   -4.23427E+005   -2.44509E+005    6.55544E+004    9.80845E+005
            2013    1.23570E+007    1.09722E+007    1.09722E+007   -8.57372E+005   -1.85215E+006    1.28243E+007   -2.75422E+006    1.22664E+007   -1.83886E+006    1.08963E+007   -7.94748E+005   -2.46574E+005    7.42178E+004    9.16558E+005
            2014    1.30149E+007    1.15586E+007    1.15586E+007   -1.18528E+006   -1.71132E+006    1.32699E+007   -2.88733E+006    1.29909E+007   -1.69665E+006    1.15021E+007   -1.14341E+006   -2.44249E+005    5.74474E+004    8.14067E+005
            2015    1.35930E+007    1.20630E+007    1.20630E+007   -1.44291E+006   -1.61543E+006    1.36784E+007   -3.00154E+006    1.35905E+007   -1.58102E+006    1.20296E+007   -1.44395E+006   -2.48489E+005    5.39528E+004    6.25127E+005
            2016    1.40294E+007    1.24369E+007    1.24369E+007   -1.49161E+006   -1.69143E+006    1.41283E+007   -3.08460E+006    1.40262E+007   -1.49330E+006    1.24206E+007   -1.67347E+006   -2.47612E+005    2.70877E+004    4.09780E+005
            2017    1.42492E+007    1.26271E+007    1.26271E+007   -1.45005E+006   -1.78826E+006    1.44153E+007   -3.12959E+006    1.42402E+007   -1.44651E+006    1.26215E+007   -1.78627E+006   -2.47939E+005    1.44773E+004    1.29209E+005
            2018    1.18483E+007    1.02383E+007    1.02383E+007   -5.22329E+005   -2.45895E+006    1.26973E+007   -2.41902E+006    1.14841E+007   -2.44711E+006    1.00589E+007   -3.54763E+005   -3.58087E+005    1.75077E+004    1.33964E+006
            2019    1.23843E+007    1.07353E+007    1.07353E+007   -7.64089E+005   -2.37602E+006    1.31113E+007   -2.53172E+006    1.21449E+007   -2.35977E+006    1.05810E+007   -6.26091E+005   -3.95180E+005    4.37076E+004    1.27289E+006
            2020    1.30860E+007    1.13786E+007    1.13786E+007   -1.06527E+006   -2.26663E+006    1.36452E+007   -2.68224E+006    1.29611E+007   -2.24611E+006    1.12335E+007   -9.40691E+005   -4.22889E+005    5.36272E+004    1.27675E+006
            2021    1.38301E+007    1.20574E+007    1.20574E+007   -1.35985E+006   -2.15152E+006    1.42090E+007   -2.84868E+006    1.37790E+007   -2.13063E+006    1.19465E+007   -1.26985E+006   -4.41978E+005    3.88281E+004    1.13896E+006
            2022    1.44857E+007    1.26355E+007    1.26355E+007   -1.62008E+006   -2.06975E+006    1.47053E+007   -2.98189E+006    1.44699E+007   -2.04510E+006    1.25616E+007   -1.57081E+006   -4.64588E+005    3.69160E+004    9.18330E+005
            2023    1.49699E+007    1.30746E+007    1.30746E+007   -1.79576E+006   -1.99282E+006    1.50674E+007   -3.09535E+006    1.49670E+007   -1.97096E+006    1.30370E+007   -1.78004E+006   -4.77769E+005    1.73130E+004    5.77543E+005
            2024    1.52169E+007    1.32945E+007    1.32945E+007   -1.89092E+006   -1.95375E+006    1.52483E+007   -3.14994E+006    1.52166E+007   -1.93441E+006    1.32762E+007   -1.89196E+006   -4.86365E+005    8.42862E+003    2.05629E+005
            2025    1.24977E+007    1.05445E+007    1.05445E+007   -9.02717E+005   -2.78910E+006    1.33336E+007   -2.28423E+006    1.21712E+007   -2.78080E+006    1.03530E+007   -7.19457E+005   -3.30078E+005   -3.16854E+004    1.43644E+006
            2026    1.29488E+007    1.10077E+007    1.10077E+007   -9.68210E+005   -2.73292E+006    1.37406E+007   -2.43553E+006    1.26740E+007   -2.72478E+006    1.07815E+007   -7.50128E+005   -3.30068E+005   -2.70844E+004    1.60142E+006
            2027    1.38965E+007    1.18660E+007    1.18660E+007   -1.28410E+006   -2.67262E+006    1.45386E+007   -2.63643E+006    1.37391E+007   -2.66191E+006    1.16555E+007   -1.08432E+006   -3.74905E+005   -6.66050E+003    1.61243E+006
            2028    1.47849E+007    1.26813E+007    1.26813E+007   -1.54131E+006   -2.60811E+006    1.52894E+007   -2.84395E+006    1.46979E+007   -2.59680E+006    1.25135E+007   -1.38481E+006   -4.00007E+005   -1.13787E+004    1.48735E+006
            2029    1.55952E+007    1.34529E+007    1.34529E+007   -1.70949E+006   -2.54181E+006    1.59947E+007   -3.06720E+006    1.55451E+007   -2.52907E+006    1.33481E+007   -1.61743E+006   -4.32024E+005   -3.37685E+003    1.18457E+006
            2030    1.61849E+007    1.40113E+007    1.40113E+007   -1.83835E+006   -2.48927E+006    1.65006E+007   -3.22790E+006    1.61555E+007   -2.47649E+006    1.39607E+007   -1.80049E+006   -4.49956E+005   -3.70151E+003    7.78786E+005
            2031    1.64869E+007    1.43040E+007    1.43040E+007   -1.89046E+006   -2.46059E+006    1.67646E+007   -3.31766E+006    1.64647E+007   -2.44777E+006    1.42872E+007   -1.88648E+006   -4.62088E+005   -9.53329E+002    2.56077E+005
            2032    1.26094E+007    1.04090E+007    1.04090E+007   -9.68238E+005   -3.14831E+006    1.35573E+007   -2.09748E+006    1.21745E+007   -3.13146E+006    1.01404E+007   -7.16488E+005   -4.63186E+005   -1.90294E+004    1.67624E+006
            2033    1.36239E+007    1.12537E+007    1.12537E+007   -1.41939E+006   -3.15472E+006    1.44084E+007   -2.22653E+006    1.33719E+007   -3.14086E+006    1.09701E+007   -1.14965E+006   -4.37008E+005   -3.23315E+004    1.83013E+006
            2034    1.44799E+007    1.20676E+007    1.20676E+007   -1.53688E+006   -3.15229E+006    1.52199E+007   -2.45947E+006    1.42751E+007   -3.13808E+006    1.17958E+007   -1.27933E+006   -4.57170E+005   -3.72079E+004    1.85463E+006
            2035    1.55992E+007    1.32150E+007    1.32150E+007   -1.58257E+006   -3.07814E+006    1.62931E+007   -2.85142E+006    1.54367E+007   -3.06425E+006    1.29935E+007   -1.37499E+006   -4.71286E+005   -4.10012E+004    1.74009E+006
            2036    1.65853E+007    1.42138E+007    1.42138E+007   -1.62944E+006   -3.02538E+006    1.72392E+007   -3.18634E+006    1.64524E+007   -3.01108E+006    1.40627E+007   -1.49262E+006   -4.94014E+005   -3.80002E+004    1.46553E+006
            2037    1.73688E+007    1.50153E+007    1.50153E+007   -1.66170E+006   -2.97107E+006    1.79864E+007   -3.46085E+006    1.72572E+007   -2.95663E+006    1.49425E+007   -1.60332E+006   -5.08506E+005   -2.51958E+004    9.84726E+005
            2038    1.77986E+007    1.54439E+007    1.54439E+007   -1.69419E+006   -2.94867E+006    1.83926E+007   -3.60036E+006    1.76987E+007   -2.93409E+006    1.54219E+007   -1.68671E+006   -5.17387E+005   -1.09133E+004    3.57921E+005
            2039    1.89273E+007    1.69142E+007    1.69142E+007   -8.09252E+005   -3.02237E+006    1.99366E+007   -4.36085E+006    1.86329E+007   -3.01776E+006    1.68974E+007   -7.97114E+005   -3.00742E+005   -1.96789E+004    4.64797E+005
            2040    1.82483E+007    1.61076E+007    1.61076E+007   -9.40395E+005   -3.14135E+006    1.92490E+007   -4.00863E+006    1.79461E+007   -3.13590E+006    1.60133E+007   -8.51470E+005   -3.09635E+005   -5.13497E+004    1.23046E+006
            2041    1.71820E+007    1.48718E+007    1.48718E+007   -1.12147E+006   -3.29250E+006    1.81643E+007   -3.48596E+006    1.68693E+007   -3.28543E+006    1.46847E+007   -9.41374E+005   -3.24795E+005   -8.18737E+004    1.69197E+006
            2042    1.58915E+007    1.34072E+007    1.34072E+007   -1.32093E+006   -3.43588E+006    1.68431E+007   -2.88346E+006    1.55701E+007   -3.42735E+006    1.31528E+007   -1.07506E+006   -3.38908E+005   -9.73473E+004    1.89155E+006
            2043    1.46749E+007    1.20824E+007    1.20824E+007   -1.45742E+006   -3.51109E+006    1.55935E+007   -2.37131E+006    1.43462E+007   -3.50137E+006    1.18161E+007   -1.20081E+006   -3.45092E+005   -1.05567E+005    1.85131E+006
            2044    1.34851E+007    1.07726E+007    1.07726E+007   -1.61312E+006   -3.59289E+006    1.43655E+007   -1.85554E+006    1.31521E+007   -3.58288E+006    1.05514E+007   -1.40186E+006   -3.36030E+005   -1.02041E+005    1.60941E+006
            2045    1.34127E+007    1.05876E+007    1.05876E+007   -1.98339E+006   -3.53228E+006    1.41199E+007   -1.69065E+006    1.32092E+007   -3.52205E+006    1.04493E+007   -1.85527E+006   -3.27648E+005   -9.29326E+004    1.27326E+006
            2046    1.81373E+007    1.58062E+007    1.58062E+007   -1.54378E+006   -3.02736E+006    1.88335E+007   -3.74501E+006    1.80000E+007   -3.01484E+006    1.57844E+007   -1.53458E+006    4.84999E+005   -1.55579E+004   -3.99356E+005
            2047    1.71150E+007    1.48520E+007    1.48520E+007   -1.79439E+006   -2.69585E+006    1.75479E+007   -3.45393E+006    1.70614E+007   -2.68308E+006    1.48331E+007   -1.78826E+006    4.73127E+005   -8.06562E+003   -3.19321E+005
            2048    1.60211E+007    1.39231E+007    1.39231E+007   -1.88538E+006   -2.30258E+006    1.62256E+007   -3.24503E+006    1.60089E+007   -2.28409E+006    1.39008E+007   -1.88158E+006    5.39499E+005    6.11162E+003   -2.61970E+005
            2049    1.50115E+007    1.31822E+007    1.31822E+007   -1.80725E+006   -1.85133E+006    1.50335E+007   -3.17454E+006    1.50114E+007   -1.80399E+006    1.31704E+007   -1.84282E+006    3.65291E+005    9.67734E+003   -2.07590E+005
            2050    1.42951E+007    1.26527E+007    1.26527E+007   -1.49518E+006   -1.78522E+006    1.44379E+007   -3.12409E+006    1.42885E+007   -1.48871E+006    1.26432E+007   -1.78222E+006    3.35461E+005    1.72076E+004   -1.48288E+005
            2051    1.36690E+007    1.22253E+007    1.22253E+007   -1.15764E+006   -1.71295E+006    1.39382E+007   -3.11822E+006    1.36436E+007   -1.15581E+006    1.22221E+007   -1.71159E+006    1.83824E+005    1.83590E+004   -9.65460E+004
            2052    1.34587E+007    1.20752E+007    1.20752E+007   -1.07340E+006   -1.67337E+006    1.37486E+007   -3.10949E+006    1.34285E+007   -1.07386E+006    1.20750E+007   -1.67262E+006    5.37598E+004    2.00280E+004   -3.09821E+004
            2053    1.33553E+007    1.20100E+007    1.20100E+007   -9.99563E+005   -1.66615E+006    1.36761E+007   -3.11476E+006    1.33178E+007   -1.00018E+006    1.20100E+007   -1.66551E+006   -8.72639E+003    2.03976E+004    1.43734E+004
            2054    1.36772E+007    1.22148E+007    1.22148E+007   -1.19500E+006   -1.71510E+006    1.39299E+007   -3.10156E+006    1.36550E+007   -1.19175E+006    1.22103E+007   -1.71390E+006   -2.29523E+005    1.74510E+004    8.46773E+004
            2055    1.75860E+007    1.52400E+007    1.52400E+007   -1.53236E+006   -3.05989E+006    1.82999E+007   -3.54926E+006    1.74358E+007   -3.04721E+006    1.51561E+007   -1.46112E+006    4.80466E+005   -3.13104E+004   -1.09035E+006
            2056    1.66648E+007    1.44176E+007    1.44176E+007   -1.74665E+006   -2.70614E+006    1.71238E+007   -3.32162E+006    1.66024E+007   -2.69355E+006    1.43556E+007   -1.69719E+006    4.61277E+005   -1.34839E+004   -8.93771E+005
            2057    1.56294E+007    1.35686E+007    1.35686E+007   -1.79723E+006   -2.31177E+006    1.58804E+007   -3.15320E+006    1.56104E+007   -2.29208E+006    1.35161E+007   -1.76446E+006    5.23857E+005    1.04889E+004   -7.34699E+005
            2058    1.46788E+007    1.28942E+007    1.28942E+007   -1.73015E+006   -1.83852E+006    1.47327E+007   -3.10851E+006    1.46779E+007   -1.82149E+006    1.28630E+007   -1.71597E+006    3.54292E+005    1.52672E+004   -5.76037E+005
            2059    1.39847E+007    1.23950E+007    1.23950E+007   -1.50569E+006   -1.67216E+006    1.40672E+007   -3.07240E+006    1.39825E+007   -1.51052E+006    1.23754E+007   -1.64769E+006    3.21749E+005    3.39416E+004   -4.14636E+005
            2060    1.33975E+007    1.20049E+007    1.20049E+007   -1.18929E+006   -1.58694E+006    1.35919E+007   -3.07623E+006    1.33842E+007   -1.19067E+006    1.19979E+007   -1.57854E+006    1.75309E+005    3.48893E+004   -2.52796E+005
            2061    1.32036E+007    1.18720E+007    1.18720E+007   -1.10631E+006   -1.54599E+006    1.34180E+007   -3.07323E+006    1.31872E+007   -1.11005E+006    1.18712E+007   -1.54142E+006    4.77116E+004    4.09173E+004   -9.43175E+004
            2062    1.31326E+007    1.18296E+007    1.18296E+007   -1.04448E+006   -1.54706E+006    1.33766E+007   -3.07934E+006    1.31109E+007   -1.04752E+006    1.18292E+007   -1.54361E+006   -1.66741E+004    3.89673E+004    7.31105E+004
            2063    1.34587E+007    1.20365E+007    1.20365E+007   -1.23718E+006   -1.59978E+006    1.36363E+007   -3.06653E+006    1.34477E+007   -1.23771E+006    1.20289E+007   -1.59159E+006   -2.29940E+005    3.63209E+004    2.24383E+005
            2064    1.66419E+007    1.42725E+007    1.42725E+007   -1.51351E+006   -3.11020E+006    1.73826E+007   -3.21625E+006    1.64682E+007   -3.09711E+006    1.41008E+007   -1.35493E+006    4.74024E+005   -5.05747E+004   -1.57359E+006
            2065    1.58655E+007    1.36549E+007    1.36549E+007   -1.63231E+006   -2.73164E+006    1.63866E+007   -3.09699E+006    1.57794E+007   -2.71949E+006    1.35275E+007   -1.51705E+006    4.41206E+005   -2.19625E+004   -1.32327E+006
            2066    1.49543E+007    1.29582E+007    1.29582E+007   -1.62499E+006   -2.34150E+006    1.52997E+007   -2.99725E+006    1.49157E+007   -2.31967E+006    1.28594E+007   -1.54804E+006    4.98364E+005    2.67395E+004   -1.09499E+006
            2067    1.40650E+007    1.23598E+007    1.23598E+007   -1.51736E+006   -1.88573E+006    1.42456E+007   -2.98559E+006    1.40542E+007   -1.86837E+006    1.22983E+007   -1.47320E+006    3.36857E+005    3.76218E+004   -8.61505E+005
            2068    1.34361E+007    1.19380E+007    1.19380E+007   -1.38673E+006   -1.60683E+006    1.35448E+007   -2.98147E+006    1.34321E+007   -1.56351E+006    1.19034E+007   -1.39550E+006    3.01468E+005    6.83705E+004   -6.10574E+005
            2069    1.29003E+007    1.15959E+007    1.15959E+007   -1.22017E+006   -1.38699E+006    1.29829E+007   -2.99624E+006    1.28978E+007   -1.26738E+006    1.15832E+007   -1.32713E+006    1.62495E+005    7.14516E+004   -3.70851E+005
            2070    1.27462E+007    1.15023E+007    1.15023E+007   -1.14383E+006   -1.34179E+006    1.28441E+007   -3.00555E+006    1.27428E+007   -1.18679E+006    1.15011E+007   -1.29765E+006    3.83428E+004    8.13373E+004   -1.16605E+005
            2071    1.27046E+007    1.14788E+007    1.14788E+007   -1.11216E+006   -1.33647E+006    1.28153E+007   -3.01007E+006    1.27002E+007   -1.14305E+006    1.14776E+007   -1.30437E+006   -2.92380E+004    7.70915E+004    1.20826E+005
            2072    1.30511E+007    1.16952E+007    1.16952E+007   -1.27258E+006   -1.43758E+006    1.31328E+007   -2.99503E+006    1.30488E+007   -1.32926E+006    1.16803E+007   -1.36598E+006   -2.29845E+005    7.29503E+004    3.78090E+005
            2073    1.54883E+007    1.31114E+007    1.31114E+007   -1.47034E+006   -3.14687E+006    1.62583E+007   -2.83141E+006    1.52821E+007   -3.13378E+006    1.28696E+007   -1.24157E+006    4.57924E+005   -5.15128E+004   -1.81131E+006
            2074    1.48742E+007    1.27217E+007    1.27217E+007   -1.47618E+006   -2.74724E+006    1.54690E+007   -2.83277E+006    1.47513E+007   -2.73635E+006    1.25333E+007   -1.29867E+006    4.05086E+005   -2.79823E+004   -1.57807E+006
            2075    1.40702E+007    1.21701E+007    1.21701E+007   -1.37735E+006   -2.37024E+006    1.45403E+007   -2.80749E+006    1.39910E+007   -2.35060E+006    1.20267E+007   -1.25365E+006    4.59510E+005    2.83680E+004   -1.31575E+006
            2076    1.32883E+007    1.16916E+007    1.16916E+007   -1.22885E+006   -1.93612E+006    1.36278E+007   -2.84223E+006    1.32458E+007   -1.92322E+006    1.16023E+007   -1.15242E+006    3.11106E+005    4.00887E+004   -1.02854E+006
            2077    1.27147E+007    1.13392E+007    1.13392E+007   -1.07861E+006   -1.65284E+006    1.29920E+007   -2.86925E+006    1.26854E+007   -1.63169E+006    1.12911E+007   -1.05165E+006    2.71865E+005    7.77589E+004   -7.26592E+005
            2078    1.22560E+007    1.10692E+007    1.10692E+007   -9.77495E+005   -1.38584E+006    1.24550E+007   -2.90195E+006    1.22406E+007   -1.36435E+006    1.10528E+007   -9.82611E+005    1.45153E+005    8.28421E+004   -4.21671E+005
            2079    1.21300E+007    1.10024E+007    1.10024E+007   -9.32328E+005   -1.31402E+006    1.23164E+007   -2.91867E+006    1.21165E+007   -1.28791E+006    1.10012E+007   -9.57245E+005    2.69685E+004    9.59977E+004   -1.16537E+005
            2080    1.21459E+007    1.10189E+007    1.10189E+007   -9.56195E+005   -1.29072E+006    1.23097E+007   -2.92401E+006    1.21355E+007   -1.26479E+006    1.10158E+007   -9.79013E+005   -4.28162E+004    8.85609E+004    1.88664E+005
            2081    1.24847E+007    1.12234E+007    1.12234E+007   -1.04047E+006   -1.47107E+006    1.26944E+007   -2.90394E+006    1.24680E+007   -1.44610E+006    1.12003E+007   -1.04233E+006   -2.24634E+005    8.41625E+004    4.85781E+005
            2082    1.43644E+007    1.20073E+007    1.20073E+007   -1.38328E+006   -3.16473E+006    1.51721E+007   -2.48644E+006    1.41127E+007   -3.15118E+006    1.17268E+007   -1.11631E+006    4.48496E+005   -4.73800E+004   -1.87136E+006
            2083    1.38127E+007    1.17356E+007    1.17356E+007   -1.24927E+006   -2.77768E+006    1.45133E+007   -2.56956E+006    1.36205E+007   -2.76733E+006    1.15110E+007   -1.03502E+006    3.78341E+005   -2.11060E+004   -1.65541E+006
            2084    1.31633E+007    1.13603E+007    1.13603E+007   -1.08751E+006   -2.41752E+006    1.37779E+007   -2.61844E+006    1.30109E+007   -2.39818E+006    1.11898E+007   -9.36304E+005    4.26301E+005    4.59006E+004   -1.39236E+006
            2085    1.24439E+007    1.09584E+007    1.09584E+007   -8.78271E+005   -2.01478E+006    1.29732E+007   -2.68845E+006    1.23263E+007   -2.00170E+006    1.08502E+007   -7.83164E+005    2.91173E+005    6.11757E+004   -1.09380E+006
            2086    1.19469E+007    1.06928E+007    1.06928E+007   -7.00421E+005   -1.73985E+006    1.24326E+007   -2.75083E+006    1.18445E+007   -1.72159E+006    1.06382E+007   -6.64074E+005    2.46000E+005    1.02378E+005   -7.53540E+005
            2087    1.15528E+007    1.04778E+007    1.04778E+007   -5.93363E+005   -1.50283E+006    1.19806E+007   -2.79386E+006    1.14718E+007   -1.48672E+006    1.04599E+007   -5.91642E+005    1.29941E+005    1.10122E+005   -4.27556E+005
            2088    1.14535E+007    1.04416E+007    1.04416E+007   -5.43727E+005   -1.42884E+006    1.18704E+007   -2.82300E+006    1.13762E+007   -1.41112E+006    1.04408E+007   -5.60711E+005    1.61569E+004    1.23795E+005   -8.89901E+004
            2089    1.15033E+007    1.04702E+007    1.04702E+007   -5.88099E+005   -1.43161E+006    1.19018E+007   -2.81683E+006    1.14334E+007   -1.41505E+006    1.04644E+007   -5.98836E+005   -5.87565E+004    1.14820E+005    2.48069E+005
            2090    1.18681E+007    1.06908E+007    1.06908E+007   -6.92617E+005   -1.60879E+006    1.22996E+007   -2.79648E+006    1.17881E+007   -1.58920E+006    1.06574E+007   -6.78800E+005   -2.21083E+005    1.08235E+005    5.80392E+005
            2091    1.33065E+007    1.10112E+007    1.10112E+007   -1.22493E+006   -3.15497E+006    1.41662E+007   -2.21044E+006    1.29860E+007   -3.14205E+006    1.07343E+007   -9.60951E+005    4.23319E+005   -4.93083E+004   -1.77710E+006
            2092    1.29121E+007    1.09068E+007    1.09068E+007   -1.04584E+006   -2.78797E+006    1.36947E+007   -2.35766E+006    1.26437E+007   -2.77998E+006    1.06746E+007   -8.21652E+005    3.27947E+005   -4.19068E+004   -1.62100E+006
            2093    1.22858E+007    1.05861E+007    1.05861E+007   -7.53965E+005   -2.46584E+006    1.30519E+007   -2.45542E+006    1.20130E+007   -2.45131E+006    1.04070E+007   -5.89367E+005    3.82746E+005    3.30954E+004   -1.37074E+006
            2094    1.16679E+007    1.02865E+007    1.02865E+007   -5.07340E+005   -2.09328E+006    1.23798E+007   -2.56196E+006    1.14217E+007   -2.08337E+006    1.01774E+007   -4.08138E+005    2.71283E+005    5.58268E+004   -1.05163E+006
            2095    1.12135E+007    1.00737E+007    1.00737E+007   -3.00321E+005   -1.82359E+006    1.18973E+007   -2.64992E+006    1.09771E+007   -1.81186E+006    1.00180E+007   -2.56397E+005    2.18475E+005    9.46916E+004   -7.32018E+005
            2096    1.08607E+007    9.89924E+006    9.89924E+006   -1.63594E+005   -1.61356E+006    1.15128E+007   -2.70736E+006    1.06396E+007   -1.60371E+006    9.88287E+006   -1.57063E+005    1.15024E+005    1.08093E+005   -3.92384E+005
            2097    1.07792E+007    9.87474E+006    9.87474E+006   -1.24422E+005   -1.54381E+006    1.14186E+007   -2.73550E+006    1.05659E+007   -1.53334E+006    9.87443E+006   -1.34586E+005    7.89794E+003    1.21410E+005   -5.52862E+004
            2098    1.08445E+007    9.91349E+006    9.91349E+006   -1.56510E+005   -1.56741E+006    1.14809E+007   -2.72986E+006    1.06351E+007   -1.55774E+006    9.90490E+006   -1.57590E+005   -7.22402E+004    1.11873E+005    2.86889E+005
            2099    1.12009E+007    1.01037E+007    1.01037E+007   -3.04753E+005   -1.74945E+006    1.18532E+007   -2.68317E+006    1.09884E+007   -1.73676E+006    1.00610E+007   -2.74753E+005   -2.10229E+005    1.02193E+005    6.37675E+005
            2100    1.26926E+007    1.04007E+007    1.04007E+007   -1.16436E+006   -3.17864E+006    1.35793E+007   -2.01923E+006    1.23253E+007   -3.16227E+006    1.01486E+007   -9.28678E+005    4.48798E+005   -4.52933E+003   -1.63914E+006
            2101    1.21252E+007    1.01634E+007    1.01634E+007   -8.32098E+005   -2.84078E+006    1.30041E+007   -2.16350E+006    1.17421E+007   -2.83169E+006    9.94051E+006   -6.18335E+005    3.39286E+005   -2.69102E+004   -1.51826E+006
            2102    1.16396E+007    9.99435E+006    9.99435E+006   -5.22368E+005   -2.51179E+006    1.25061E+007   -2.32007E+006    1.12476E+007   -2.50099E+006    9.82930E+006   -3.68114E+005    3.43564E+005    1.45054E+004   -1.27023E+006
            2103    1.10235E+007    9.70987E+006    9.70987E+006   -1.82165E+005   -2.17352E+006    1.18834E+007   -2.45139E+006    1.06074E+007   -2.16507E+006    9.59894E+006   -7.96899E+004    2.67111E+005    4.62791E+004   -1.01451E+006
            2104    1.05389E+007    9.49182E+006    9.49182E+006    8.79657E+004   -1.89923E+006    1.13910E+007   -2.56018E+006    1.01044E+007   -1.89147E+006    9.44168E+006    1.30339E+005    2.00287E+005    8.00310E+004   -6.61965E+005
            2105    1.02594E+007    9.38235E+006    9.38235E+006    2.26700E+005   -1.70589E+006    1.10882E+007   -2.63439E+006    9.83727E+006   -1.69962E+006    9.36932E+006    2.33469E+005    1.05328E+005    9.76033E+004   -3.32710E+005
            2106    1.01780E+007    9.36858E+006    9.36858E+006    2.85545E+005   -1.63169E+006    1.10003E+007   -2.67414E+006    9.75924E+006   -1.62567E+006    9.36855E+006    2.79555E+005    3.08632E+003    1.07259E+005   -1.66123E+004
            2107    1.02595E+007    9.39425E+006    9.39425E+006    2.24913E+005   -1.68654E+006    1.10808E+007   -2.64421E+006    9.84685E+006   -1.68039E+006    9.38426E+006    2.28751E+005   -8.78397E+004    9.97014E+004    2.92649E+005
            2108    1.05467E+007    9.52941E+006    9.52941E+006    1.05112E+005   -1.86253E+006    1.13919E+007   -2.59066E+006    1.01213E+007   -1.85454E+006    9.48335E+006    1.43180E+005   -1.98032E+005    8.34825E+004    6.33890E+005
            2109    9.99568E+006    9.03994E+006    9.03994E+006    4.80374E+005   -1.94536E+006    1.09853E+007   -2.52498E+006    9.29820E+006   -1.94030E+006    9.00303E+006    5.12215E+005   -1.93466E+005    5.37277E+004    5.35374E+005
            2110    9.79109E+006    9.01521E+006    9.01521E+006    6.08757E+005   -1.73509E+006    1.07503E+007   -2.62963E+006    9.12730E+006   -1.73191E+006    9.00833E+006    6.12457E+005   -1.01564E+005    6.99215E+004    2.23589E+005
            2111    9.75452E+006    9.02216E+006    9.02216E+006    6.01215E+005   -1.66646E+006    1.06886E+007   -2.65231E+006    9.13277E+006   -1.66399E+006    9.02216E+006    5.98754E+005    2.42035E+002    7.46791E+004   -3.25403E+003
            2112    9.79644E+006    9.01634E+006    9.01634E+006    6.00063E+005   -1.73740E+006    1.07537E+007   -2.62633E+006    9.13686E+006   -1.73425E+006    9.00955E+006    6.03705E+005    1.01924E+005    6.93121E+004   -2.22024E+005
            2113    9.99954E+006    9.03933E+006    9.03933E+006    4.69687E+005   -1.94710E+006    1.09864E+007   -2.52064E+006    9.30778E+006   -1.94203E+006    9.00190E+006    5.02049E+005    1.93969E+005    5.33935E+004   -5.39765E+005
            2114    1.04250E+007    9.16198E+006    9.16198E+006    1.61126E+005   -2.26086E+006    1.14228E+007   -2.35408E+006    9.76145E+006   -2.25356E+006    9.06348E+006    2.52334E+005    2.66848E+005    2.81256E+004   -9.07306E+005
            2115    1.11576E+007    9.53377E+006    9.53377E+006   -3.05755E+005   -2.58881E+006    1.21226E+007   -2.21307E+006    1.06128E+007   -2.57988E+006    9.34808E+006   -1.28992E+005    3.17054E+005   -5.07564E+002   -1.30923E+006
            2116    1.20005E+007    9.97919E+006    9.97919E+006   -8.63383E+005   -2.91472E+006    1.28939E+007   -2.06703E+006    1.15961E+007   -2.90533E+006    9.78084E+006   -6.74426E+005    3.44571E+005   -2.88149E+004   -1.41874E+006
            2117    1.21833E+007    9.87306E+006    9.87306E+006   -1.12135E+006   -3.22515E+006    1.30982E+007   -1.84219E+006    1.17642E+007   -3.21598E+006    9.70835E+006   -9.65806E+005    3.25269E+005   -7.86324E+004   -1.30096E+006
            2118    1.90434E+007    1.70514E+007    1.70514E+007   -7.47592E+005   -3.03053E+006    2.00820E+007   -4.42443E+006    1.87318E+007   -3.02592E+006    1.70343E+007   -7.35093E+005    3.01942E+005   -1.93508E+004   -4.72489E+005
            2119    1.83215E+007    1.61836E+007    1.61836E+007   -9.08544E+005   -3.15915E+006    1.93428E+007   -4.03865E+006    1.80065E+007   -3.15361E+006    1.60821E+007   -8.12493E+005    3.12808E+005   -5.27539E+004   -1.28000E+006
            2120    1.71416E+007    1.48161E+007    1.48161E+007   -1.11632E+006   -3.32124E+006    1.81374E+007   -3.45953E+006    1.68181E+007   -3.31404E+006    1.46111E+007   -9.18439E+005    3.28980E+005   -8.33213E+004   -1.76845E+006
            2121    1.58354E+007    1.33705E+007    1.33705E+007   -1.27794E+006   -3.43149E+006    1.68020E+007   -2.88702E+006    1.55008E+007   -3.42290E+006    1.30916E+007   -1.00763E+006    3.43212E+005   -9.74711E+004   -1.97511E+006
            2122    1.45386E+007    1.20217E+007    1.20217E+007   -1.32920E+006   -3.46768E+006    1.54894E+007   -2.40827E+006    1.41782E+007   -3.45798E+006    1.17198E+007   -1.03698E+006    3.46467E+005   -1.07158E+005   -1.95750E+006
            2123    1.34849E+007    1.09816E+007    1.09816E+007   -1.31184E+006   -3.44134E+006    1.44230E+007   -2.07615E+006    1.30986E+007   -3.43193E+006    1.06974E+007   -1.03700E+006    3.39963E+005   -9.55126E+004   -1.81977E+006
            2124    1.25869E+007    1.01887E+007    1.01887E+007   -1.12080E+006   -3.37175E+006    1.35605E+007   -1.89873E+006    1.21216E+007   -3.36209E+006    9.96632E+006   -9.08050E+005    3.07255E+005   -1.12438E+005   -1.54359E+006
            2125    1.78306E+007    1.55274E+007    1.55274E+007   -1.67654E+006   -2.87005E+006    1.83974E+007   -3.66026E+006    1.77404E+007   -2.86907E+006    1.55189E+007   -1.66910E+006   -1.33977E+005    2.21655E+003   -3.57586E+005
            2126    1.64914E+007    1.42937E+007    1.42937E+007   -1.89637E+006   -2.48339E+006    1.67771E+007   -3.30464E+006    1.64679E+007   -2.48076E+006    1.42868E+007   -1.89209E+006   -2.09343E+005    4.57293E+002   -2.63640E+005
            2127    1.52785E+007    1.33426E+007    1.33426E+007   -1.88393E+006   -1.98720E+006    1.53298E+007   -3.15717E+006    1.52777E+007   -1.98663E+006    1.33391E+007   -1.88099E+006   -9.37870E+004    9.08745E+002   -2.11813E+005
            2128    1.43210E+007    1.26379E+007    1.26379E+007   -1.56799E+006   -1.79559E+006    1.44335E+007   -3.09144E+006    1.43170E+007   -1.56625E+006    1.26349E+007   -1.79436E+006   -1.57563E+005    2.93213E+002   -1.33086E+005
            2129    1.73936E+007    1.50890E+007    1.50890E+007   -1.64171E+006   -2.89926E+006    1.79883E+007   -3.51602E+006    1.72909E+007   -2.89829E+006    1.50291E+007   -1.58278E+006   -1.31373E+005    1.05249E+004   -9.91219E+005
            2130    1.61876E+007    1.39981E+007    1.39981E+007   -1.84415E+006   -2.51407E+006    1.65122E+007   -3.21331E+006    1.61564E+007   -2.51127E+006    1.39566E+007   -1.80538E+006   -2.06640E+005   -1.70745E+003   -7.84847E+005
            2131    1.50255E+007    1.31180E+007    1.31180E+007   -1.78732E+006   -2.02494E+006    1.51429E+007   -3.10191E+006    1.50213E+007   -2.02383E+006    1.30942E+007   -1.76465E+006   -9.29901E+004   -7.66599E+003   -5.87830E+005
            2132    1.40897E+007    1.24380E+007    1.24380E+007   -1.60900E+006   -1.69409E+006    1.41321E+007   -3.04497E+006    1.40892E+007   -1.61292E+006    1.24241E+007   -1.67624E+006   -1.55666E+005   -1.65798E+004   -4.15342E+005
            2133    1.66028E+007    1.42731E+007    1.42731E+007   -1.61716E+006   -2.96063E+006    1.72337E+007   -3.23176E+006    1.64798E+007   -2.95970E+006    1.41332E+007   -1.47819E+006   -1.24796E+005    1.55746E+004   -1.47955E+006
            2134    1.56045E+007    1.34490E+007    1.34490E+007   -1.71747E+006   -2.55933E+006    1.60083E+007   -3.05740E+006    1.55532E+007   -2.55657E+006    1.33506E+007   -1.62178E+006   -1.97977E+005   -7.93989E+002   -1.20283E+006
            2135    1.45301E+007    1.26683E+007    1.26683E+007   -1.61781E+006   -2.09415E+006    1.47624E+007   -2.98544E+006    1.45125E+007   -2.09349E+006    1.26065E+007   -1.55669E+006   -8.80886E+004   -2.21010E+003   -9.33475E+005
            2136    1.36468E+007    1.20650E+007    1.20650E+007   -1.46628E+006   -1.69447E+006    1.37594E+007   -2.96807E+006    1.36425E+007   -1.69072E+006    1.20337E+007   -1.43878E+006   -1.49523E+005   -1.50727E+004   -6.32787E+005
            2137    1.56229E+007    1.32760E+007    1.32760E+007   -1.56907E+006   -3.02300E+006    1.62990E+007   -2.89465E+006    1.54696E+007   -3.02207E+006    1.30653E+007   -1.35923E+006   -1.19036E+005    2.10073E+004   -1.75253E+006
            2138    1.47636E+007    1.26467E+007    1.26467E+007   -1.54106E+006   -2.63226E+006    1.52789E+007   -2.82445E+006    1.46725E+007   -2.62901E+006    1.24824E+007   -1.37998E+006   -1.94265E+005   -9.42540E+003   -1.50687E+006
            2139    1.38537E+007    1.20728E+007    1.20728E+007   -1.34654E+006   -2.17782E+006    1.42507E+007   -2.84949E+006    1.37974E+007   -2.17695E+006    1.19724E+007   -1.24695E+006   -8.45906E+004   -1.06225E+004   -1.15393E+006
            2140    1.30692E+007    1.15599E+007    1.15599E+007   -1.18704E+006   -1.80950E+006    1.33694E+007   -2.85444E+006    1.30358E+007   -1.80523E+006    1.15047E+007   -1.13612E+006   -1.47501E+005   -3.13518E+004   -8.24994E+005
            2141    1.44866E+007    1.21123E+007    1.21123E+007   -1.51940E+006   -3.09959E+006    1.52119E+007   -2.49778E+006    1.42908E+007   -3.09878E+006    1.18496E+007   -1.25742E+006   -1.00648E+005    2.73866E+004   -1.87185E+006
            2142    1.38656E+007    1.18327E+007    1.18327E+007   -1.27652E+006   -2.68224E+006    1.45149E+007   -2.62464E+006    1.37039E+007   -2.67945E+006    1.16256E+007   -1.07228E+006   -1.82178E+005   -5.33789E+003   -1.62557E+006
            2143    1.30756E+007    1.13730E+007    1.13730E+007   -1.04230E+006   -2.27543E+006    1.36485E+007   -2.68510E+006    1.29438E+007   -2.27496E+006    1.12381E+007   -9.07811E+005   -7.50295E+004   -1.01127E+003   -1.28544E+006
            2144    1.24021E+007    1.09785E+007    1.09785E+007   -8.46244E+005   -1.93001E+006    1.29085E+007   -2.73407E+006    1.22949E+007   -1.92729E+006    1.09047E+007   -7.75203E+005   -1.37198E+005   -2.69853E+004   -9.22102E+005
            2145    1.36550E+007    1.13214E+007    1.13214E+007   -1.39903E+006   -3.10736E+006    1.44288E+007   -2.27168E+006    1.34114E+007   -3.10657E+006    1.10477E+007   -1.12607E+006   -9.19920E+004    3.03511E+004   -1.84378E+006
            2146    1.29322E+007    1.09843E+007    1.09843E+007   -9.63809E+005   -2.74695E+006    1.37312E+007   -2.42450E+006    1.26512E+007   -2.74355E+006    1.07613E+007   -7.44263E+005   -1.88169E+005   -1.50739E+004   -1.60785E+006
            2147    1.23822E+007    1.07372E+007    1.07372E+007   -7.61439E+005   -2.37127E+006    1.31084E+007   -2.53482E+006    1.21435E+007   -2.37080E+006    1.05918E+007   -6.16556E+005   -7.29304E+004   -2.38359E+003   -1.28285E+006
            2148    1.17597E+007    1.04070E+007    1.04070E+007   -5.03857E+005   -2.04881E+006    1.24558E+007   -2.61810E+006    1.15280E+007   -2.04647E+006    1.03158E+007   -4.15019E+005   -1.28810E+005   -2.90960E+004   -9.86347E+005
            2149    1.26139E+007    1.04617E+007    1.04617E+007   -9.34645E+005   -3.09157E+006    1.35533E+007   -2.14516E+006    1.21886E+007   -3.09057E+006    1.02076E+007   -6.81562E+005   -4.28655E+004    4.90513E+004   -1.68205E+006
            2150    1.25416E+007    1.05878E+007    1.05878E+007   -8.90852E+005   -2.79828E+006    1.33861E+007   -2.29956E+006    1.22089E+007   -2.79597E+006    1.04020E+007   -7.07320E+005   -1.61364E+005   -7.90784E+003   -1.44132E+006
            2151    1.18458E+007    1.02444E+007    1.02444E+007   -5.00443E+005   -2.45845E+006    1.27028E+007   -2.42850E+006    1.14733E+007   -2.45773E+006    1.00716E+007   -3.28339E+005   -8.66986E+004   -6.15587E+003   -1.34948E+006
            2152    1.11142E+007    9.80195E+006    9.80195E+006   -1.82994E+005   -2.17269E+006    1.19746E+007   -2.48209E+006    1.07024E+007   -2.17120E+006    9.69673E+006   -7.92700E+004   -1.07033E+005   -2.34297E+004   -1.01521E+006
            2153    1.04565E+007    9.20506E+006    9.20506E+006    2.05584E+005   -2.26573E+006    1.14708E+007   -2.38164E+006    9.76647E+006   -2.26503E+006    9.10152E+006    3.08426E+005   -8.86128E+004    2.11729E+003   -9.56594E+005
            2154    1.12084E+007    9.56293E+006    9.56293E+006   -3.32794E+005   -2.60878E+006    1.21717E+007   -2.20712E+006    1.06697E+007   -2.60786E+006    9.35625E+006   -1.27042E+005   -1.04876E+005    1.36192E+004   -1.41193E+006
            2155    1.23186E+007    1.04080E+007    1.04080E+007   -7.38931E+005   -2.81776E+006    1.32258E+007   -2.28378E+006    1.19144E+007   -2.81663E+006    1.00999E+007   -4.31906E+005   -1.16281E+005    2.99134E+004   -1.82437E+006
            2156    1.36130E+007    1.13257E+007    1.13257E+007   -1.42105E+006   -3.01346E+006    1.43392E+007   -2.29707E+006    1.34011E+007   -3.01224E+006    1.11022E+007   -1.19873E+006   -1.20057E+005    3.20618E+004   -1.66919E+006
            2157    1.88268E+007    1.69066E+007    1.69066E+007   -8.03599E+005   -2.86675E+006    1.97734E+007   -4.41210E+006    1.85699E+007   -2.86611E+006    1.68946E+007   -7.92221E+005   -1.11697E+005    5.38339E+003   -4.48822E+005
            2158    1.81427E+007    1.60878E+007    1.60878E+007   -9.40015E+005   -2.99496E+006    1.90827E+007   -4.05093E+006    1.78781E+007   -2.99419E+006    1.59959E+007   -8.48933E+005   -1.14956E+005    1.96769E+004   -1.24242E+006
            2159    1.70716E+007    1.48404E+007    1.48404E+007   -1.11891E+006   -3.16007E+006    1.80004E+007   -3.52046E+006    1.67938E+007   -3.15917E+006    1.46526E+007   -9.32040E+005   -1.18673E+005    2.64338E+004   -1.71714E+006
            2160    1.57858E+007    1.33661E+007    1.33661E+007   -1.32524E+006   -3.32385E+006    1.66899E+007   -2.90566E+006    1.54973E+007   -3.32276E+006    1.31100E+007   -1.07029E+006   -1.23781E+005    3.19265E+004   -1.91888E+006
            2161    1.45696E+007    1.20170E+007    1.20170E+007   -1.48674E+006   -3.42448E+006    1.54415E+007   -2.36859E+006    1.42754E+007   -3.42331E+006    1.17488E+007   -1.21970E+006   -1.26972E+005    3.07449E+004   -1.88031E+006
            2162    1.33923E+007    1.07019E+007    1.07019E+007   -1.65463E+006   -3.52860E+006    1.42305E+007   -1.83957E+006    1.30924E+007   -3.52731E+006    1.04815E+007   -1.43543E+006   -1.32330E+005    2.40734E+004   -1.63111E+006
            2163    1.33671E+007    1.05487E+007    1.05487E+007   -2.04206E+006   -3.47880E+006    1.40275E+007   -1.67594E+006    1.31917E+007   -3.47732E+006    1.04060E+007   -1.90084E+006   -1.42719E+005    1.00067E+004   -1.32595E+006
            2164    1.00423E+007    9.06575E+006    9.06575E+006    4.71411E+005   -1.97319E+006    1.10389E+007   -2.52132E+006    9.33701E+006   -1.97275E+006    9.03088E+006    5.05835E+005   -6.48290E+004   -8.98619E+003   -5.43369E+005
            2165    9.84284E+006    9.04676E+006    9.04676E+006    6.09109E+005   -1.76646E+006    1.08132E+007   -2.62980E+006    9.16395E+006   -1.76624E+006    9.04034E+006    6.15305E+005   -3.42576E+004   -1.57406E+004   -2.30724E+005
            2166    9.81000E+006    9.05370E+006    9.05370E+006    5.96323E+005   -1.70114E+006    1.07548E+007   -2.64963E+006    9.17494E+006   -1.70099E+006    9.05370E+006    5.96174E+005   -6.34790E+002   -1.84616E+004    7.80618E+000
            2167    9.83927E+006    9.04099E+006    9.04099E+006    5.99811E+005   -1.76527E+006    1.08063E+007   -2.62518E+006    9.16641E+006   -1.76505E+006    9.03503E+006    6.05557E+005    3.34953E+004   -1.59223E+004    2.22434E+005
            2168    1.00416E+007    9.06550E+006    9.06550E+006    4.66172E+005   -1.97000E+006    1.10355E+007   -2.52056E+006    9.34130E+006   -1.96956E+006    9.02999E+006    5.01250E+005    6.45793E+004   -8.75565E+003    5.48623E+005
            2169    1.04662E+007    9.19373E+006    9.19373E+006    1.52374E+005   -2.27179E+006    1.14655E+007   -2.35810E+006    9.80419E+006   -2.27110E+006    9.09625E+006    2.49161E+005    8.78190E+004    2.03459E+003    9.30506E+005
            2170    1.12093E+007    9.57950E+006    9.57950E+006   -3.25112E+005   -2.58891E+006    1.21684E+007   -2.22183E+006    1.06766E+007   -2.58798E+006    9.39246E+006   -1.38999E+005    1.05300E+005    1.55855E+004    1.34483E+006
            2171    1.20502E+007    1.00276E+007    1.00276E+007   -9.05945E+005   -2.89243E+006    1.29200E+007   -2.07639E+006    1.16733E+007   -2.89138E+006    9.82719E+006   -7.06627E+005    1.11811E+005    2.50058E+004    1.46281E+006
            2172    1.21962E+007    9.88111E+006    9.88111E+006   -1.17855E+006   -3.19917E+006    1.30803E+007   -1.83447E+006    1.18107E+007   -3.19774E+006    9.71493E+006   -1.01379E+006    1.35412E+005    1.06433E+004    1.33978E+006
            2173    1.05714E+007    9.53626E+006    9.53626E+006    1.24305E+005   -1.90147E+006    1.14377E+007   -2.58636E+006    1.01208E+007   -1.90073E+006    9.49284E+006    1.66980E+005   -5.27314E+004   -2.90045E+004   -6.36169E+005
            2174    1.12130E+007    1.00905E+007    1.00905E+007   -3.04411E+005   -1.79207E+006    1.18825E+007   -2.66467E+006    1.09877E+007   -1.79124E+006    1.00503E+007   -2.65103E+005   -3.91144E+004   -3.00908E+004   -6.43728E+005
            2175    1.18702E+007    1.06724E+007    1.06724E+007   -6.82759E+005   -1.65313E+006    1.23256E+007   -2.77885E+006    1.17804E+007   -1.65233E+006    1.06421E+007   -6.53254E+005   -2.89649E+004   -2.52742E+004   -5.85245E+005
            2176    1.24945E+007    1.12055E+007    1.12055E+007   -1.04541E+006   -1.51920E+006    1.27247E+007   -2.88029E+006    1.24743E+007   -1.51700E+006    1.11859E+007   -1.02803E+006   -2.39155E+004   -3.09712E+004   -4.88859E+005
            2177    1.30570E+007    1.16771E+007    1.16771E+007   -1.35857E+006   -1.40111E+006    1.30782E+007   -2.97247E+006    1.30568E+007   -1.39439E+006    1.16662E+007   -1.35443E+006   -1.52283E+004   -1.50649E+004   -3.75815E+005
            2178    1.34739E+007    1.20242E+007    1.20242E+007   -1.30517E+006   -1.58974E+006    1.36139E+007   -3.04309E+006    1.34671E+007   -1.30634E+006    1.20205E+007   -1.58486E+006   -1.20896E+004   -1.80642E+004   -2.24356E+005
            2179    1.36998E+007    1.22080E+007    1.22080E+007   -1.25923E+006   -1.71303E+006    1.39211E+007   -3.07859E+006    1.36829E+007   -1.25922E+006    1.22075E+007   -1.71249E+006   -8.73526E+003    6.29574E+001   -8.71669E+004
            2180    1.03069E+007    9.41388E+006    9.41388E+006    2.42532E+005   -1.74037E+006    1.11542E+007   -2.63868E+006    9.86392E+006   -1.73954E+006    9.40434E+006    2.51242E+005   -3.88461E+004   -3.60517E+004   -2.93649E+005
            2181    1.08969E+007    9.92463E+006    9.92463E+006   -1.50802E+005   -1.64046E+006    1.15651E+007   -2.71112E+006    1.06642E+007   -1.63902E+006    9.91618E+006   -1.43793E+005   -4.56584E+004   -4.21862E+004   -2.88712E+005
            2182    1.15605E+007    1.04833E+007    1.04833E+007   -5.79954E+005   -1.51735E+006    1.20006E+007   -2.79532E+006    1.14745E+007   -1.51561E+006    1.04778E+007   -5.76177E+005   -4.87117E+004   -3.70874E+004   -2.42820E+005
            2183    1.22178E+007    1.10324E+007    1.10324E+007   -9.70974E+005   -1.38901E+006    1.24214E+007   -2.89081E+006    1.22017E+007   -1.38466E+006    1.10295E+007   -9.72371E+005   -5.18777E+004   -4.06071E+004   -1.81398E+005
            2184    1.27850E+007    1.14988E+007    1.14988E+007   -1.25943E+006   -1.31272E+006    1.28115E+007   -2.97555E+006    1.27847E+007   -1.26964E+006    1.14975E+007   -1.30126E+006   -5.25868E+004   -2.06639E+004   -1.15239E+005
            2185    1.32239E+007    1.18519E+007    1.18519E+007   -1.18641E+006   -1.55010E+006    1.34020E+007   -3.03846E+006    1.32126E+007   -1.18754E+006    1.18513E+007   -1.54836E+006   -5.43593E+004   -2.18425E+004   -7.22897E+004
            2186    1.34503E+007    1.20349E+007    1.20349E+007   -1.14296E+006   -1.67215E+006    1.37070E+007   -3.07326E+006    1.34268E+007   -1.14274E+006    1.20346E+007   -1.67213E+006   -5.45551E+004    5.34442E+002   -1.69444E+004
            2187    1.02077E+007    9.37405E+006    9.37405E+006    3.04828E+005   -1.68043E+006    1.10545E+007   -2.66615E+006    9.75906E+006   -1.67980E+006    9.37402E+006    3.04232E+005    4.75477E+003   -3.53034E+004    1.71178E+004
            2188    1.07953E+007    9.85795E+006    9.85795E+006   -1.21490E+005   -1.60059E+006    1.14585E+007   -2.71196E+006    1.05637E+007   -1.59956E+006    9.85759E+006   -1.22162E+005    1.31575E+004   -3.87385E+004    5.88796E+004
            2189    1.14689E+007    1.04264E+007    1.04264E+007   -5.45004E+005   -1.48242E+006    1.19089E+007   -2.79967E+006    1.13822E+007   -1.48131E+006    1.04255E+007   -5.45131E+005    2.08649E+004   -3.15459E+004    1.01997E+005
            2190    1.21489E+007    1.09844E+007    1.09844E+007   -9.53642E+005   -1.36492E+006    1.23493E+007   -2.88860E+006    1.21332E+007   -1.36174E+006    1.09829E+007   -9.55332E+005    2.83722E+004   -3.53702E+004    1.30631E+005
            2191    1.27603E+007    1.14837E+007    1.14837E+007   -1.24694E+006   -1.30619E+006    1.27898E+007   -2.97684E+006    1.27600E+007   -1.25258E+006    1.14823E+007   -1.29920E+006    3.49129E+004   -1.71750E+004    1.26465E+005
            2192    1.32110E+007    1.18469E+007    1.18469E+007   -1.17329E+006   -1.54706E+006    1.33939E+007   -3.04217E+006    1.31991E+007   -1.17424E+006    1.18460E+007   -1.54529E+006    3.93528E+004   -1.96925E+004    9.66312E+004
            2193    1.34564E+007    1.20435E+007    1.20435E+007   -1.13259E+006   -1.67663E+006    1.37202E+007   -3.07811E+006    1.34316E+007   -1.13245E+006    1.20433E+007   -1.67657E+006    4.21992E+004    6.31375E+002    2.87699E+004
            2194    1.03064E+007    9.40430E+006    9.40430E+006    2.44742E+005   -1.75561E+006    1.11599E+007   -2.63114E+006    9.85532E+006   -1.75484E+006    9.39193E+006    2.56336E+005    3.58231E+004   -3.53179E+004    3.34950E+005
            2195    1.09270E+007    9.92207E+006    9.92207E+006   -1.64953E+005   -1.68563E+006    1.16077E+007   -2.69050E+006    1.06851E+007   -1.68428E+006    9.90557E+006   -1.49805E+005    4.08993E+004   -4.14046E+004    4.06002E+005
            2196    1.16464E+007    1.05197E+007    1.05197E+007   -5.98960E+005   -1.59101E+006    1.21107E+007   -2.77656E+006    1.15507E+007   -1.58940E+006    1.05017E+007   -5.82582E+005    4.74105E+004   -3.58565E+004    4.44729E+005
            2197    1.23774E+007    1.11226E+007    1.11226E+007   -1.00235E+006   -1.49271E+006    1.26153E+007   -2.87586E+006    1.23556E+007   -1.48884E+006    1.11066E+007   -9.90141E+005    5.60073E+004   -4.00632E+004    4.38006E+005
            2198    1.30298E+007    1.16564E+007    1.16564E+007   -1.33910E+006   -1.40738E+006    1.30638E+007   -2.96999E+006    1.30294E+007   -1.39891E+006    1.16453E+007   -1.33638E+006    6.22780E+004   -2.03781E+004    3.76148E+005
            2199    1.35233E+007    1.20582E+007    1.20582E+007   -1.33144E+006   -1.59501E+006    1.36532E+007   -3.04392E+006    1.35176E+007   -1.33307E+006    1.20533E+007   -1.58849E+006    6.82669E+004   -2.15292E+004    2.48772E+005
            2200    1.37847E+007    1.22704E+007    1.22704E+007   -1.29971E+006   -1.71918E+006    1.39896E+007   -3.08385E+006    1.37703E+007   -1.29934E+006    1.22695E+007   -1.71861E+006    7.11153E+004   -8.92111E+001    8.85044E+004
            2201    1.05797E+007    9.50938E+006    9.50938E+006    9.90815E+004   -1.94225E+006    1.14516E+007   -2.55540E+006    1.01223E+007   -1.94145E+006    9.46063E+006    1.47030E+005    6.33859E+004   -2.65680E+004    6.73290E+005
            2202    1.12665E+007    1.00889E+007    1.00889E+007   -3.18196E+005   -1.87504E+006    1.19639E+007   -2.63188E+006    1.10206E+007   -1.87404E+006    1.00331E+007   -2.63384E+005    6.44818E+004   -2.78094E+004    7.57905E+005
            2203    1.20205E+007    1.07272E+007    1.07272E+007   -7.23806E+005   -1.79150E+006    1.25187E+007   -2.73729E+006    1.19131E+007   -1.79065E+006    1.06729E+007   -6.70400E+005    6.49896E+004   -1.93297E+004    7.84031E+005
            2204    1.28029E+007    1.13819E+007    1.13819E+007   -1.11357E+006   -1.70774E+006    1.30896E+007   -2.85353E+006    1.27718E+007   -1.70592E+006    1.13363E+007   -1.06981E+006    7.14043E+004   -2.49921E+004    7.50178E+005
            2205    1.35091E+007    1.19753E+007    1.19753E+007   -1.43773E+006   -1.62785E+006    1.36031E+007   -2.96990E+006    1.35061E+007   -1.62671E+006    1.19462E+007   -1.40983E+006    7.29163E+004   -8.55598E+003    6.19167E+005
            2206    1.40306E+007    1.24117E+007    1.24117E+007   -1.56803E+006   -1.66928E+006    1.40810E+007   -3.05812E+006    1.40298E+007   -1.57020E+006    1.23993E+007   -1.65477E+006    7.70685E+004   -1.37690E+004    4.09371E+005
            2207    1.43148E+007    1.26500E+007    1.26500E+007   -1.54151E+006   -1.78493E+006    1.44349E+007   -3.10785E+006    1.43101E+007   -1.54110E+006    1.26483E+007   -1.78360E+006    7.76875E+004    2.52178E+003    1.37441E+005
            2208    1.10973E+007    9.75937E+006    9.75937E+006   -1.78698E+005   -2.21515E+006    1.19745E+007   -2.45518E+006    1.06647E+007   -2.21387E+006    9.64962E+006   -7.02223E+004    1.00445E+005   -2.07662E+004    1.03483E+006
            2209    1.17898E+007    1.03570E+007    1.03570E+007   -5.35732E+005   -2.16109E+006    1.25181E+007   -2.55340E+006    1.15337E+007   -2.15904E+006    1.02468E+007   -4.27495E+005    1.20466E+005   -2.74686E+004    1.08511E+006
            2210    1.26084E+007    1.10631E+007    1.10631E+007   -9.06534E+005   -2.09932E+006    1.31624E+007   -2.68574E+006    1.24805E+007   -2.09690E+006    1.09556E+007   -8.01503E+005    1.34831E+005   -2.35662E+004    1.12206E+006
            2211    1.34697E+007    1.18035E+007    1.18035E+007   -1.26140E+006   -2.03731E+006    1.38408E+007   -2.83494E+006    1.34192E+007   -2.03336E+006    1.17179E+007   -1.17968E+006    1.53178E+005   -3.02137E+004    1.04450E+006
            2212    1.42248E+007    1.24577E+007    1.24577E+007   -1.54601E+006   -1.97842E+006    1.44361E+007   -2.97775E+006    1.42100E+007   -1.97531E+006    1.24031E+007   -1.49457E+006    1.63929E+005   -1.33999E+004    8.57589E+005
            2213    1.48019E+007    1.29592E+007    1.29592E+007   -1.74675E+006   -1.93687E+006    1.48961E+007   -3.09186E+006    1.47992E+007   -1.93213E+006    1.29357E+007   -1.72798E+006    1.75400E+005   -1.58016E+004    5.61434E+005
            2214    1.51107E+007    1.32264E+007    1.32264E+007   -1.85321E+006   -1.91530E+006    1.51417E+007   -3.15263E+006    1.51104E+007   -1.91305E+006    1.32218E+007   -1.85090E+006    1.80213E+005   -2.28397E+002    1.90639E+005
            2215    1.17029E+007    1.00433E+007    1.00433E+007   -5.29398E+005   -2.53151E+006    1.25748E+007   -2.32747E+006    1.13080E+007   -2.53065E+006    9.88003E+006   -3.66958E+005    9.63796E+004   -4.73024E+003    1.30091E+006
            2216    1.23848E+007    1.06609E+007    1.06609E+007   -7.95318E+005   -2.48012E+006    1.31410E+007   -2.46180E+006    1.21230E+007   -2.47947E+006    1.04828E+007   -6.17921E+005    8.89116E+004    1.47080E+003    1.41469E+006
            2217    1.32993E+007    1.14749E+007    1.14749E+007   -1.11962E+006   -2.43187E+006    1.39067E+007   -2.64113E+006    1.31524E+007   -2.43129E+006    1.13109E+007   -9.56180E+005    8.91129E+004    8.46085E+003    1.42537E+006
            2218    1.42134E+007    1.22937E+007    1.22937E+007   -1.39966E+006   -2.38799E+006    1.46817E+007   -2.83536E+006    1.41357E+007   -2.38714E+006    1.21631E+007   -1.26989E+006    1.02495E+005   -1.81753E+003    1.32741E+006
            2219    1.50637E+007    1.30620E+007    1.30620E+007   -1.63550E+006   -2.34293E+006    1.54049E+007   -3.02785E+006    1.50262E+007   -2.34217E+006    1.29802E+007   -1.55445E+006    1.07266E+005    6.47818E+003    1.08841E+006
            2220    1.56967E+007    1.36378E+007    1.36378E+007   -1.79264E+006   -2.31222E+006    1.59500E+007   -3.17765E+006    1.56773E+007   -2.31129E+006    1.36037E+007   -1.75947E+006    1.15678E+005   -1.70224E+003    7.15700E+005
            2221    1.60635E+007    1.39720E+007    1.39720E+007   -1.87452E+006   -2.30002E+006    1.62720E+007   -3.26582E+006    1.60508E+007   -2.29914E+006    1.39673E+007   -1.87070E+006    1.18948E+005    3.66938E+003    2.46357E+005
            2222    1.22132E+007    1.02440E+007    1.02440E+007   -8.31279E+005   -2.85458E+006    1.30985E+007   -2.18604E+006    1.18273E+007   -2.85290E+006    1.00233E+007   -6.12325E+005    1.42333E+005    2.43743E+003    1.54219E+006
            2223    1.30346E+007    1.09986E+007    1.09986E+007   -1.07430E+006   -2.82140E+006    1.38200E+007   -2.36765E+006    1.27672E+007   -2.81791E+006    1.07651E+007   -8.44245E+005    1.84612E+005   -1.91257E+004    1.65450E+006
            2224    1.39382E+007    1.18417E+007    1.18417E+007   -1.27719E+006   -2.79203E+006    1.46337E+007   -2.59083E+006    1.37512E+007   -2.78958E+006    1.16195E+007   -1.05747E+006    1.76800E+005   -1.13935E+001    1.68472E+006
            2225    1.49832E+007    1.28150E+007    1.28150E+007   -1.49209E+006   -2.76332E+006    1.55783E+007   -2.85319E+006    1.48611E+007   -2.76034E+006    1.26334E+007   -1.31347E+006    1.94077E+005   -6.15894E+003    1.59117E+006
            2226    1.59266E+007    1.37106E+007    1.37106E+007   -1.64915E+006   -2.72789E+006    1.64385E+007   -3.11120E+006    1.58441E+007   -2.72532E+006    1.35936E+007   -1.53472E+006    1.96357E+005    1.10917E+003    1.32208E+006
            2227    1.66769E+007    1.44294E+007    1.44294E+007   -1.75630E+006   -2.69861E+006    1.71280E+007   -3.32484E+006    1.66168E+007   -2.69608E+006    1.43786E+007   -1.70800E+006    2.04995E+005    2.36959E+003    8.83576E+005
            2228    1.71087E+007    1.48469E+007    1.48469E+007   -1.80398E+006   -2.68544E+006    1.75324E+007   -3.45250E+006    1.70575E+007   -2.68295E+006    1.48388E+007   -1.79832E+006    2.07823E+005   -1.36288E+003    3.07752E+005
            2229    1.27209E+007    1.04735E+007    1.04735E+007   -1.16405E+006   -3.10713E+006    1.35807E+007   -2.06745E+006    1.23804E+007   -3.10470E+006    1.02298E+007   -9.22691E+005    3.83902E+004    7.23648E+004    1.66618E+006
            2230    1.33814E+007    1.11162E+007    1.11162E+007   -1.21230E+006   -3.11457E+006    1.42308E+007   -2.26310E+006    1.30720E+007   -3.11384E+006    1.08489E+007   -9.45768E+005    9.24352E+004    2.67607E+004    1.79327E+006
            2231    1.44477E+007    1.21307E+007    1.21307E+007   -1.37290E+006   -3.10492E+006    1.52356E+007   -2.55097E+006    1.42113E+007   -3.10405E+006    1.18621E+007   -1.10512E+006    9.98286E+004    3.16032E+004    1.88318E+006
            2232    1.55631E+007    1.32352E+007    1.32352E+007   -1.44696E+006   -3.08011E+006    1.63153E+007   -2.90271E+006    1.53686E+007   -3.07917E+006    1.30067E+007   -1.21940E+006    1.19207E+005    2.36823E+004    1.81378E+006
            2233    1.67002E+007    1.43873E+007    1.43873E+007   -1.49737E+006   -3.02368E+006    1.74110E+007   -3.28875E+006    1.65422E+007   -3.02275E+006    1.42298E+007   -1.34077E+006    1.25494E+005    1.60223E+004    1.56939E+006
            2234    1.76196E+007    1.53362E+007    1.53362E+007   -1.51266E+006   -2.96431E+006    1.83005E+007   -3.61973E+006    1.74843E+007   -2.96332E+006    1.52662E+007   -1.44365E+006    1.32971E+005    1.30973E+004    1.07619E+006
            2235    1.81572E+007    1.58930E+007    1.58930E+007   -1.52069E+006   -2.92608E+006    1.88191E+007   -3.81542E+006    1.80343E+007   -2.92512E+006    1.58834E+007   -1.51197E+006    1.34107E+005    1.11142E+003    3.89498E+005
            2236    1.89103E+007    1.70144E+007    1.70144E+007   -7.43157E+005   -2.86897E+006    1.98834E+007   -4.46742E+006    1.86386E+007   -2.86852E+006    1.70012E+007   -7.30433E+005    9.36615E+004    7.38147E+003    4.75373E+005
            2237    1.82124E+007    1.61631E+007    1.61631E+007   -9.12435E+005   -3.00546E+006    1.91685E+007   -4.08172E+006    1.79389E+007   -3.00480E+006    1.60645E+007   -8.14563E+005    9.90475E+004    2.40461E+004    1.28988E+006
            2238    1.70666E+007    1.48153E+007    1.48153E+007   -1.12905E+006   -3.18705E+006    1.80023E+007   -3.49972E+006    1.67841E+007   -3.18617E+006    1.46118E+007   -9.26469E+005    1.08227E+005    3.24025E+004    1.78660E+006
            2239    1.58020E+007    1.33949E+007    1.33949E+007   -1.29934E+006   -3.32026E+006    1.67152E+007   -2.92511E+006    1.55072E+007   -3.31910E+006    1.31153E+007   -1.02085E+006    1.17058E+005    4.03345E+004    2.00460E+006
            2240    1.45392E+007    1.20654E+007    1.20654E+007   -1.35178E+006   -3.38239E+006    1.54478E+007   -2.44375E+006    1.42150E+007   -3.38116E+006    1.17603E+007   -1.04793E+006    1.26415E+005    3.59181E+004    1.99649E+006
            2241    1.34973E+007    1.10256E+007    1.10256E+007   -1.33846E+006   -3.37365E+006    1.43993E+007   -2.10450E+006    1.31454E+007   -3.37221E+006    1.07331E+007   -1.04738E+006    1.32769E+005    3.78829E+004    1.87501E+006
            2242    1.25746E+007    1.01826E+007    1.01826E+007   -1.17376E+006   -3.33107E+006    1.35136E+007   -1.89258E+006    1.21477E+007   -3.32925E+006    9.95073E+006   -9.43747E+005    1.54981E+005    1.31023E+004    1.59977E+006
            2243    1.35944E+007    1.12958E+007    1.12958E+007   -1.43441E+006   -3.02317E+006    1.43190E+007   -2.27941E+006    1.33832E+007   -3.02195E+006    1.10753E+007   -1.21513E+006   -1.19335E+005   -3.23352E+004    1.65692E+006
            2244    1.23611E+007    1.04432E+007    1.04432E+007   -7.56609E+005   -2.81964E+006    1.32628E+007   -2.28898E+006    1.19646E+007   -2.81850E+006    1.01339E+007   -4.48448E+005   -1.16868E+005   -3.02976E+004    1.83211E+006
            2245    1.12309E+007    9.58195E+006    9.58195E+006   -3.38360E+005   -2.61168E+006    1.21936E+007   -2.21063E+006    1.06947E+007   -2.61076E+006    9.37197E+006   -1.29302E+005   -1.05069E+005   -1.36522E+004    1.42479E+006
            2246    1.04660E+007    9.21423E+006    9.21423E+006    2.03408E+005   -2.26547E+006    1.14797E+007   -2.38406E+006    9.77807E+006   -2.26476E+006    9.10921E+006    3.07725E+005   -8.88875E+004   -2.12844E+003    9.63965E+005
            2247    1.11322E+007    9.81830E+006    9.81830E+006   -1.88130E+005   -2.17275E+006    1.19910E+007   -2.48581E+006    1.07233E+007   -2.17125E+006    9.71230E+006   -8.36212E+004   -1.06979E+005    2.34488E+004    1.02011E+006
            2248    1.17904E+007    1.04327E+007    1.04327E+007   -5.16941E+005   -2.04861E+006    1.24813E+007   -2.62239E+006    1.15634E+007   -2.04626E+006    1.03412E+007   -4.27745E+005   -1.28868E+005    2.92055E+004    9.90146E+005
            2249    1.24292E+007    1.10018E+007    1.10018E+007   -8.58217E+005   -1.92763E+006    1.29294E+007   -2.73864E+006    1.23251E+007   -1.92493E+006    1.09285E+007   -7.87620E+005   -1.36960E+005    2.66388E+004    9.20586E+005
            2250    1.30905E+007    1.15795E+007    1.15795E+007   -1.19610E+006   -1.80454E+006    1.33841E+007   -2.85964E+006    1.30586E+007   -1.80028E+006    1.15253E+007   -1.14611E+006   -1.47091E+005    3.10343E+004    8.18725E+005
            2251    1.36662E+007    1.20808E+007    1.20808E+007   -1.47496E+006   -1.69342E+006    1.37742E+007   -2.97079E+006    1.36623E+007   -1.68955E+006    1.20500E+007   -1.44805E+006   -1.50767E+005    1.49989E+004    6.27805E+005
            2252    1.41044E+007    1.24504E+007    1.24504E+007   -1.61012E+006   -1.69751E+006    1.41479E+007   -3.04758E+006    1.41038E+007   -1.61371E+006    1.24367E+007   -1.68021E+006   -1.57061E+005    1.63489E+004    4.11246E+005
            2253    1.43232E+007    1.26391E+007    1.26391E+007   -1.56903E+006   -1.79652E+006    1.44356E+007   -3.09119E+006    1.43192E+007   -1.56728E+006    1.26362E+007   -1.79535E+006   -1.57744E+005   -6.86641E+002    1.29949E+005
            2254    1.18730E+007    1.02659E+007    1.02659E+007   -5.10954E+005   -2.46169E+006    1.27275E+007   -2.43107E+006    1.15041E+007   -2.46096E+006    1.00924E+007   -3.38176E+005   -8.75274E+004    5.86877E+003    1.35410E+006
            2255    1.24142E+007    1.07623E+007    1.07623E+007   -7.72403E+005   -2.37566E+006    1.31380E+007   -2.53808E+006    1.21780E+007   -2.37519E+006    1.06152E+007   -6.25777E+005   -7.39406E+004    1.92159E+003    1.29247E+006
            2256    1.31279E+007    1.14169E+007    1.14169E+007   -1.06038E+006   -2.27701E+006    1.36939E+007   -2.69315E+006    1.30002E+007   -2.27652E+006    1.12818E+007   -9.25867E+005   -7.68053E+004    1.22326E+003    1.28883E+006
            2257    1.38859E+007    1.21006E+007    1.21006E+007   -1.35790E+006   -2.17646E+006    1.42771E+007   -2.85542E+006    1.38315E+007   -2.17556E+006    1.20013E+007   -1.25949E+006   -8.57003E+004    1.09071E+004    1.14897E+006
            2258    1.45463E+007    1.26847E+007    1.26847E+007   -1.62036E+006   -2.09126E+006    1.47760E+007   -2.99104E+006    1.45291E+007   -2.09061E+006    1.26241E+007   -1.56039E+006   -8.79129E+004    2.07034E+003    9.25262E+005
            2259    1.50373E+007    1.31275E+007    1.31275E+007   -1.79065E+006   -2.02626E+006    1.51538E+007   -3.10353E+006    1.50332E+007   -2.02513E+006    1.31042E+007   -1.76851E+006   -9.33965E+004    7.78822E+003    5.81315E+005
            2260    1.52865E+007    1.33496E+007    1.33496E+007   -1.88497E+006   -1.98832E+006    1.53379E+007   -3.15878E+006    1.52858E+007   -1.98774E+006    1.33462E+007   -1.88215E+006   -9.37954E+004   -7.06475E+002    2.07295E+005
            2261    1.25363E+007    1.05796E+007    1.05796E+007   -8.90176E+005   -2.80318E+006    1.33828E+007   -2.29542E+006    1.22014E+007   -2.80085E+006    1.03925E+007   -7.05421E+005   -1.61810E+005    8.10497E+003    1.44549E+006
            2262    1.29794E+007    1.10234E+007    1.10234E+007   -9.79406E+005   -2.75075E+006    1.37741E+007   -2.43107E+006    1.27032E+007   -2.74733E+006    1.07986E+007   -7.58078E+005   -1.88629E+005    1.51880E+004    1.61804E+006
            2263    1.39145E+007    1.18742E+007    1.18742E+007   -1.28952E+006   -2.68584E+006    1.45600E+007   -2.63294E+006    1.37555E+007   -2.68308E+006    1.16668E+007   -1.08495E+006   -1.82155E+005    4.70552E+003    1.63019E+006
            2264    1.48032E+007    1.26840E+007    1.26840E+007   -1.54714E+006   -2.63162E+006    1.53156E+007   -2.83509E+006    1.47135E+007   -2.62835E+006    1.25213E+007   -1.38772E+006   -1.95414E+005    9.38639E+003    1.50154E+006
            2265    1.56099E+007    1.34535E+007    1.34535E+007   -1.71878E+006   -2.55988E+006    1.60134E+007   -3.05829E+006    1.55588E+007   -2.55712E+006    1.33560E+007   -1.62396E+006   -1.98469E+005    6.24136E+002    1.19756E+006
            2266    1.61996E+007    1.40099E+007    1.40099E+007   -1.84447E+006   -2.51418E+006    1.65240E+007   -3.21707E+006    1.61684E+007   -2.51138E+006    1.39682E+007   -1.80566E+006   -2.07170E+005    1.76358E+003    7.85568E+005
            2267    1.65011E+007    1.43022E+007    1.43022E+007   -1.89797E+006   -2.48430E+006    1.67865E+007   -3.30664E+006    1.64777E+007   -2.48167E+006    1.42954E+007   -1.89383E+006   -2.09462E+005   -7.20589E+002    2.59246E+005
            2268    1.26364E+007    1.04813E+007    1.04813E+007   -9.45122E+005   -3.09042E+006    1.35717E+007   -2.14859E+006    1.22166E+007   -3.08941E+006    1.02245E+007   -6.89324E+005   -4.16605E+004   -4.92063E+004    1.69315E+006
            2269    1.36693E+007    1.13341E+007    1.13341E+007   -1.40107E+006   -3.10883E+006    1.44429E+007   -2.27473E+006    1.34262E+007   -3.10803E+006    1.10619E+007   -1.12967E+006   -9.27801E+004   -3.07042E+004    1.83972E+006
            2270    1.45234E+007    1.21485E+007    1.21485E+007   -1.52042E+006   -3.10013E+006    1.52487E+007   -2.50933E+006    1.43282E+007   -3.09932E+006    1.18874E+007   -1.26011E+006   -1.00712E+005   -2.72792E+004    1.86861E+006
            2271    1.56406E+007    1.32965E+007    1.32965E+007   -1.56315E+006   -3.02273E+006    1.63193E+007   -2.90355E+006    1.54863E+007   -3.02180E+006    1.30865E+007   -1.35407E+006   -1.19238E+005   -2.08900E+004    1.75024E+006
            2272    1.66240E+007    1.42984E+007    1.42984E+007   -1.61169E+006   -2.95773E+006    1.72561E+007   -3.24298E+006    1.65007E+007   -2.95680E+006    1.41594E+007   -1.47364E+006   -1.24722E+005   -1.54594E+004    1.47561E+006
            2273    1.74043E+007    1.51012E+007    1.51012E+007   -1.64088E+006   -2.89720E+006    1.79984E+007   -3.52104E+006    1.73018E+007   -2.89623E+006    1.50415E+007   -1.58209E+006   -1.31594E+005   -1.05558E+004    9.90343E+005
            2274    1.78319E+007    1.55303E+007    1.55303E+007   -1.67382E+006   -2.86911E+006    1.83994E+007   -3.66246E+006    1.77414E+007   -2.86814E+006    1.55218E+007   -1.66626E+006   -1.33649E+005   -2.14280E+003    3.60513E+005
            2275    1.88167E+007    1.68942E+007    1.68942E+007   -8.05193E+005   -2.86958E+006    1.97638E+007   -4.40649E+006    1.85594E+007   -2.86894E+006    1.68812E+007   -7.92773E+005   -1.11935E+005   -5.56770E+003    4.68744E+005
            2276    1.81432E+007    1.60878E+007    1.60878E+007   -9.39292E+005   -2.99622E+006    1.90840E+007   -4.05077E+006    1.78781E+007   -2.99545E+006    1.59959E+007   -8.48094E+005   -1.14873E+005   -1.99369E+004    1.24320E+006
            2277    1.70873E+007    1.48527E+007    1.48527E+007   -1.12615E+006   -3.16090E+006    1.80136E+007   -3.52187E+006    1.68115E+007   -3.16000E+006    1.46662E+007   -9.40579E+005   -1.18893E+005   -2.60615E+004    1.71228E+006
            2278    1.58115E+007    1.33897E+007    1.33897E+007   -1.33078E+006   -3.32379E+006    1.67135E+007   -2.91170E+006    1.55251E+007   -3.32270E+006    1.31338E+007   -1.07595E+006   -1.23749E+005   -3.22409E+004    1.92038E+006
            2279    1.46068E+007    1.20625E+007    1.20625E+007   -1.47507E+006   -3.41876E+006    1.54813E+007   -2.38957E+006    1.43115E+007   -3.41759E+006    1.17935E+007   -1.20720E+006   -1.26919E+005   -3.04920E+004    1.88558E+006
            2280    1.34223E+007    1.07441E+007    1.07441E+007   -1.63727E+006   -3.52028E+006    1.42644E+007   -1.86219E+006    1.31202E+007   -3.51899E+006    1.05182E+007   -1.41262E+006   -1.31898E+005   -2.49459E+004    1.65256E+006
            2281    1.33533E+007    1.05482E+007    1.05482E+007   -2.01635E+006   -3.47429E+006    1.40225E+007   -1.68585E+006    1.31725E+007   -3.47280E+006    1.04061E+007   -1.87573E+006   -1.43249E+005   -9.63529E+003    1.32176E+006
            2282    1.81629E+007    1.58981E+007    1.58981E+007   -1.52039E+006   -2.92737E+006    1.88255E+007   -3.81678E+006    1.80397E+007   -2.92642E+006    1.58879E+007   -1.51118E+006    1.33684E+005   -1.21281E+003   -4.00517E+005
            2283    1.71128E+007    1.48513E+007    1.48513E+007   -1.80060E+006   -2.68782E+006    1.75392E+007   -3.45431E+006    1.70609E+007   -2.68534E+006    1.48426E+007   -1.79432E+006    2.07481E+005    1.02385E+003   -3.23957E+005
            2284    1.60662E+007    1.39733E+007    1.39733E+007   -1.87426E+006   -2.30281E+006    1.62761E+007   -3.26542E+006    1.60533E+007   -2.30193E+006    1.39681E+007   -1.86986E+006    1.19443E+005   -3.31622E+003   -2.64056E+005
            2285    1.51049E+007    1.32205E+007    1.32205E+007   -1.85155E+006   -1.91714E+006    1.51376E+007   -3.15060E+006    1.51046E+007   -1.91490E+006    1.32155E+007   -1.84878E+006    1.79932E+005    1.78159E+002   -2.08322E+005
            2286    1.43083E+007    1.26444E+007    1.26444E+007   -1.54229E+006   -1.78244E+006    1.44268E+007   -3.10655E+006    1.43037E+007   -1.54187E+006    1.26424E+007   -1.78088E+006    7.77902E+004   -1.99804E+003   -1.50055E+005
            2287    1.37797E+007    1.22660E+007    1.22660E+007   -1.30046E+006   -1.71745E+006    1.39835E+007   -3.08270E+006    1.37655E+007   -1.30009E+006    1.22650E+007   -1.71679E+006    7.11377E+004    1.07757E+002   -9.57036E+004
            2288    1.34538E+007    1.20418E+007    1.20418E+007   -1.13276E+006   -1.67496E+006    1.37167E+007   -3.07802E+006    1.34292E+007   -1.13262E+006    1.20416E+007   -1.67489E+006    4.22048E+004   -4.01380E+002   -3.18716E+004
            2289    1.34502E+007    1.20345E+007    1.20345E+007   -1.14327E+006   -1.67253E+006    1.37070E+007   -3.07290E+006    1.34267E+007   -1.14304E+006    1.20342E+007   -1.67252E+006   -5.43908E+004   -6.08331E+002    1.51504E+004
            2290    1.37023E+007    1.22105E+007    1.22105E+007   -1.25939E+006   -1.71300E+006    1.39235E+007   -3.07936E+006    1.36854E+007   -1.25938E+006    1.22099E+007   -1.71249E+006   -8.82545E+003    1.03783E+001    8.47524E+004
            2291    1.76111E+007    1.53278E+007    1.53278E+007   -1.50802E+006   -2.96772E+006    1.82955E+007   -3.61735E+006    1.74742E+007   -2.96674E+006    1.52554E+007   -1.43664E+006    1.32255E+005   -1.36054E+004   -1.09400E+006
            2292    1.66683E+007    1.44209E+007    1.44209E+007   -1.75082E+006   -2.70313E+006    1.71240E+007   -3.32232E+006    1.66069E+007   -2.70061E+006    1.43678E+007   -1.70018E+006    2.04272E+005   -2.27103E+003   -9.04224E+005
            2293    1.56735E+007    1.36156E+007    1.36156E+007   -1.78737E+006   -2.31506E+006    1.59307E+007   -3.17107E+006    1.56535E+007   -2.31413E+006    1.35792E+007   -1.75187E+006    1.16002E+005    1.15725E+003   -7.39476E+005
            2294    1.47706E+007    1.29319E+007    1.29319E+007   -1.73905E+006   -1.93638E+006    1.48683E+007   -3.08548E+006    1.47676E+007   -1.93152E+006    1.29070E+007   -1.71906E+006    1.74289E+005    1.66082E+004   -5.78185E+005
            2295    1.40008E+007    1.23872E+007    1.23872E+007   -1.56621E+006   -1.66047E+006    1.40477E+007   -3.05352E+006    1.40001E+007   -1.56854E+006    1.23743E+007   -1.64521E+006    7.61887E+004    1.35745E+004   -4.19067E+005
            2296    1.35045E+007    1.20435E+007    1.20435E+007   -1.33024E+006   -1.58810E+006    1.36316E+007   -3.04172E+006    1.34990E+007   -1.33201E+006    1.20385E+007   -1.58135E+006    6.77916E+004    2.20000E+004   -2.51335E+005
            2297    1.32036E+007    1.18410E+007    1.18410E+007   -1.17319E+006   -1.54422E+006    1.33852E+007   -3.04119E+006    1.31919E+007   -1.17417E+006    1.18402E+007   -1.54243E+006    3.90453E+004    1.98478E+004   -9.66185E+004
            2298    1.32264E+007    1.18540E+007    1.18540E+007   -1.18725E+006   -1.55015E+006    1.34041E+007   -3.03886E+006    1.32152E+007   -1.18835E+006    1.18533E+007   -1.54841E+006   -5.45300E+004    2.16291E+004    7.39649E+004
            2299    1.34851E+007    1.20324E+007    1.20324E+007   -1.30742E+006   -1.59349E+006    1.36259E+007   -3.04383E+006    1.34783E+007   -1.30860E+006    1.20287E+007   -1.58858E+006   -1.25371E+004    1.82613E+004    2.24921E+005
            2300    1.66670E+007    1.43539E+007    1.43539E+007   -1.49295E+006   -3.02708E+006    1.73810E+007   -3.27796E+006    1.65070E+007   -3.02616E+006    1.41939E+007   -1.33387E+006    1.24978E+005   -1.64052E+004   -1.57977E+006
            2301    1.58770E+007    1.36634E+007    1.36634E+007   -1.64201E+006   -2.72923E+006    1.63927E+007   -3.09740E+006    1.57929E+007   -2.72666E+006    1.35427E+007   -1.52388E+006    1.95208E+005   -4.32670E+002   -1.34075E+006
            2302    1.49928E+007    1.29998E+007    1.29998E+007   -1.62168E+006   -2.33860E+006    1.53384E+007   -3.01317E+006    1.49541E+007   -2.33785E+006    1.29152E+007   -1.53783E+006    1.07087E+005   -6.51663E+003   -1.10410E+006
            2303    1.41520E+007    1.23982E+007    1.23982E+007   -1.52707E+006   -1.97007E+006    1.43683E+007   -2.96703E+006    1.41364E+007   -1.96687E+006    1.23425E+007   -1.47449E+006    1.62534E+005    1.46970E+004   -8.65215E+005
            2304    1.34535E+007    1.19324E+007    1.19324E+007   -1.42026E+006   -1.61972E+006    1.35522E+007   -2.96416E+006    1.34502E+007   -1.61865E+006    1.19035E+007   -1.39242E+006    7.08150E+004    8.56932E+003   -6.16740E+005
            2305    1.29990E+007    1.16332E+007    1.16332E+007   -1.32875E+006   -1.40248E+006    1.30357E+007   -2.96734E+006    1.29985E+007   -1.39434E+006    1.16224E+007   -1.32608E+006    6.12318E+004    2.10165E+004   -3.69331E+005
            2306    1.27517E+007    1.14776E+007    1.14776E+007   -1.24528E+006   -1.30276E+006    1.27803E+007   -2.97651E+006    1.27514E+007   -1.25108E+006    1.14764E+007   -1.29577E+006    3.35214E+004    1.71250E+004   -1.18927E+005
            2307    1.27942E+007    1.15054E+007    1.15054E+007   -1.26151E+006   -1.31598E+006    1.28214E+007   -2.97597E+006    1.27940E+007   -1.27124E+006    1.15040E+007   -1.30487E+006   -5.34814E+004    2.05360E+004    1.21891E+005
            2308    1.30770E+007    1.16932E+007    1.16932E+007   -1.36481E+006   -1.40282E+006    1.30960E+007   -2.97518E+006    1.30769E+007   -1.39546E+006    1.16821E+007   -1.36111E+006   -1.51751E+004    1.45726E+004    3.79776E+005
            2309    1.55136E+007    1.31857E+007    1.31857E+007   -1.44585E+006   -3.08043E+006    1.62661E+007   -2.88647E+006    1.53180E+007   -3.07947E+006    1.29550E+007   -1.21608E+006    1.19048E+005   -2.43747E+004   -1.81928E+006
            2310    1.48969E+007    1.27368E+007    1.27368E+007   -1.47923E+006   -2.75857E+006    1.54953E+007   -2.83299E+006    1.47726E+007   -2.75561E+006    1.25528E+007   -1.29824E+006    1.92323E+005    6.52764E+003   -1.59641E+006
            2311    1.41056E+007    1.22037E+007    1.22037E+007   -1.37449E+006   -2.37597E+006    1.45797E+007   -2.81775E+006    1.40253E+007   -2.37513E+006    1.20719E+007   -1.24356E+006    1.01257E+005    1.96756E+003   -1.32757E+006
            2312    1.33736E+007    1.17292E+007    1.17292E+007   -1.23178E+006   -2.02189E+006    1.37511E+007   -2.82519E+006    1.33209E+007   -2.01790E+006    1.16446E+007   -1.15117E+006    1.51025E+005    3.14628E+004   -1.03393E+006
            2313    1.27388E+007    1.13347E+007    1.13347E+007   -1.09153E+006   -1.69516E+006    1.30298E+007   -2.84933E+006    1.27065E+007   -1.69339E+006    1.12907E+007   -1.04936E+006    6.83204E+004    2.53056E+004   -7.34817E+005
            2314    1.23488E+007    1.11027E+007    1.11027E+007   -9.91709E+005   -1.48573E+006    1.25884E+007   -2.87508E+006    1.23265E+007   -1.48181E+006    1.10877E+007   -9.80700E+005    5.45595E+004    4.06751E+004   -4.21477E+005
            2315    1.21471E+007    1.09834E+007    1.09834E+007   -9.54252E+005   -1.36278E+006    1.23462E+007   -2.88881E+006    1.21316E+007   -1.35957E+006    1.09822E+007   -9.56219E+005    2.69529E+004    3.54895E+004   -1.19052E+005
            2316    1.22338E+007    1.10451E+007    1.10451E+007   -9.77759E+005   -1.38928E+006    1.24344E+007   -2.89269E+006    1.22182E+007   -1.38487E+006    1.10419E+007   -9.78933E+005   -5.29045E+004    4.04417E+004    1.90177E+005
            2317    1.25152E+007    1.12218E+007    1.12218E+007   -1.05614E+006   -1.51799E+006    1.27397E+007   -2.88254E+006    1.24960E+007   -1.51572E+006    1.12022E+007   -1.03886E+006   -2.29692E+004    3.10970E+004    4.89124E+005
            2318    1.43879E+007    1.20750E+007    1.20750E+007   -1.36716E+006   -3.10147E+006    1.51765E+007   -2.53547E+006    1.41499E+007   -3.10060E+006    1.18053E+007   -1.09828E+006    9.96664E+004   -3.14609E+004   -1.88256E+006
            2319    1.38398E+007    1.17573E+007    1.17573E+007   -1.25750E+006   -2.78144E+006    1.45387E+007   -2.57277E+006    1.36491E+007   -2.77901E+006    1.15354E+007   -1.03803E+006    1.74707E+005    8.60278E+002   -1.67702E+006
            2320    1.31882E+007    1.13884E+007    1.13884E+007   -1.08552E+006   -2.41352E+006    1.38019E+007   -2.62978E+006    1.30365E+007   -2.41295E+006    1.12270E+007   -9.24742E+005    8.76834E+004   -7.66603E+003   -1.40702E+006
            2321    1.25204E+007    1.09991E+007    1.09991E+007   -8.75099E+005   -2.08029E+006    1.30794E+007   -2.68124E+006    1.23889E+007   -2.07787E+006    1.08952E+007   -7.73636E+005    1.33248E+005    2.45148E+004   -1.09891E+006
            2322    1.19719E+007    1.06947E+007    1.06947E+007   -7.05196E+005   -1.77706E+006    1.24718E+007   -2.73749E+006    1.18632E+007   -1.77624E+006    1.06434E+007   -6.54730E+005    6.22055E+004    1.96332E+004   -7.60737E+005
            2323    1.16329E+007    1.05119E+007    1.05119E+007   -5.95427E+005   -1.58352E+006    1.20954E+007   -2.77764E+006    1.15379E+007   -1.58190E+006    1.04952E+007   -5.80378E+005    4.59871E+004    3.61297E+004   -4.27847E+005
            2324    1.14773E+007    1.04341E+007    1.04341E+007   -5.50856E+005   -1.47913E+006    1.19132E+007   -2.80137E+006    1.13924E+007   -1.47803E+006    1.04333E+007   -5.51186E+005    1.97700E+004    3.13943E+004   -9.04162E+004
            2325    1.15824E+007    1.05005E+007    1.05005E+007   -5.92453E+005   -1.51618E+006    1.20166E+007   -2.79727E+006    1.14991E+007   -1.51442E+006    1.04947E+007   -5.88425E+005   -4.97632E+004    3.68533E+004    2.48982E+005
            2326    1.18972E+007    1.06949E+007    1.06949E+007   -6.96421E+005   -1.65065E+006    1.23456E+007   -2.78262E+006    1.18106E+007   -1.64984E+006    1.06648E+007   -6.67102E+005   -2.89099E+004    2.53119E+004    5.84507E+005
            2327    1.33301E+007    1.10712E+007    1.10712E+007   -1.20273E+006   -3.10978E+006    1.41809E+007   -2.25289E+006    1.30179E+007   -3.10905E+006    1.08046E+007   -9.36881E+005    9.33645E+004   -2.61192E+004   -1.78692E+006
            2328    1.29561E+007    1.09376E+007    1.09376E+007   -1.04967E+006   -2.80772E+006    1.37454E+007   -2.36009E+006    1.26836E+007   -2.80427E+006    1.07071E+007   -8.22556E+005    1.83343E+005    1.92533E+004   -1.63814E+006
            2329    1.23060E+007    1.06043E+007    1.06043E+007   -7.65668E+005   -2.46183E+006    1.30661E+007   -2.45893E+006    1.20388E+007   -2.46120E+006    1.04307E+007   -5.92766E+005    8.70040E+004   -4.79856E+002   -1.39161E+006
            2330    1.17392E+007    1.03248E+007    1.03248E+007   -5.14249E+005   -2.14427E+006    1.24691E+007   -2.55543E+006    1.14805E+007   -2.14222E+006    1.02187E+007   -4.10174E+005    1.19380E+005    2.80026E+004   -1.06182E+006
            2331    1.12477E+007    1.00789E+007    1.00789E+007   -3.12332E+005   -1.86408E+006    1.19430E+007   -2.63416E+006    1.10030E+007   -1.86308E+006    1.00254E+007   -2.59810E+005    6.25674E+004    2.82810E+004   -7.41694E+005
            2332    1.09335E+007    9.92957E+006    9.92957E+006   -1.71287E+005   -1.67985E+006    1.16094E+007   -2.69281E+006    1.06956E+007   -1.67849E+006    9.91392E+006   -1.57003E+005    4.01990E+004    4.16263E+004   -3.95649E+005
            2333    1.08156E+007    9.87497E+006    9.87497E+006   -1.35709E+005   -1.59705E+006    1.14720E+007   -2.71407E+006    1.05901E+007   -1.59601E+006    9.87464E+006   -1.36426E+005    1.29740E+004    3.87517E+004   -5.61468E+004
            2334    1.09190E+007    9.94264E+006    9.94264E+006   -1.65229E+005   -1.63800E+006    1.15806E+007   -2.71314E+006    1.06921E+007   -1.63653E+006    9.93417E+006   -1.58225E+005   -4.58160E+004    4.23197E+004    2.89482E+005
            2335    1.12353E+007    1.01097E+007    1.01097E+007   -3.15666E+005   -1.79003E+006    1.18997E+007   -2.66799E+006    1.10145E+007   -1.78921E+006    1.00694E+007   -2.76240E+005   -3.94154E+004    2.98812E+004    6.45613E+005
            2336    1.26874E+007    1.04471E+007    1.04471E+007   -1.14992E+006   -3.10397E+006    1.35511E+007   -2.06441E+006    1.23421E+007   -3.10159E+006    1.02041E+007   -9.09293E+005    3.91027E+004   -7.19438E+004   -1.66062E+006
            2337    1.21645E+007    1.02077E+007    1.02077E+007   -8.13052E+005   -2.84483E+006    1.30525E+007   -2.18326E+006    1.17737E+007   -2.84317E+006    9.99068E+006   -5.97732E+005    1.41376E+005   -2.45445E+003   -1.52574E+006
            2338    1.16638E+007    1.00196E+007    1.00196E+007   -5.09995E+005   -2.51779E+006    1.25374E+007   -2.33061E+006    1.12652E+007   -2.51693E+006    9.86018E+006   -3.51428E+005    9.55291E+004    5.62786E+003   -1.28294E+006
            2339    1.10764E+007    9.74748E+006    9.74748E+006   -1.70008E+005   -2.20550E+006    1.19530E+007   -2.45732E+006    1.06434E+007   -2.20423E+006    9.64014E+006   -6.39436E+004    1.00105E+005    2.11323E+004   -1.02240E+006
            2340    1.05797E+007    9.51204E+006    9.51204E+006    9.72373E+004   -1.93708E+006    1.14491E+007   -2.55740E+006    1.01255E+007   -1.93627E+006    9.46427E+006    1.44207E+005    6.28006E+004    2.69074E+004   -6.66708E+005
            2341    1.03177E+007    9.41392E+006    9.41392E+006    2.35863E+005   -1.75361E+006    1.11675E+007   -2.63206E+006    9.87219E+006   -1.75282E+006    9.40159E+006    2.47411E+005    3.57651E+004    3.55905E+004   -3.34839E+005
            2342    1.02229E+007    9.38598E+006    9.38598E+006    2.92083E+005   -1.67898E+006    1.10650E+007   -2.66636E+006    9.78163E+006   -1.67834E+006    9.38594E+006    2.91474E+005    4.92459E+003    3.55187E+004   -1.67555E+004
            2343    1.03201E+007    9.42614E+006    9.42614E+006    2.33784E+005   -1.73731E+006    1.11635E+007   -2.64087E+006    9.88315E+006   -1.73647E+006    9.41656E+006    2.42517E+005   -3.86649E+004    3.63870E+004    2.94607E+005
            2344    1.05865E+007    9.54865E+006    9.54865E+006    1.14159E+005   -1.90036E+006    1.14490E+007   -2.58748E+006    1.01417E+007   -1.89960E+006    9.50498E+006    1.57082E+005   -5.29753E+004    2.91465E+004    6.38809E+005
            2345    1.00412E+007    9.06910E+006    9.06910E+006    4.75179E+005   -1.96833E+006    1.10374E+007   -2.52532E+006    9.33644E+006   -1.96789E+006    9.03425E+006    5.09591E+005   -6.43099E+004    9.26213E+003    5.43286E+005
            2346    9.84245E+006    9.04578E+006    9.04578E+006    6.03371E+005   -1.76466E+006    1.08104E+007   -2.62816E+006    9.16806E+006   -1.76444E+006    9.03955E+006    6.09375E+005   -3.34918E+004    1.60761E+004    2.27333E+005
            2347    9.80931E+006    9.05278E+006    9.05278E+006    5.95210E+005   -1.70093E+006    1.07537E+007   -2.64902E+006    9.17496E+006   -1.70078E+006    9.05278E+006    5.95062E+005    9.63928E+001    1.85442E+004   -3.58150E+003
            2348    9.84679E+006    9.04627E+006    9.04627E+006    5.94584E+005   -1.76639E+006    1.08127E+007   -2.62482E+006    9.17697E+006   -1.76616E+006    9.04012E+006    6.00503E+005    3.39125E+004    1.61595E+004   -2.25900E+005
            2349    1.00453E+007    9.06872E+006    9.06872E+006    4.63259E+005   -1.96954E+006    1.10383E+007   -2.52081E+006    9.34736E+006   -1.96910E+006    9.03325E+006    4.98289E+005    6.46343E+004    8.75961E+003   -5.48451E+005
            2350    1.04592E+007    9.19080E+006    9.19080E+006    1.54383E+005   -2.26665E+006    1.14575E+007   -2.35951E+006    9.79859E+006   -2.26596E+006    9.09517E+006    2.49333E+005    8.75617E+004   -1.81432E+003   -9.21475E+005
            2351    1.11838E+007    9.56316E+006    9.56316E+006   -3.13994E+005   -2.58015E+006    1.21433E+007   -2.22301E+006    1.06487E+007   -2.57923E+006    9.38023E+006   -1.31979E+005    1.04577E+005   -1.53719E+004   -1.32834E+006
            2352    1.20146E+007    1.00076E+007    1.00076E+007   -8.80679E+005   -2.88196E+006    1.28896E+007   -2.08165E+006    1.16307E+007   -2.88090E+006    9.81079E+006   -6.84925E+005    1.11902E+005   -2.45925E+004   -1.44685E+006
            2353    1.21797E+007    9.87126E+006    9.87126E+006   -1.16698E+006   -3.19517E+006    1.30664E+007   -1.83637E+006    1.17907E+007   -3.19380E+006    9.70299E+006   -1.00008E+006    1.32759E+005   -1.17123E+004   -1.34696E+006
            2354    1.89199E+007    1.70255E+007    1.70255E+007   -7.42991E+005   -2.86663E+006    1.98921E+007   -4.47196E+006    1.86489E+007   -2.86617E+006    1.70122E+007   -7.30151E+005    9.36726E+004   -7.25963E+003   -4.77663E+005
            2355    1.82096E+007    1.61620E+007    1.61620E+007   -9.08680E+005   -3.00502E+006    1.91670E+007   -4.08277E+006    1.79351E+007   -3.00436E+006    1.60625E+007   -8.09857E+005    9.89765E+004   -2.41930E+004   -1.29591E+006
            2356    1.70494E+007    1.48005E+007    1.48005E+007   -1.12277E+006   -3.18711E+006    1.79876E+007   -3.49686E+006    1.67648E+007   -3.18623E+006    1.45952E+007   -9.18386E+005    1.08079E+005   -3.22776E+004   -1.79321E+006
            2357    1.57657E+007    1.33608E+007    1.33608E+007   -1.29328E+006   -3.32046E+006    1.66813E+007   -2.91569E+006    1.54684E+007   -3.31928E+006    1.30794E+007   -1.01309E+006    1.17432E+005   -4.06362E+004   -2.00781E+006
            2358    1.44900E+007    1.20145E+007    1.20145E+007   -1.35227E+006   -3.38410E+006    1.53986E+007   -2.42605E+006    1.41641E+007   -3.38288E+006    1.17085E+007   -1.04745E+006    1.26443E+005   -3.50377E+004   -1.99571E+006
            2359    1.34469E+007    1.09722E+007    1.09722E+007   -1.34018E+006   -3.37691E+006    1.43491E+007   -2.08503E+006    1.30931E+007   -3.37544E+006    1.06822E+007   -1.05164E+006    1.33577E+005   -3.81077E+004   -1.86298E+006
            2360    1.25614E+007    1.01692E+007    1.01692E+007   -1.17311E+006   -3.33166E+006    1.35008E+007   -1.88814E+006    1.21336E+007   -3.32979E+006    9.93846E+006   -9.44265E+005    1.56410E+005   -1.07796E+004   -1.59484E+006
            2361    1.78306E+007    1.55274E+007    1.55274E+007   -1.67654E+006   -2.87005E+006    1.83974E+007   -3.66026E+006    1.77404E+007   -2.86907E+006    1.55189E+007   -1.66910E+006    1.33977E+005   -2.21655E+003   -3.57586E+005
            2362    1.64914E+007    1.42937E+007    1.42937E+007   -1.89637E+006   -2.48339E+006    1.67771E+007   -3.30464E+006    1.64679E+007   -2.48076E+006    1.42868E+007   -1.89209E+006    2.09343E+005   -4.57293E+002   -2.63640E+005
            2363    1.52785E+007    1.33426E+007    1.33426E+007   -1.88393E+006   -1.98720E+006    1.53298E+007   -3.15717E+006    1.52777E+007   -1.98663E+006    1.33391E+007   -1.88099E+006    9.37870E+004   -9.08745E+002   -2.11813E+005
            2364    1.43210E+007    1.26379E+007    1.26379E+007   -1.56799E+006   -1.79559E+006    1.44335E+007   -3.09144E+006    1.43170E+007   -1.56625E+006    1.26349E+007   -1.79436E+006    1.57563E+005   -2.93213E+002   -1.33086E+005
            2365    1.73936E+007    1.50890E+007    1.50890E+007   -1.64171E+006   -2.89926E+006    1.79883E+007   -3.51602E+006    1.72909E+007   -2.89829E+006    1.50291E+007   -1.58278E+006    1.31373E+005   -1.05249E+004   -9.91219E+005
            2366    1.61876E+007    1.39981E+007    1.39981E+007   -1.84415E+006   -2.51407E+006    1.65122E+007   -3.21331E+006    1.61564E+007   -2.51127E+006    1.39566E+007   -1.80538E+006    2.06640E+005    1.70745E+003   -7.84847E+005
            2367    1.50255E+007    1.31180E+007    1.31180E+007   -1.78732E+006   -2.02494E+006    1.51429E+007   -3.10191E+006    1.50213E+007   -2.02383E+006    1.30942E+007   -1.76465E+006    9.29901E+004    7.66599E+003   -5.87830E+005
            2368    1.40897E+007    1.24380E+007    1.24380E+007   -1.60900E+006   -1.69409E+006    1.41321E+007   -3.04497E+006    1.40892E+007   -1.61292E+006    1.24241E+007   -1.67624E+006    1.55666E+005    1.65798E+004   -4.15342E+005
            2369    1.66028E+007    1.42731E+007    1.42731E+007   -1.61716E+006   -2.96063E+006    1.72337E+007   -3.23176E+006    1.64798E+007   -2.95970E+006    1.41332E+007   -1.47819E+006    1.24796E+005   -1.55746E+004   -1.47955E+006
            2370    1.56045E+007    1.34490E+007    1.34490E+007   -1.71747E+006   -2.55933E+006    1.60083E+007   -3.05740E+006    1.55532E+007   -2.55657E+006    1.33506E+007   -1.62178E+006    1.97977E+005    7.93989E+002   -1.20283E+006
            2371    1.45301E+007    1.26683E+007    1.26683E+007   -1.61781E+006   -2.09415E+006    1.47624E+007   -2.98544E+006    1.45125E+007   -2.09349E+006    1.26065E+007   -1.55669E+006    8.80886E+004    2.21010E+003   -9.33475E+005
            2372    1.36468E+007    1.20650E+007    1.20650E+007   -1.46628E+006   -1.69447E+006    1.37594E+007   -2.96807E+006    1.36425E+007   -1.69072E+006    1.20337E+007   -1.43878E+006    1.49523E+005    1.50727E+004   -6.32787E+005
            2373    1.56229E+007    1.32760E+007    1.32760E+007   -1.56907E+006   -3.02300E+006    1.62990E+007   -2.89465E+006    1.54696E+007   -3.02207E+006    1.30653E+007   -1.35923E+006    1.19036E+005   -2.10073E+004   -1.75253E+006
            2374    1.47636E+007    1.26467E+007    1.26467E+007   -1.54106E+006   -2.63226E+006    1.52789E+007   -2.82445E+006    1.46725E+007   -2.62901E+006    1.24824E+007   -1.37998E+006    1.94265E+005    9.42540E+003   -1.50687E+006
            2375    1.38537E+007    1.20728E+007    1.20728E+007   -1.34654E+006   -2.17782E+006    1.42507E+007   -2.84949E+006    1.37974E+007   -2.17695E+006    1.19724E+007   -1.24695E+006    8.45906E+004    1.06225E+004   -1.15393E+006
            2376    1.30692E+007    1.15599E+007    1.15599E+007   -1.18704E+006   -1.80950E+006    1.33694E+007   -2.85444E+006    1.30358E+007   -1.80523E+006    1.15047E+007   -1.13612E+006    1.47501E+005    3.13518E+004   -8.24994E+005
            2377    1.44866E+007    1.21123E+007    1.21123E+007   -1.51940E+006   -3.09959E+006    1.52119E+007   -2.49778E+006    1.42908E+007   -3.09878E+006    1.18496E+007   -1.25742E+006    1.00648E+005   -2.73866E+004   -1.87185E+006
            2378    1.38656E+007    1.18327E+007    1.18327E+007   -1.27652E+006   -2.68224E+006    1.45149E+007   -2.62464E+006    1.37039E+007   -2.67945E+006    1.16256E+007   -1.07228E+006    1.82178E+005    5.33789E+003   -1.62557E+006
            2379    1.30756E+007    1.13730E+007    1.13730E+007   -1.04230E+006   -2.27543E+006    1.36485E+007   -2.68510E+006    1.29438E+007   -2.27496E+006    1.12381E+007   -9.07811E+005    7.50295E+004    1.01127E+003   -1.28544E+006
            2380    1.24021E+007    1.09785E+007    1.09785E+007   -8.46244E+005   -1.93001E+006    1.29085E+007   -2.73407E+006    1.22949E+007   -1.92729E+006    1.09047E+007   -7.75203E+005    1.37198E+005    2.69853E+004   -9.22102E+005
            2381    1.36550E+007    1.13214E+007    1.13214E+007   -1.39903E+006   -3.10736E+006    1.44288E+007   -2.27168E+006    1.34114E+007   -3.10657E+006    1.10477E+007   -1.12607E+006    9.19920E+004   -3.03511E+004   -1.84378E+006
            2382    1.29322E+007    1.09843E+007    1.09843E+007   -9.63809E+005   -2.74695E+006    1.37312E+007   -2.42450E+006    1.26512E+007   -2.74355E+006    1.07613E+007   -7.44263E+005    1.88169E+005    1.50739E+004   -1.60785E+006
            2383    1.23822E+007    1.07372E+007    1.07372E+007   -7.61439E+005   -2.37127E+006    1.31084E+007   -2.53482E+006    1.21435E+007   -2.37080E+006    1.05918E+007   -6.16556E+005    7.29304E+004    2.38359E+003   -1.28285E+006
            2384    1.17597E+007    1.04070E+007    1.04070E+007   -5.03857E+005   -2.04881E+006    1.24558E+007   -2.61810E+006    1.15280E+007   -2.04647E+006    1.03158E+007   -4.15019E+005    1.28810E+005    2.90960E+004   -9.86347E+005
            2385    1.26139E+007    1.04617E+007    1.04617E+007   -9.34645E+005   -3.09157E+006    1.35533E+007   -2.14516E+006    1.21886E+007   -3.09057E+006    1.02076E+007   -6.81562E+005    4.28655E+004   -4.90513E+004   -1.68205E+006
            2386    1.25416E+007    1.05878E+007    1.05878E+007   -8.90852E+005   -2.79828E+006    1.33861E+007   -2.29956E+006    1.22089E+007   -2.79597E+006    1.04020E+007   -7.07320E+005    1.61364E+005    7.90784E+003   -1.44132E+006
            2387    1.18458E+007    1.02444E+007    1.02444E+007   -5.00443E+005   -2.45845E+006    1.27028E+007   -2.42850E+006    1.14733E+007   -2.45773E+006    1.00716E+007   -3.28339E+005    8.66986E+004    6.15587E+003   -1.34948E+006
            2388    1.11142E+007    9.80195E+006    9.80195E+006   -1.82994E+005   -2.17269E+006    1.19746E+007   -2.48209E+006    1.07024E+007   -2.17120E+006    9.69673E+006   -7.92700E+004    1.07033E+005    2.34297E+004   -1.01521E+006
            2389    1.04565E+007    9.20506E+006    9.20506E+006    2.05584E+005   -2.26573E+006    1.14708E+007   -2.38164E+006    9.76647E+006   -2.26503E+006    9.10152E+006    3.08426E+005    8.86128E+004   -2.11729E+003   -9.56594E+005
            2390    1.12084E+007    9.56293E+006    9.56293E+006   -3.32794E+005   -2.60878E+006    1.21717E+007   -2.20712E+006    1.06697E+007   -2.60786E+006    9.35625E+006   -1.27042E+005    1.04876E+005   -1.36192E+004   -1.41193E+006
            2391    1.23186E+007    1.04080E+007    1.04080E+007   -7.38931E+005   -2.81776E+006    1.32258E+007   -2.28378E+006    1.19144E+007   -2.81663E+006    1.00999E+007   -4.31906E+005    1.16281E+005   -2.99134E+004   -1.82437E+006
            2392    1.36130E+007    1.13257E+007    1.13257E+007   -1.42105E+006   -3.01346E+006    1.43392E+007   -2.29707E+006    1.34011E+007   -3.01224E+006    1.11022E+007   -1.19873E+006    1.20057E+005   -3.20618E+004   -1.66919E+006
            2393    1.88268E+007    1.69066E+007    1.69066E+007   -8.03599E+005   -2.86675E+006    1.97734E+007   -4.41210E+006    1.85699E+007   -2.86611E+006    1.68946E+007   -7.92221E+005    1.11697E+005   -5.38339E+003   -4.48822E+005
            2394    1.81427E+007    1.60878E+007    1.60878E+007   -9.40015E+005   -2.99496E+006    1.90827E+007   -4.05093E+006    1.78781E+007   -2.99419E+006    1.59959E+007   -8.48933E+005    1.14956E+005   -1.96769E+004   -1.24242E+006
            2395    1.70716E+007    1.48404E+007    1.48404E+007   -1.11891E+006   -3.16007E+006    1.80004E+007   -3.52046E+006    1.67938E+007   -3.15917E+006    1.46526E+007   -9.32040E+005    1.18673E+005   -2.64338E+004   -1.71714E+006
            2396    1.57858E+007    1.33661E+007    1.33661E+007   -1.32524E+006   -3.32385E+006    1.66899E+007   -2.90566E+006    1.54973E+007   -3.32276E+006    1.31100E+007   -1.07029E+006    1.23781E+005   -3.19265E+004   -1.91888E+006
            2397    1.45696E+007    1.20170E+007    1.20170E+007   -1.48674E+006   -3.42448E+006    1.54415E+007   -2.36859E+006    1.42754E+007   -3.42331E+006    1.17488E+007   -1.21970E+006    1.26972E+005   -3.07449E+004   -1.88031E+006
            2398    1.33923E+007    1.07019E+007    1.07019E+007   -1.65463E+006   -3.52860E+006    1.42305E+007   -1.83957E+006    1.30924E+007   -3.52731E+006    1.04815E+007   -1.43543E+006    1.32330E+005   -2.40734E+004   -1.63111E+006
            2399    1.33671E+007    1.05487E+007    1.05487E+007   -2.04206E+006   -3.47880E+006    1.40275E+007   -1.67594E+006    1.31917E+007   -3.47732E+006    1.04060E+007   -1.90084E+006    1.42719E+005   -1.00067E+004   -1.32595E+006
            2400    1.00423E+007    9.06575E+006    9.06575E+006    4.71411E+005   -1.97319E+006    1.10389E+007   -2.52132E+006    9.33701E+006   -1.97275E+006    9.03088E+006    5.05835E+005    6.48290E+004    8.98619E+003   -5.43369E+005
            2401    9.84284E+006    9.04676E+006    9.04676E+006    6.09109E+005   -1.76646E+006    1.08132E+007   -2.62980E+006    9.16395E+006   -1.76624E+006    9.04034E+006    6.15305E+005    3.42576E+004    1.57406E+004   -2.30724E+005
            2402    9.81000E+006    9.05370E+006    9.05370E+006    5.96323E+005   -1.70114E+006    1.07548E+007   -2.64963E+006    9.17494E+006   -1.70099E+006    9.05370E+006    5.96174E+005    6.34790E+002    1.84616E+004    7.80618E+000
            2403    9.83927E+006    9.04099E+006    9.04099E+006    5.99811E+005   -1.76527E+006    1.08063E+007   -2.62518E+006    9.16641E+006   -1.76505E+006    9.03503E+006    6.05557E+005   -3.34953E+004    1.59223E+004    2.22434E+005
            2404    1.00416E+007    9.06550E+006    9.06550E+006    4.66172E+005   -1.97000E+006    1.10355E+007   -2.52056E+006    9.34130E+006   -1.96956E+006    9.02999E+006    5.01250E+005   -6.45793E+004    8.75565E+003    5.48623E+005
            2405    1.04662E+007    9.19373E+006    9.19373E+006    1.52374E+005   -2.27179E+006    1.14655E+007   -2.35810E+006    9.80419E+006   -2.27110E+006    9.09625E+006    2.49161E+005   -8.78190E+004   -2.03459E+003    9.30506E+005
            2406    1.12093E+007    9.57950E+006    9.57950E+006   -3.25112E+005   -2.58891E+006    1.21684E+007   -2.22183E+006    1.06766E+007   -2.58798E+006    9.39246E+006   -1.38999E+005   -1.05300E+005   -1.55855E+004    1.34483E+006
            2407    1.20502E+007    1.00276E+007    1.00276E+007   -9.05945E+005   -2.89243E+006    1.29200E+007   -2.07639E+006    1.16733E+007   -2.89138E+006    9.82719E+006   -7.06627E+005   -1.11811E+005   -2.50058E+004    1.46281E+006
            2408    1.21962E+007    9.88111E+006    9.88111E+006   -1.17855E+006   -3.19917E+006    1.30803E+007   -1.83447E+006    1.18107E+007   -3.19774E+006    9.71493E+006   -1.01379E+006   -1.35412E+005   -1.06433E+004    1.33978E+006
            2409    1.05714E+007    9.53626E+006    9.53626E+006    1.24305E+005   -1.90147E+006    1.14377E+007   -2.58636E+006    1.01208E+007   -1.90073E+006    9.49284E+006    1.66980E+005    5.27314E+004    2.90045E+004   -6.36169E+005
            2410    1.12130E+007    1.00905E+007    1.00905E+007   -3.04411E+005   -1.79207E+006    1.18825E+007   -2.66467E+006    1.09877E+007   -1.79124E+006    1.00503E+007   -2.65103E+005    3.91144E+004    3.00908E+004   -6.43728E+005
            2411    1.18702E+007    1.06724E+007    1.06724E+007   -6.82759E+005   -1.65313E+006    1.23256E+007   -2.77885E+006    1.17804E+007   -1.65233E+006    1.06421E+007   -6.53254E+005    2.89649E+004    2.52742E+004   -5.85245E+005
            2412    1.24945E+007    1.12055E+007    1.12055E+007   -1.04541E+006   -1.51920E+006    1.27247E+007   -2.88029E+006    1.24743E+007   -1.51700E+006    1.11859E+007   -1.02803E+006    2.39155E+004    3.09712E+004   -4.88859E+005
            2413    1.30570E+007    1.16771E+007    1.16771E+007   -1.35857E+006   -1.40111E+006    1.30782E+007   -2.97247E+006    1.30568E+007   -1.39439E+006    1.16662E+007   -1.35443E+006    1.52283E+004    1.50649E+004   -3.75815E+005
            2414    1.34739E+007    1.20242E+007    1.20242E+007   -1.30517E+006   -1.58974E+006    1.36139E+007   -3.04309E+006    1.34671E+007   -1.30634E+006    1.20205E+007   -1.58486E+006    1.20896E+004    1.80642E+004   -2.24356E+005
            2415    1.36998E+007    1.22080E+007    1.22080E+007   -1.25923E+006   -1.71303E+006    1.39211E+007   -3.07859E+006    1.36829E+007   -1.25922E+006    1.22075E+007   -1.71249E+006    8.73526E+003   -6.29574E+001   -8.71669E+004
            2416    1.03069E+007    9.41388E+006    9.41388E+006    2.42532E+005   -1.74037E+006    1.11542E+007   -2.63868E+006    9.86392E+006   -1.73954E+006    9.40434E+006    2.51242E+005    3.88461E+004    3.60517E+004   -2.93649E+005
            2417    1.08969E+007    9.92463E+006    9.92463E+006   -1.50802E+005   -1.64046E+006    1.15651E+007   -2.71112E+006    1.06642E+007   -1.63902E+006    9.91618E+006   -1.43793E+005    4.56584E+004    4.21862E+004   -2.88712E+005
            2418    1.15605E+007    1.04833E+007    1.04833E+007   -5.79954E+005   -1.51735E+006    1.20006E+007   -2.79532E+006    1.14745E+007   -1.51561E+006    1.04778E+007   -5.76177E+005    4.87117E+004    3.70874E+004   -2.42820E+005
            2419    1.22178E+007    1.10324E+007    1.10324E+007   -9.70974E+005   -1.38901E+006    1.24214E+007   -2.89081E+006    1.22017E+007   -1.38466E+006    1.10295E+007   -9.72371E+005    5.18777E+004    4.06071E+004   -1.81398E+005
            2420    1.27850E+007    1.14988E+007    1.14988E+007   -1.25943E+006   -1.31272E+006    1.28115E+007   -2.97555E+006    1.27847E+007   -1.26964E+006    1.14975E+007   -1.30126E+006    5.25868E+004    2.06639E+004   -1.15239E+005
            2421    1.32239E+007    1.18519E+007    1.18519E+007   -1.18641E+006   -1.55010E+006    1.34020E+007   -3.03846E+006    1.32126E+007   -1.18754E+006    1.18513E+007   -1.54836E+006    5.43593E+004    2.18425E+004   -7.22897E+004
            2422    1.34503E+007    1.20349E+007    1.20349E+007   -1.14296E+006   -1.67215E+006    1.37070E+007   -3.07326E+006    1.34268E+007   -1.14274E+006    1.20346E+007   -1.67213E+006    5.45551E+004   -5.34442E+002   -1.69444E+004
            2423    1.02077E+007    9.37405E+006    9.37405E+006    3.04828E+005   -1.68043E+006    1.10545E+007   -2.66615E+006    9.75906E+006   -1.67980E+006    9.37402E+006    3.04232E+005   -4.75477E+003    3.53034E+004    1.71178E+004
            2424    1.07953E+007    9.85795E+006    9.85795E+006   -1.21490E+005   -1.60059E+006    1.14585E+007   -2.71196E+006    1.05637E+007   -1.59956E+006    9.85759E+006   -1.22162E+005   -1.31575E+004    3.87385E+004    5.88796E+004
            2425    1.14689E+007    1.04264E+007    1.04264E+007   -5.45004E+005   -1.48242E+006    1.19089E+007   -2.79967E+006    1.13822E+007   -1.48131E+006    1.04255E+007   -5.45131E+005   -2.08649E+004    3.15459E+004    1.01997E+005
            2426    1.21489E+007    1.09844E+007    1.09844E+007   -9.53642E+005   -1.36492E+006    1.23493E+007   -2.88860E+006    1.21332E+007   -1.36174E+006    1.09829E+007   -9.55332E+005   -2.83722E+004    3.53702E+004    1.30631E+005
            2427    1.27603E+007    1.14837E+007    1.14837E+007   -1.24694E+006   -1.30619E+006    1.27898E+007   -2.97684E+006    1.27600E+007   -1.25258E+006    1.14823E+007   -1.29920E+006   -3.49129E+004    1.71750E+004    1.26465E+005
            2428    1.32110E+007    1.18469E+007    1.18469E+007   -1.17329E+006   -1.54706E+006    1.33939E+007   -3.04217E+006    1.31991E+007   -1.17424E+006    1.18460E+007   -1.54529E+006   -3.93528E+004    1.96925E+004    9.66312E+004
            2429    1.34564E+007    1.20435E+007    1.20435E+007   -1.13259E+006   -1.67663E+006    1.37202E+007   -3.07811E+006    1.34316E+007   -1.13245E+006    1.20433E+007   -1.67657E+006   -4.21992E+004   -6.31375E+002    2.87699E+004
            2430    1.03064E+007    9.40430E+006    9.40430E+006    2.44742E+005   -1.75561E+006    1.11599E+007   -2.63114E+006    9.85532E+006   -1.75484E+006    9.39193E+006    2.56336E+005   -3.58231E+004    3.53179E+004    3.34950E+005
            2431    1.09270E+007    9.92207E+006    9.92207E+006   -1.64953E+005   -1.68563E+006    1.16077E+007   -2.69050E+006    1.06851E+007   -1.68428E+006    9.90557E+006   -1.49805E+005   -4.08993E+004    4.14046E+004    4.06002E+005
            2432    1.16464E+007    1.05197E+007    1.05197E+007   -5.98960E+005   -1.59101E+006    1.21107E+007   -2.77656E+006    1.15507E+007   -1.58940E+006    1.05017E+007   -5.82582E+005   -4.74105E+004    3.58565E+004    4.44729E+005
            2433    1.23774E+007    1.11226E+007    1.11226E+007   -1.00235E+006   -1.49271E+006    1.26153E+007   -2.87586E+006    1.23556E+007   -1.48884E+006    1.11066E+007   -9.90141E+005   -5.60073E+004    4.00632E+004    4.38006E+005
            2434    1.30298E+007    1.16564E+007    1.16564E+007   -1.33910E+006   -1.40738E+006    1.30638E+007   -2.96999E+006    1.30294E+007   -1.39891E+006    1.16453E+007   -1.33638E+006   -6.22780E+004    2.03781E+004    3.76148E+005
            2435    1.35233E+007    1.20582E+007    1.20582E+007   -1.33144E+006   -1.59501E+006    1.36532E+007   -3.04392E+006    1.35176E+007   -1.33307E+006    1.20533E+007   -1.58849E+006   -6.82669E+004    2.15292E+004    2.48772E+005
            2436    1.37847E+007    1.22704E+007    1.22704E+007   -1.29971E+006   -1.71918E+006    1.39896E+007   -3.08385E+006    1.37703E+007   -1.29934E+006    1.22695E+007   -1.71861E+006   -7.11153E+004    8.92111E+001    8.85044E+004
            2437    1.05797E+007    9.50938E+006    9.50938E+006    9.90815E+004   -1.94225E+006    1.14516E+007   -2.55540E+006    1.01223E+007   -1.94145E+006    9.46063E+006    1.47030E+005   -6.33859E+004    2.65680E+004    6.73290E+005
            2438    1.12665E+007    1.00889E+007    1.00889E+007   -3.18196E+005   -1.87504E+006    1.19639E+007   -2.63188E+006    1.10206E+007   -1.87404E+006    1.00331E+007   -2.63384E+005   -6.44818E+004    2.78094E+004    7.57905E+005
            2439    1.20205E+007    1.07272E+007    1.07272E+007   -7.23806E+005   -1.79150E+006    1.25187E+007   -2.73729E+006    1.19131E+007   -1.79065E+006    1.06729E+007   -6.70400E+005   -6.49896E+004    1.93297E+004    7.84031E+005
            2440    1.28029E+007    1.13819E+007    1.13819E+007   -1.11357E+006   -1.70774E+006    1.30896E+007   -2.85353E+006    1.27718E+007   -1.70592E+006    1.13363E+007   -1.06981E+006   -7.14043E+004    2.49921E+004    7.50178E+005
            2441    1.35091E+007    1.19753E+007    1.19753E+007   -1.43773E+006   -1.62785E+006    1.36031E+007   -2.96990E+006    1.35061E+007   -1.62671E+006    1.19462E+007   -1.40983E+006   -7.29163E+004    8.55598E+003    6.19167E+005
            2442    1.40306E+007    1.24117E+007    1.24117E+007   -1.56803E+006   -1.66928E+006    1.40810E+007   -3.05812E+006    1.40298E+007   -1.57020E+006    1.23993E+007   -1.65477E+006   -7.70685E+004    1.37690E+004    4.09371E+005
            2443    1.43148E+007    1.26500E+007    1.26500E+007   -1.54151E+006   -1.78493E+006    1.44349E+007   -3.10785E+006    1.43101E+007   -1.54110E+006    1.26483E+007   -1.78360E+006   -7.76875E+004   -2.52178E+003    1.37441E+005
            2444    1.10973E+007    9.75937E+006    9.75937E+006   -1.78698E+005   -2.21515E+006    1.19745E+007   -2.45518E+006    1.06647E+007   -2.21387E+006    9.64962E+006   -7.02223E+004   -1.00445E+005    2.07662E+004    1.03483E+006
            2445    1.17898E+007    1.03570E+007    1.03570E+007   -5.35732E+005   -2.16109E+006    1.25181E+007   -2.55340E+006    1.15337E+007   -2.15904E+006    1.02468E+007   -4.27495E+005   -1.20466E+005    2.74686E+004    1.08511E+006
            2446    1.26084E+007    1.10631E+007    1.10631E+007   -9.06534E+005   -2.09932E+006    1.31624E+007   -2.68574E+006    1.24805E+007   -2.09690E+006    1.09556E+007   -8.01503E+005   -1.34831E+005    2.35662E+004    1.12206E+006
            2447    1.34697E+007    1.18035E+007    1.18035E+007   -1.26140E+006   -2.03731E+006    1.38408E+007   -2.83494E+006    1.34192E+007   -2.03336E+006    1.17179E+007   -1.17968E+006   -1.53178E+005    3.02137E+004    1.04450E+006
            2448    1.42248E+007    1.24577E+007    1.24577E+007   -1.54601E+006   -1.97842E+006    1.44361E+007   -2.97775E+006    1.42100E+007   -1.97531E+006    1.24031E+007   -1.49457E+006   -1.63929E+005    1.33999E+004    8.57589E+005
            2449    1.48019E+007    1.29592E+007    1.29592E+007   -1.74675E+006   -1.93687E+006    1.48961E+007   -3.09186E+006    1.47992E+007   -1.93213E+006    1.29357E+007   -1.72798E+006   -1.75400E+005    1.58016E+004    5.61434E+005
            2450    1.51107E+007    1.32264E+007    1.32264E+007   -1.85321E+006   -1.91530E+006    1.51417E+007   -3.15263E+006    1.51104E+007   -1.91305E+006    1.32218E+007   -1.85090E+006   -1.80213E+005    2.28397E+002    1.90639E+005
            2451    1.17029E+007    1.00433E+007    1.00433E+007   -5.29398E+005   -2.53151E+006    1.25748E+007   -2.32747E+006    1.13080E+007   -2.53065E+006    9.88003E+006   -3.66958E+005   -9.63796E+004    4.73024E+003    1.30091E+006
            2452    1.23848E+007    1.06609E+007    1.06609E+007   -7.95318E+005   -2.48012E+006    1.31410E+007   -2.46180E+006    1.21230E+007   -2.47947E+006    1.04828E+007   -6.17921E+005   -8.89116E+004   -1.47080E+003    1.41469E+006
            2453    1.32993E+007    1.14749E+007    1.14749E+007   -1.11962E+006   -2.43187E+006    1.39067E+007   -2.64113E+006    1.31524E+007   -2.43129E+006    1.13109E+007   -9.56180E+005   -8.91129E+004   -8.46085E+003    1.42537E+006
            2454    1.42134E+007    1.22937E+007    1.22937E+007   -1.39966E+006   -2.38799E+006    1.46817E+007   -2.83536E+006    1.41357E+007   -2.38714E+006    1.21631E+007   -1.26989E+006   -1.02495E+005    1.81753E+003    1.32741E+006
            2455    1.50637E+007    1.30620E+007    1.30620E+007   -1.63550E+006   -2.34293E+006    1.54049E+007   -3.02785E+006    1.50262E+007   -2.34217E+006    1.29802E+007   -1.55445E+006   -1.07266E+005   -6.47818E+003    1.08841E+006
            2456    1.56967E+007    1.36378E+007    1.36378E+007   -1.79264E+006   -2.31222E+006    1.59500E+007   -3.17765E+006    1.56773E+007   -2.31129E+006    1.36037E+007   -1.75947E+006   -1.15678E+005    1.70224E+003    7.15700E+005
            2457    1.60635E+007    1.39720E+007    1.39720E+007   -1.87452E+006   -2.30002E+006    1.62720E+007   -3.26582E+006    1.60508E+007   -2.29914E+006    1.39673E+007   -1.87070E+006   -1.18948E+005   -3.66938E+003    2.46357E+005
            2458    1.22132E+007    1.02440E+007    1.02440E+007   -8.31279E+005   -2.85458E+006    1.30985E+007   -2.18604E+006    1.18273E+007   -2.85290E+006    1.00233E+007   -6.12325E+005   -1.42333E+005   -2.43743E+003    1.54219E+006
            2459    1.30346E+007    1.09986E+007    1.09986E+007   -1.07430E+006   -2.82140E+006    1.38200E+007   -2.36765E+006    1.27672E+007   -2.81791E+006    1.07651E+007   -8.44245E+005   -1.84612E+005    1.91257E+004    1.65450E+006
            2460    1.39382E+007    1.18417E+007    1.18417E+007   -1.27719E+006   -2.79203E+006    1.46337E+007   -2.59083E+006    1.37512E+007   -2.78958E+006    1.16195E+007   -1.05747E+006   -1.76800E+005    1.13935E+001    1.68472E+006
            2461    1.49832E+007    1.28150E+007    1.28150E+007   -1.49209E+006   -2.76332E+006    1.55783E+007   -2.85319E+006    1.48611E+007   -2.76034E+006    1.26334E+007   -1.31347E+006   -1.94077E+005    6.15894E+003    1.59117E+006
            2462    1.59266E+007    1.37106E+007    1.37106E+007   -1.64915E+006   -2.72789E+006    1.64385E+007   -3.11120E+006    1.58441E+007   -2.72532E+006    1.35936E+007   -1.53472E+006   -1.96357E+005   -1.10917E+003    1.32208E+006
            2463    1.66769E+007    1.44294E+007    1.44294E+007   -1.75630E+006   -2.69861E+006    1.71280E+007   -3.32484E+006    1.66168E+007   -2.69608E+006    1.43786E+007   -1.70800E+006   -2.04995E+005   -2.36959E+003    8.83576E+005
            2464    1.71087E+007    1.48469E+007    1.48469E+007   -1.80398E+006   -2.68544E+006    1.75324E+007   -3.45250E+006    1.70575E+007   -2.68295E+006    1.48388E+007   -1.79832E+006   -2.07823E+005    1.36288E+003    3.07752E+005
            2465    1.27209E+007    1.04735E+007    1.04735E+007   -1.16405E+006   -3.10713E+006    1.35807E+007   -2.06745E+006    1.23804E+007   -3.10470E+006    1.02298E+007   -9.22691E+005   -3.83902E+004   -7.23648E+004    1.66618E+006
            2466    1.33814E+007    1.11162E+007    1.11162E+007   -1.21230E+006   -3.11457E+006    1.42308E+007   -2.26310E+006    1.30720E+007   -3.11384E+006    1.08489E+007   -9.45768E+005   -9.24352E+004   -2.67607E+004    1.79327E+006
            2467    1.44477E+007    1.21307E+007    1.21307E+007   -1.37290E+006   -3.10492E+006    1.52356E+007   -2.55097E+006    1.42113E+007   -3.10405E+006    1.18621E+007   -1.10512E+006   -9.98286E+004   -3.16032E+004    1.88318E+006
            2468    1.55631E+007    1.32352E+007    1.32352E+007   -1.44696E+006   -3.08011E+006    1.63153E+007   -2.90271E+006    1.53686E+007   -3.07917E+006    1.30067E+007   -1.21940E+006   -1.19207E+005   -2.36823E+004    1.81378E+006
            2469    1.67002E+007    1.43873E+007    1.43873E+007   -1.49737E+006   -3.02368E+006    1.74110E+007   -3.28875E+006    1.65422E+007   -3.02275E+006    1.42298E+007   -1.34077E+006   -1.25494E+005   -1.60223E+004    1.56939E+006
            2470    1.76196E+007    1.53362E+007    1.53362E+007   -1.51266E+006   -2.96431E+006    1.83005E+007   -3.61973E+006    1.74843E+007   -2.96332E+006    1.52662E+007   -1.44365E+006   -1.32971E+005   -1.30973E+004    1.07619E+006
            2471    1.81572E+007    1.58930E+007    1.58930E+007   -1.52069E+006   -2.92608E+006    1.88191E+007   -3.81542E+006    1.80343E+007   -2.92512E+006    1.58834E+007   -1.51197E+006   -1.34107E+005   -1.11142E+003    3.89498E+005
            2472    1.89103E+007    1.70144E+007    1.70144E+007   -7.43157E+005   -2.86897E+006    1.98834E+007   -4.46742E+006    1.86386E+007   -2.86852E+006    1.70012E+007   -7.30433E+005   -9.36615E+004   -7.38147E+003    4.75373E+005
            2473    1.82124E+007    1.61631E+007    1.61631E+007   -9.12435E+005   -3.00546E+006    1.91685E+007   -4.08172E+006    1.79389E+007   -3.00480E+006    1.60645E+007   -8.14563E+005   -9.90475E+004   -2.40461E+004    1.28988E+006
            2474    1.70666E+007    1.48153E+007    1.48153E+007   -1.12905E+006   -3.18705E+006    1.80023E+007   -3.49972E+006    1.67841E+007   -3.18617E+006    1.46118E+007   -9.26469E+005   -1.08227E+005   -3.24025E+004    1.78660E+006
            2475    1.58020E+007    1.33949E+007    1.33949E+007   -1.29934E+006   -3.32026E+006    1.67152E+007   -2.92511E+006    1.55072E+007   -3.31910E+006    1.31153E+007   -1.02085E+006   -1.17058E+005   -4.03345E+004    2.00460E+006
            2476    1.45392E+007    1.20654E+007    1.20654E+007   -1.35178E+006   -3.38239E+006    1.54478E+007   -2.44375E+006    1.42150E+007   -3.38116E+006    1.17603E+007   -1.04793E+006   -1.26415E+005   -3.59181E+004    1.99649E+006
            2477    1.34973E+007    1.10256E+007    1.10256E+007   -1.33846E+006   -3.37365E+006    1.43993E+007   -2.10450E+006    1.31454E+007   -3.37221E+006    1.07331E+007   -1.04738E+006   -1.32769E+005   -3.78829E+004    1.87501E+006
            2478    1.25746E+007    1.01826E+007    1.01826E+007   -1.17376E+006   -3.33107E+006    1.35136E+007   -1.89258E+006    1.21477E+007   -3.32925E+006    9.95073E+006   -9.43747E+005   -1.54981E+005   -1.31023E+004    1.59977E+006
            2479    1.35944E+007    1.12958E+007    1.12958E+007   -1.43441E+006   -3.02317E+006    1.43190E+007   -2.27941E+006    1.33832E+007   -3.02195E+006    1.10753E+007   -1.21513E+006    1.19335E+005    3.23352E+004    1.65692E+006
            2480    1.23611E+007    1.04432E+007    1.04432E+007   -7.56609E+005   -2.81964E+006    1.32628E+007   -2.28898E+006    1.19646E+007   -2.81850E+006    1.01339E+007   -4.48448E+005    1.16868E+005    3.02976E+004    1.83211E+006
            2481    1.12309E+007    9.58195E+006    9.58195E+006   -3.38360E+005   -2.61168E+006    1.21936E+007   -2.21063E+006    1.06947E+007   -2.61076E+006    9.37197E+006   -1.29302E+005    1.05069E+005    1.36522E+004    1.42479E+006
            2482    1.04660E+007    9.21423E+006    9.21423E+006    2.03408E+005   -2.26547E+006    1.14797E+007   -2.38406E+006    9.77807E+006   -2.26476E+006    9.10921E+006    3.07725E+005    8.88875E+004    2.12844E+003    9.63965E+005
            2483    1.11322E+007    9.81830E+006    9.81830E+006   -1.88130E+005   -2.17275E+006    1.19910E+007   -2.48581E+006    1.07233E+007   -2.17125E+006    9.71230E+006   -8.36212E+004    1.06979E+005   -2.34488E+004    1.02011E+006
            2484    1.17904E+007    1.04327E+007    1.04327E+007   -5.16941E+005   -2.04861E+006    1.24813E+007   -2.62239E+006    1.15634E+007   -2.04626E+006    1.03412E+007   -4.27745E+005    1.28868E+005   -2.92055E+004    9.90146E+005
            2485    1.24292E+007    1.10018E+007    1.10018E+007   -8.58217E+005   -1.92763E+006    1.29294E+007   -2.73864E+006    1.23251E+007   -1.92493E+006    1.09285E+007   -7.87620E+005    1.36960E+005   -2.66388E+004    9.20586E+005
            2486    1.30905E+007    1.15795E+007    1.15795E+007   -1.19610E+006   -1.80454E+006    1.33841E+007   -2.85964E+006    1.30586E+007   -1.80028E+006    1.15253E+007   -1.14611E+006    1.47091E+005   -3.10343E+004    8.18725E+005
            2487    1.36662E+007    1.20808E+007    1.20808E+007   -1.47496E+006   -1.69342E+006    1.37742E+007   -2.97079E+006    1.36623E+007   -1.68955E+006    1.20500E+007   -1.44805E+006    1.50767E+005   -1.49989E+004    6.27805E+005
            2488    1.41044E+007    1.24504E+007    1.24504E+007   -1.61012E+006   -1.69751E+006    1.41479E+007   -3.04758E+006    1.41038E+007   -1.61371E+006    1.24367E+007   -1.68021E+006    1.57061E+005   -1.63489E+004    4.11246E+005
            2489    1.43232E+007    1.26391E+007    1.26391E+007   -1.56903E+006   -1.79652E+006    1.44356E+007   -3.09119E+006    1.43192E+007   -1.56728E+006    1.26362E+007   -1.79535E+006    1.57744E+005    6.86641E+002    1.29949E+005
            2490    1.18730E+007    1.02659E+007    1.02659E+007   -5.10954E+005   -2.46169E+006    1.27275E+007   -2.43107E+006    1.15041E+007   -2.46096E+006    1.00924E+007   -3.38176E+005    8.75274E+004   -5.86877E+003    1.35410E+006
            2491    1.24142E+007    1.07623E+007    1.07623E+007   -7.72403E+005   -2.37566E+006    1.31380E+007   -2.53808E+006    1.21780E+007   -2.37519E+006    1.06152E+007   -6.25777E+005    7.39406E+004   -1.92159E+003    1.29247E+006
            2492    1.31279E+007    1.14169E+007    1.14169E+007   -1.06038E+006   -2.27701E+006    1.36939E+007   -2.69315E+006    1.30002E+007   -2.27652E+006    1.12818E+007   -9.25867E+005    7.68053E+004   -1.22326E+003    1.28883E+006
            2493    1.38859E+007    1.21006E+007    1.21006E+007   -1.35790E+006   -2.17646E+006    1.42771E+007   -2.85542E+006    1.38315E+007   -2.17556E+006    1.20013E+007   -1.25949E+006    8.57003E+004   -1.09071E+004    1.14897E+006
            2494    1.45463E+007    1.26847E+007    1.26847E+007   -1.62036E+006   -2.09126E+006    1.47760E+007   -2.99104E+006    1.45291E+007   -2.09061E+006    1.26241E+007   -1.56039E+006    8.79129E+004   -2.07034E+003    9.25262E+005
            2495    1.50373E+007    1.31275E+007    1.31275E+007   -1.79065E+006   -2.02626E+006    1.51538E+007   -3.10353E+006    1.50332E+007   -2.02513E+006    1.31042E+007   -1.76851E+006    9.33965E+004   -7.78822E+003    5.81315E+005
            2496    1.52865E+007    1.33496E+007    1.33496E+007   -1.88497E+006   -1.98832E+006    1.53379E+007   -3.15878E+006    1.52858E+007   -1.98774E+006    1.33462E+007   -1.88215E+006    9.37954E+004    7.06475E+002    2.07295E+005
            2497    1.25363E+007    1.05796E+007    1.05796E+007   -8.90176E+005   -2.80318E+006    1.33828E+007   -2.29542E+006    1.22014E+007   -2.80085E+006    1.03925E+007   -7.05421E+005    1.61810E+005   -8.10497E+003    1.44549E+006
            2498    1.29794E+007    1.10234E+007    1.10234E+007   -9.79406E+005   -2.75075E+006    1.37741E+007   -2.43107E+006    1.27032E+007   -2.74733E+006    1.07986E+007   -7.58078E+005    1.88629E+005   -1.51880E+004    1.61804E+006
            2499    1.39145E+007    1.18742E+007    1.18742E+007   -1.28952E+006   -2.68584E+006    1.45600E+007   -2.63294E+006    1.37555E+007   -2.68308E+006    1.16668E+007   -1.08495E+006    1.82155E+005   -4.70552E+003    1.63019E+006
            2500    1.48032E+007    1.26840E+007    1.26840E+007   -1.54714E+006   -2.63162E+006    1.53156E+007   -2.83509E+006    1.47135E+007   -2.62835E+006    1.25213E+007   -1.38772E+006    1.95414E+005   -9.38639E+003    1.50154E+006
            2501    1.56099E+007    1.34535E+007    1.34535E+007   -1.71878E+006   -2.55988E+006    1.60134E+007   -3.05829E+006    1.55588E+007   -2.55712E+006    1.33560E+007   -1.62396E+006    1.98469E+005   -6.24136E+002    1.19756E+006
            2502    1.61996E+007    1.40099E+007    1.40099E+007   -1.84447E+006   -2.51418E+006    1.65240E+007   -3.21707E+006    1.61684E+007   -2.51138E+006    1.39682E+007   -1.80566E+006    2.07170E+005   -1.76358E+003    7.85568E+005
            2503    1.65011E+007    1.43022E+007    1.43022E+007   -1.89797E+006   -2.48430E+006    1.67865E+007   -3.30664E+006    1.64777E+007   -2.48167E+006    1.42954E+007   -1.89383E+006    2.09462E+005    7.20589E+002    2.59246E+005
            2504    1.26364E+007    1.04813E+007    1.04813E+007   -9.45122E+005   -3.09042E+006    1.35717E+007   -2.14859E+006    1.22166E+007   -3.08941E+006    1.02245E+007   -6.89324E+005    4.16605E+004    4.92063E+004    1.69315E+006
            2505    1.36693E+007    1.13341E+007    1.13341E+007   -1.40107E+006   -3.10883E+006    1.44429E+007   -2.27473E+006    1.34262E+007   -3.10803E+006    1.10619E+007   -1.12967E+006    9.27801E+004    3.07042E+004    1.83972E+006
            2506    1.45234E+007    1.21485E+007    1.21485E+007   -1.52042E+006   -3.10013E+006    1.52487E+007   -2.50933E+006    1.43282E+007   -3.09932E+006    1.18874E+007   -1.26011E+006    1.00712E+005    2.72792E+004    1.86861E+006
            2507    1.56406E+007    1.32965E+007    1.32965E+007   -1.56315E+006   -3.02273E+006    1.63193E+007   -2.90355E+006    1.54863E+007   -3.02180E+006    1.30865E+007   -1.35407E+006    1.19238E+005    2.08900E+004    1.75024E+006
            2508    1.66240E+007    1.42984E+007    1.42984E+007   -1.61169E+006   -2.95773E+006    1.72561E+007   -3.24298E+006    1.65007E+007   -2.95680E+006    1.41594E+007   -1.47364E+006    1.24722E+005    1.54594E+004    1.47561E+006
            2509    1.74043E+007    1.51012E+007    1.51012E+007   -1.64088E+006   -2.89720E+006    1.79984E+007   -3.52104E+006    1.73018E+007   -2.89623E+006    1.50415E+007   -1.58209E+006    1.31594E+005    1.05558E+004    9.90343E+005
            2510    1.78319E+007    1.55303E+007    1.55303E+007   -1.67382E+006   -2.86911E+006    1.83994E+007   -3.66246E+006    1.77414E+007   -2.86814E+006    1.55218E+007   -1.66626E+006    1.33649E+005    2.14280E+003    3.60513E+005
            2511    1.88167E+007    1.68942E+007    1.68942E+007   -8.05193E+005   -2.86958E+006    1.97638E+007   -4.40649E+006    1.85594E+007   -2.86894E+006    1.68812E+007   -7.92773E+005    1.11935E+005    5.56770E+003    4.68744E+005
            2512    1.81432E+007    1.60878E+007    1.60878E+007   -9.39292E+005   -2.99622E+006    1.90840E+007   -4.05077E+006    1.78781E+007   -2.99545E+006    1.59959E+007   -8.48094E+005    1.14873E+005    1.99369E+004    1.24320E+006
            2513    1.70873E+007    1.48527E+007    1.48527E+007   -1.12615E+006   -3.16090E+006    1.80136E+007   -3.52187E+006    1.68115E+007   -3.16000E+006    1.46662E+007   -9.40579E+005    1.18893E+005    2.60615E+004    1.71228E+006
            2514    1.58115E+007    1.33897E+007    1.33897E+007   -1.33078E+006   -3.32379E+006    1.67135E+007   -2.91170E+006    1.55251E+007   -3.32270E+006    1.31338E+007   -1.07595E+006    1.23749E+005    3.22409E+004    1.92038E+006
            2515    1.46068E+007    1.20625E+007    1.20625E+007   -1.47507E+006   -3.41876E+006    1.54813E+007   -2.38957E+006    1.43115E+007   -3.41759E+006    1.17935E+007   -1.20720E+006    1.26919E+005    3.04920E+004    1.88558E+006
            2516    1.34223E+007    1.07441E+007    1.07441E+007   -1.63727E+006   -3.52028E+006    1.42644E+007   -1.86219E+006    1.31202E+007   -3.51899E+006    1.05182E+007   -1.41262E+006    1.31898E+005    2.49459E+004    1.65256E+006
            2517    1.33533E+007    1.05482E+007    1.05482E+007   -2.01635E+006   -3.47429E+006    1.40225E+007   -1.68585E+006    1.31725E+007   -3.47280E+006    1.04061E+007   -1.87573E+006    1.43249E+005    9.63529E+003    1.32176E+006
            2518    1.81629E+007    1.58981E+007    1.58981E+007   -1.52039E+006   -2.92737E+006    1.88255E+007   -3.81678E+006    1.80397E+007   -2.92642E+006    1.58879E+007   -1.51118E+006   -1.33684E+005    1.21281E+003   -4.00517E+005
            2519    1.71128E+007    1.48513E+007    1.48513E+007   -1.80060E+006   -2.68782E+006    1.75392E+007   -3.45431E+006    1.70609E+007   -2.68534E+006    1.48426E+007   -1.79432E+006   -2.07481E+005   -1.02385E+003   -3.23957E+005
            2520    1.60662E+007    1.39733E+007    1.39733E+007   -1.87426E+006   -2.30281E+006    1.62761E+007   -3.26542E+006    1.60533E+007   -2.30193E+006    1.39681E+007   -1.86986E+006   -1.19443E+005    3.31622E+003   -2.64056E+005
            2521    1.51049E+007    1.32205E+007    1.32205E+007   -1.85155E+006   -1.91714E+006    1.51376E+007   -3.15060E+006    1.51046E+007   -1.91490E+006    1.32155E+007   -1.84878E+006   -1.79932E+005   -1.78159E+002   -2.08322E+005
            2522    1.43083E+007    1.26444E+007    1.26444E+007   -1.54229E+006   -1.78244E+006    1.44268E+007   -3.10655E+006    1.43037E+007   -1.54187E+006    1.26424E+007   -1.78088E+006   -7.77902E+004    1.99804E+003   -1.50055E+005
            2523    1.37797E+007    1.22660E+007    1.22660E+007   -1.30046E+006   -1.71745E+006    1.39835E+007   -3.08270E+006    1.37655E+007   -1.30009E+006    1.22650E+007   -1.71679E+006   -7.11377E+004   -1.07757E+002   -9.57036E+004
            2524    1.34538E+007    1.20418E+007    1.20418E+007   -1.13276E+006   -1.67496E+006    1.37167E+007   -3.07802E+006    1.34292E+007   -1.13262E+006    1.20416E+007   -1.67489E+006   -4.22048E+004    4.01380E+002   -3.18716E+004
            2525    1.34502E+007    1.20345E+007    1.20345E+007   -1.14327E+006   -1.67253E+006    1.37070E+007   -3.07290E+006    1.34267E+007   -1.14304E+006    1.20342E+007   -1.67252E+006    5.43908E+004    6.08331E+002    1.51504E+004
            2526    1.37023E+007    1.22105E+007    1.22105E+007   -1.25939E+006   -1.71300E+006    1.39235E+007   -3.07936E+006    1.36854E+007   -1.25938E+006    1.22099E+007   -1.71249E+006    8.82545E+003   -1.03783E+001    8.47524E+004
            2527    1.76111E+007    1.53278E+007    1.53278E+007   -1.50802E+006   -2.96772E+006    1.82955E+007   -3.61735E+006    1.74742E+007   -2.96674E+006    1.52554E+007   -1.43664E+006   -1.32255E+005    1.36054E+004   -1.09400E+006
            2528    1.66683E+007    1.44209E+007    1.44209E+007   -1.75082E+006   -2.70313E+006    1.71240E+007   -3.32232E+006    1.66069E+007   -2.70061E+006    1.43678E+007   -1.70018E+006   -2.04272E+005    2.27103E+003   -9.04224E+005
            2529    1.56735E+007    1.36156E+007    1.36156E+007   -1.78737E+006   -2.31506E+006    1.59307E+007   -3.17107E+006    1.56535E+007   -2.31413E+006    1.35792E+007   -1.75187E+006   -1.16002E+005   -1.15725E+003   -7.39476E+005
            2530    1.47706E+007    1.29319E+007    1.29319E+007   -1.73905E+006   -1.93638E+006    1.48683E+007   -3.08548E+006    1.47676E+007   -1.93152E+006    1.29070E+007   -1.71906E+006   -1.74289E+005   -1.66082E+004   -5.78185E+005
            2531    1.40008E+007    1.23872E+007    1.23872E+007   -1.56621E+006   -1.66047E+006    1.40477E+007   -3.05352E+006    1.40001E+007   -1.56854E+006    1.23743E+007   -1.64521E+006   -7.61887E+004   -1.35745E+004   -4.19067E+005
            2532    1.35045E+007    1.20435E+007    1.20435E+007   -1.33024E+006   -1.58810E+006    1.36316E+007   -3.04172E+006    1.34990E+007   -1.33201E+006    1.20385E+007   -1.58135E+006   -6.77916E+004   -2.20000E+004   -2.51335E+005
            2533    1.32036E+007    1.18410E+007    1.18410E+007   -1.17319E+006   -1.54422E+006    1.33852E+007   -3.04119E+006    1.31919E+007   -1.17417E+006    1.18402E+007   -1.54243E+006   -3.90453E+004   -1.98478E+004   -9.66185E+004
            2534    1.32264E+007    1.18540E+007    1.18540E+007   -1.18725E+006   -1.55015E+006    1.34041E+007   -3.03886E+006    1.32152E+007   -1.18835E+006    1.18533E+007   -1.54841E+006    5.45300E+004   -2.16291E+004    7.39649E+004
            2535    1.34851E+007    1.20324E+007    1.20324E+007   -1.30742E+006   -1.59349E+006    1.36259E+007   -3.04383E+006    1.34783E+007   -1.30860E+006    1.20287E+007   -1.58858E+006    1.25371E+004   -1.82613E+004    2.24921E+005
            2536    1.66670E+007    1.43539E+007    1.43539E+007   -1.49295E+006   -3.02708E+006    1.73810E+007   -3.27796E+006    1.65070E+007   -3.02616E+006    1.41939E+007   -1.33387E+006   -1.24978E+005    1.64052E+004   -1.57977E+006
            2537    1.58770E+007    1.36634E+007    1.36634E+007   -1.64201E+006   -2.72923E+006    1.63927E+007   -3.09740E+006    1.57929E+007   -2.72666E+006    1.35427E+007   -1.52388E+006   -1.95208E+005    4.32670E+002   -1.34075E+006
            2538    1.49928E+007    1.29998E+007    1.29998E+007   -1.62168E+006   -2.33860E+006    1.53384E+007   -3.01317E+006    1.49541E+007   -2.33785E+006    1.29152E+007   -1.53783E+006   -1.07087E+005    6.51663E+003   -1.10410E+006
            2539    1.41520E+007    1.23982E+007    1.23982E+007   -1.52707E+006   -1.97007E+006    1.43683E+007   -2.96703E+006    1.41364E+007   -1.96687E+006    1.23425E+007   -1.47449E+006   -1.62534E+005   -1.46970E+004   -8.65215E+005
            2540    1.34535E+007    1.19324E+007    1.19324E+007   -1.42026E+006   -1.61972E+006    1.35522E+007   -2.96416E+006    1.34502E+007   -1.61865E+006    1.19035E+007   -1.39242E+006   -7.08150E+004   -8.56932E+003   -6.16740E+005
            2541    1.29990E+007    1.16332E+007    1.16332E+007   -1.32875E+006   -1.40248E+006    1.30357E+007   -2.96734E+006    1.29985E+007   -1.39434E+006    1.16224E+007   -1.32608E+006   -6.12318E+004   -2.10165E+004   -3.69331E+005
            2542    1.27517E+007    1.14776E+007    1.14776E+007   -1.24528E+006   -1.30276E+006    1.27803E+007   -2.97651E+006    1.27514E+007   -1.25108E+006    1.14764E+007   -1.29577E+006   -3.35214E+004   -1.71250E+004   -1.18927E+005
            2543    1.27942E+007    1.15054E+007    1.15054E+007   -1.26151E+006   -1.31598E+006    1.28214E+007   -2.97597E+006    1.27940E+007   -1.27124E+006    1.15040E+007   -1.30487E+006    5.34814E+004   -2.05360E+004    1.21891E+005
            2544    1.30770E+007    1.16932E+007    1.16932E+007   -1.36481E+006   -1.40282E+006    1.30960E+007   -2.97518E+006    1.30769E+007   -1.39546E+006    1.16821E+007   -1.36111E+006    1.51751E+004   -1.45726E+004    3.79776E+005
            2545    1.55136E+007    1.31857E+007    1.31857E+007   -1.44585E+006   -3.08043E+006    1.62661E+007   -2.88647E+006    1.53180E+007   -3.07947E+006    1.29550E+007   -1.21608E+006   -1.19048E+005    2.43747E+004   -1.81928E+006
            2546    1.48969E+007    1.27368E+007    1.27368E+007   -1.47923E+006   -2.75857E+006    1.54953E+007   -2.83299E+006    1.47726E+007   -2.75561E+006    1.25528E+007   -1.29824E+006   -1.92323E+005   -6.52764E+003   -1.59641E+006
            2547    1.41056E+007    1.22037E+007    1.22037E+007   -1.37449E+006   -2.37597E+006    1.45797E+007   -2.81775E+006    1.40253E+007   -2.37513E+006    1.20719E+007   -1.24356E+006   -1.01257E+005   -1.96756E+003   -1.32757E+006
            2548    1.33736E+007    1.17292E+007    1.17292E+007   -1.23178E+006   -2.02189E+006    1.37511E+007   -2.82519E+006    1.33209E+007   -2.01790E+006    1.16446E+007   -1.15117E+006   -1.51025E+005   -3.14628E+004   -1.03393E+006
            2549    1.27388E+007    1.13347E+007    1.13347E+007   -1.09153E+006   -1.69516E+006    1.30298E+007   -2.84933E+006    1.27065E+007   -1.69339E+006    1.12907E+007   -1.04936E+006   -6.83204E+004   -2.53056E+004   -7.34817E+005
            2550    1.23488E+007    1.11027E+007    1.11027E+007   -9.91709E+005   -1.48573E+006    1.25884E+007   -2.87508E+006    1.23265E+007   -1.48181E+006    1.10877E+007   -9.80700E+005   -5.45595E+004   -4.06751E+004   -4.21477E+005
            2551    1.21471E+007    1.09834E+007    1.09834E+007   -9.54252E+005   -1.36278E+006    1.23462E+007   -2.88881E+006    1.21316E+007   -1.35957E+006    1.09822E+007   -9.56219E+005   -2.69529E+004   -3.54895E+004   -1.19052E+005
            2552    1.22338E+007    1.10451E+007    1.10451E+007   -9.77759E+005   -1.38928E+006    1.24344E+007   -2.89269E+006    1.22182E+007   -1.38487E+006    1.10419E+007   -9.78933E+005    5.29045E+004   -4.04417E+004    1.90177E+005
            2553    1.25152E+007    1.12218E+007    1.12218E+007   -1.05614E+006   -1.51799E+006    1.27397E+007   -2.88254E+006    1.24960E+007   -1.51572E+006    1.12022E+007   -1.03886E+006    2.29692E+004   -3.10970E+004    4.89124E+005
            2554    1.43879E+007    1.20750E+007    1.20750E+007   -1.36716E+006   -3.10147E+006    1.51765E+007   -2.53547E+006    1.41499E+007   -3.10060E+006    1.18053E+007   -1.09828E+006   -9.96664E+004    3.14609E+004   -1.88256E+006
            2555    1.38398E+007    1.17573E+007    1.17573E+007   -1.25750E+006   -2.78144E+006    1.45387E+007   -2.57277E+006    1.36491E+007   -2.77901E+006    1.15354E+007   -1.03803E+006   -1.74707E+005   -8.60278E+002   -1.67702E+006
            2556    1.31882E+007    1.13884E+007    1.13884E+007   -1.08552E+006   -2.41352E+006    1.38019E+007   -2.62978E+006    1.30365E+007   -2.41295E+006    1.12270E+007   -9.24742E+005   -8.76834E+004    7.66603E+003   -1.40702E+006
            2557    1.25204E+007    1.09991E+007    1.09991E+007   -8.75099E+005   -2.08029E+006    1.30794E+007   -2.68124E+006    1.23889E+007   -2.07787E+006    1.08952E+007   -7.73636E+005   -1.33248E+005   -2.45148E+004   -1.09891E+006
            2558    1.19719E+007    1.06947E+007    1.06947E+007   -7.05196E+005   -1.77706E+006    1.24718E+007   -2.73749E+006    1.18632E+007   -1.77624E+006    1.06434E+007   -6.54730E+005   -6.22055E+004   -1.96332E+004   -7.60737E+005
            2559    1.16329E+007    1.05119E+007    1.05119E+007   -5.95427E+005   -1.58352E+006    1.20954E+007   -2.77764E+006    1.15379E+007   -1.58190E+006    1.04952E+007   -5.80378E+005   -4.59871E+004   -3.61297E+004   -4.27847E+005
            2560    1.14773E+007    1.04341E+007    1.04341E+007   -5.50856E+005   -1.47913E+006    1.19132E+007   -2.80137E+006    1.13924E+007   -1.47803E+006    1.04333E+007   -5.51186E+005   -1.97700E+004   -3.13943E+004   -9.04162E+004
            2561    1.15824E+007    1.05005E+007    1.05005E+007   -5.92453E+005   -1.51618E+006    1.20166E+007   -2.79727E+006    1.14991E+007   -1.51442E+006    1.04947E+007   -5.88425E+005    4.97632E+004   -3.68533E+004    2.48982E+005
            2562    1.18972E+007    1.06949E+007    1.06949E+007   -6.96421E+005   -1.65065E+006    1.23456E+007   -2.78262E+006    1.18106E+007   -1.64984E+006    1.06648E+007   -6.67102E+005    2.89099E+004   -2.53119E+004    5.84507E+005
            2563    1.33301E+007    1.10712E+007    1.10712E+007   -1.20273E+006   -3.10978E+006    1.41809E+007   -2.25289E+006    1.30179E+007   -3.10905E+006    1.08046E+007   -9.36881E+005   -9.33645E+004    2.61192E+004   -1.78692E+006
            2564    1.29561E+007    1.09376E+007    1.09376E+007   -1.04967E+006   -2.80772E+006    1.37454E+007   -2.36009E+006    1.26836E+007   -2.80427E+006    1.07071E+007   -8.22556E+005   -1.83343E+005   -1.92533E+004   -1.63814E+006
            2565    1.23060E+007    1.06043E+007    1.06043E+007   -7.65668E+005   -2.46183E+006    1.30661E+007   -2.45893E+006    1.20388E+007   -2.46120E+006    1.04307E+007   -5.92766E+005   -8.70040E+004    4.79856E+002   -1.39161E+006
            2566    1.17392E+007    1.03248E+007    1.03248E+007   -5.14249E+005   -2.14427E+006    1.24691E+007   -2.55543E+006    1.14805E+007   -2.14222E+006    1.02187E+007   -4.10174E+005   -1.19380E+005   -2.80026E+004   -1.06182E+006
            2567    1.12477E+007    1.00789E+007    1.00789E+007   -3.12332E+005   -1.86408E+006    1.19430E+007   -2.63416E+006    1.10030E+007   -1.86308E+006    1.00254E+007   -2.59810E+005   -6.25674E+004   -2.82810E+004   -7.41694E+005
            2568    1.09335E+007    9.92957E+006    9.92957E+006   -1.71287E+005   -1.67985E+006    1.16094E+007   -2.69281E+006    1.06956E+007   -1.67849E+006    9.91392E+006   -1.57003E+005   -4.01990E+004   -4.16263E+004   -3.95649E+005
            2569    1.08156E+007    9.87497E+006    9.87497E+006   -1.35709E+005   -1.59705E+006    1.14720E+007   -2.71407E+006    1.05901E+007   -1.59601E+006    9.87464E+006   -1.36426E+005   -1.29740E+004   -3.87517E+004   -5.61468E+004
            2570    1.09190E+007    9.94264E+006    9.94264E+006   -1.65229E+005   -1.63800E+006    1.15806E+007   -2.71314E+006    1.06921E+007   -1.63653E+006    9.93417E+006   -1.58225E+005    4.58160E+004   -4.23197E+004    2.89482E+005
            2571    1.12353E+007    1.01097E+007    1.01097E+007   -3.15666E+005   -1.79003E+006    1.18997E+007   -2.66799E+006    1.10145E+007   -1.78921E+006    1.00694E+007   -2.76240E+005    3.94154E+004   -2.98812E+004    6.45613E+005
            2572    1.26874E+007    1.04471E+007    1.04471E+007   -1.14992E+006   -3.10397E+006    1.35511E+007   -2.06441E+006    1.23421E+007   -3.10159E+006    1.02041E+007   -9.09293E+005   -3.91027E+004    7.19438E+004   -1.66062E+006
            2573    1.21645E+007    1.02077E+007    1.02077E+007   -8.13052E+005   -2.84483E+006    1.30525E+007   -2.18326E+006    1.17737E+007   -2.84317E+006    9.99068E+006   -5.97732E+005   -1.41376E+005    2.45445E+003   -1.52574E+006
            2574    1.16638E+007    1.00196E+007    1.00196E+007   -5.09995E+005   -2.51779E+006    1.25374E+007   -2.33061E+006    1.12652E+007   -2.51693E+006    9.86018E+006   -3.51428E+005   -9.55291E+004   -5.62786E+003   -1.28294E+006
            2575    1.10764E+007    9.74748E+006    9.74748E+006   -1.70008E+005   -2.20550E+006    1.19530E+007   -2.45732E+006    1.06434E+007   -2.20423E+006    9.64014E+006   -6.39436E+004   -1.00105E+005   -2.11323E+004   -1.02240E+006
            2576    1.05797E+007    9.51204E+006    9.51204E+006    9.72373E+004   -1.93708E+006    1.14491E+007   -2.55740E+006    1.01255E+007   -1.93627E+006    9.46427E+006    1.44207E+005   -6.28006E+004   -2.69074E+004   -6.66708E+005
            2577    1.03177E+007    9.41392E+006    9.41392E+006    2.35863E+005   -1.75361E+006    1.11675E+007   -2.63206E+006    9.87219E+006   -1.75282E+006    9.40159E+006    2.47411E+005   -3.57651E+004   -3.55905E+004   -3.34839E+005
            2578    1.02229E+007    9.38598E+006    9.38598E+006    2.92083E+005   -1.67898E+006    1.10650E+007   -2.66636E+006    9.78163E+006   -1.67834E+006    9.38594E+006    2.91474E+005   -4.92459E+003   -3.55187E+004   -1.67555E+004
            2579    1.03201E+007    9.42614E+006    9.42614E+006    2.33784E+005   -1.73731E+006    1.11635E+007   -2.64087E+006    9.88315E+006   -1.73647E+006    9.41656E+006    2.42517E+005    3.86649E+004   -3.63870E+004    2.94607E+005
            2580    1.05865E+007    9.54865E+006    9.54865E+006    1.14159E+005   -1.90036E+006    1.14490E+007   -2.58748E+006    1.01417E+007   -1.89960E+006    9.50498E+006    1.57082E+005    5.29753E+004   -2.91465E+004    6.38809E+005
            2581    1.00412E+007    9.06910E+006    9.06910E+006    4.75179E+005   -1.96833E+006    1.10374E+007   -2.52532E+006    9.33644E+006   -1.96789E+006    9.03425E+006    5.09591E+005    6.43099E+004   -9.26213E+003    5.43286E+005
            2582    9.84245E+006    9.04578E+006    9.04578E+006    6.03371E+005   -1.76466E+006    1.08104E+007   -2.62816E+006    9.16806E+006   -1.76444E+006    9.03955E+006    6.09375E+005    3.34918E+004   -1.60761E+004    2.27333E+005
            2583    9.80931E+006    9.05278E+006    9.05278E+006    5.95210E+005   -1.70093E+006    1.07537E+007   -2.64902E+006    9.17496E+006   -1.70078E+006    9.05278E+006    5.95062E+005   -9.63928E+001   -1.85442E+004   -3.58150E+003
            2584    9.84679E+006    9.04627E+006    9.04627E+006    5.94584E+005   -1.76639E+006    1.08127E+007   -2.62482E+006    9.17697E+006   -1.76616E+006    9.04012E+006    6.00503E+005   -3.39125E+004   -1.61595E+004   -2.25900E+005
            2585    1.00453E+007    9.06872E+006    9.06872E+006    4.63259E+005   -1.96954E+006    1.10383E+007   -2.52081E+006    9.34736E+006   -1.96910E+006    9.03325E+006    4.98289E+005   -6.46343E+004   -8.75961E+003   -5.48451E+005
            2586    1.04592E+007    9.19080E+006    9.19080E+006    1.54383E+005   -2.26665E+006    1.14575E+007   -2.35951E+006    9.79859E+006   -2.26596E+006    9.09517E+006    2.49333E+005   -8.75617E+004    1.81432E+003   -9.21475E+005
            2587    1.11838E+007    9.56316E+006    9.56316E+006   -3.13994E+005   -2.58015E+006    1.21433E+007   -2.22301E+006    1.06487E+007   -2.57923E+006    9.38023E+006   -1.31979E+005   -1.04577E+005    1.53719E+004   -1.32834E+006
            2588    1.20146E+007    1.00076E+007    1.00076E+007   -8.80679E+005   -2.88196E+006    1.28896E+007   -2.08165E+006    1.16307E+007   -2.88090E+006    9.81079E+006   -6.84925E+005   -1.11902E+005    2.45925E+004   -1.44685E+006
            2589    1.21797E+007    9.87126E+006    9.87126E+006   -1.16698E+006   -3.19517E+006    1.30664E+007   -1.83637E+006    1.17907E+007   -3.19380E+006    9.70299E+006   -1.00008E+006   -1.32759E+005    1.17123E+004   -1.34696E+006
            2590    1.89199E+007    1.70255E+007    1.70255E+007   -7.42991E+005   -2.86663E+006    1.98921E+007   -4.47196E+006    1.86489E+007   -2.86617E+006    1.70122E+007   -7.30151E+005   -9.36726E+004    7.25963E+003   -4.77663E+005
            2591    1.82096E+007    1.61620E+007    1.61620E+007   -9.08680E+005   -3.00502E+006    1.91670E+007   -4.08277E+006    1.79351E+007   -3.00436E+006    1.60625E+007   -8.09857E+005   -9.89765E+004    2.41930E+004   -1.29591E+006
            2592    1.70494E+007    1.48005E+007    1.48005E+007   -1.12277E+006   -3.18711E+006    1.79876E+007   -3.49686E+006    1.67648E+007   -3.18623E+006    1.45952E+007   -9.18386E+005   -1.08079E+005    3.22776E+004   -1.79321E+006
            2593    1.57657E+007    1.33608E+007    1.33608E+007   -1.29328E+006   -3.32046E+006    1.66813E+007   -2.91569E+006    1.54684E+007   -3.31928E+006    1.30794E+007   -1.01309E+006   -1.17432E+005    4.06362E+004   -2.00781E+006
            2594    1.44900E+007    1.20145E+007    1.20145E+007   -1.35227E+006   -3.38410E+006    1.53986E+007   -2.42605E+006    1.41641E+007   -3.38288E+006    1.17085E+007   -1.04745E+006   -1.26443E+005    3.50377E+004   -1.99571E+006
            2595    1.34469E+007    1.09722E+007    1.09722E+007   -1.34018E+006   -3.37691E+006    1.43491E+007   -2.08503E+006    1.30931E+007   -3.37544E+006    1.06822E+007   -1.05164E+006   -1.33577E+005    3.81077E+004   -1.86298E+006
            2596    1.25614E+007    1.01692E+007    1.01692E+007   -1.17311E+006   -3.33166E+006    1.35008E+007   -1.88814E+006    1.21336E+007   -3.32979E+006    9.93846E+006   -9.44265E+005   -1.56410E+005    1.07796E+004   -1.59484E+006
            2597    1.77974E+007    1.54413E+007    1.54413E+007   -1.69674E+006   -2.94925E+006    1.83906E+007   -3.59845E+006    1.76978E+007   -2.93470E+006    1.54194E+007   -1.68937E+006    5.17014E+005   -1.05804E+004   -3.55073E+005
            2598    1.64770E+007    1.42953E+007    1.42953E+007   -1.88909E+006   -2.45951E+006    1.67548E+007   -3.31556E+006    1.64548E+007   -2.44668E+006    1.42783E+007   -1.88497E+006    4.62161E+005   -9.93901E+002   -2.60273E+005
            2599    1.52088E+007    1.32875E+007    1.32875E+007   -1.88970E+006   -1.95265E+006    1.52402E+007   -3.14840E+006    1.52085E+007   -1.93310E+006    1.32691E+007   -1.89085E+006    4.85713E+005    8.73258E+003   -2.10240E+005
            2600    1.42470E+007    1.26259E+007    1.26259E+007   -1.44899E+006   -1.78733E+006    1.44132E+007   -3.12985E+006    1.42380E+007   -1.44548E+006    1.26203E+007   -1.78527E+006    2.47566E+005    1.46490E+004   -1.32331E+005
            2601    1.73585E+007    1.50035E+007    1.50035E+007   -1.66250E+006   -2.97331E+006    1.79768E+007   -3.45589E+006    1.72467E+007   -2.95884E+006    1.49305E+007   -1.60398E+006    5.08910E+005   -2.49973E+004   -9.85582E+005
            2602    1.61726E+007    1.39991E+007    1.39991E+007   -1.83808E+006   -2.48924E+006    1.64883E+007   -3.22393E+006    1.61431E+007   -2.47643E+006    1.39485E+007   -1.80025E+006    4.50261E+005   -3.65364E+003   -7.78161E+005
            2603    1.49581E+007    1.30653E+007    1.30653E+007   -1.79224E+006   -1.99155E+006    1.50568E+007   -3.09382E+006    1.49552E+007   -1.96963E+006    1.30271E+007   -1.77605E+006    4.77623E+005    1.74529E+004   -5.83969E+005
            2604    1.40151E+007    1.24244E+007    1.24244E+007   -1.49115E+006   -1.68815E+006    1.41126E+007   -3.08171E+006    1.40120E+007   -1.49308E+006    1.24079E+007   -1.66970E+006    2.47503E+005    2.74076E+004   -4.13858E+005
            2605    1.65638E+007    1.41886E+007    1.41886E+007   -1.63486E+006   -3.02772E+006    1.72163E+007   -3.17533E+006    1.64313E+007   -3.01339E+006    1.40365E+007   -1.49711E+006    4.94249E+005   -3.81524E+004   -1.46951E+006
            2606    1.55894E+007    1.34479E+007    1.34479E+007   -1.70835E+006   -2.54124E+006    1.59892E+007   -3.06612E+006    1.55392E+007   -2.52852E+006    1.33423E+007   -1.61541E+006    4.31738E+005   -3.62574E+003   -1.18978E+006
            2607    1.44697E+007    1.26192E+007    1.26192E+007   -1.61761E+006   -2.07273E+006    1.46919E+007   -2.97627E+006    1.44536E+007   -2.04806E+006    1.25441E+007   -1.56724E+006    4.64267E+005    3.71528E+004   -9.26400E+005
            2608    1.35737E+007    1.20471E+007    1.20471E+007   -1.43591E+006   -1.61555E+006    1.36626E+007   -2.99854E+006    1.35710E+007   -1.58269E+006    1.20132E+007   -1.43487E+006    2.48908E+005    5.39970E+004   -6.30026E+005
            2609    1.55813E+007    1.31944E+007    1.31944E+007   -1.58855E+006   -3.07825E+006    1.62727E+007   -2.84254E+006    1.54199E+007   -3.06434E+006    1.29722E+007   -1.38025E+006    4.71346E+005   -4.11558E+004   -1.74220E+006
            2610    1.47450E+007    1.26436E+007    1.26436E+007   -1.53528E+006   -2.60878E+006    1.52524E+007   -2.83318E+006    1.46567E+007   -2.59743E+006    1.24742E+007   -1.37720E+006    3.99495E+005   -1.07950E+004   -1.49258E+006
            2611    1.37983E+007    1.20296E+007    1.20296E+007   -1.34847E+006   -2.15352E+006    1.41832E+007   -2.84255E+006    1.37453E+007   -2.13251E+006    1.19176E+007   -1.25744E+006    4.41630E+005    3.98413E+004   -1.14390E+006
            2612    1.29933E+007    1.15386E+007    1.15386E+007   -1.17650E+006   -1.71596E+006    1.32546E+007   -2.88205E+006    1.29680E+007   -1.70157E+006    1.14811E+007   -1.13341E+006    2.44183E+005    5.72763E+004   -8.20417E+005
            2613    1.44427E+007    1.20314E+007    1.20314E+007   -1.53588E+006   -3.15091E+006    1.51823E+007   -2.44822E+006    1.42374E+007   -3.13668E+006    1.17579E+007   -1.27660E+006    4.56389E+005   -3.63823E+004   -1.85821E+006
            2614    1.38473E+007    1.18247E+007    1.18247E+007   -1.27083E+006   -2.66831E+006    1.44930E+007   -2.62853E+006    1.36873E+007   -2.65769E+006    1.16147E+007   -1.07143E+006    3.72623E+005   -6.26293E+003   -1.60759E+006
            2615    1.30340E+007    1.13348E+007    1.13348E+007   -1.04715E+006   -2.26568E+006    1.36004E+007   -2.67398E+006    1.29049E+007   -2.24510E+006    1.11897E+007   -9.22701E+005    4.22120E+005    5.47323E+004   -1.27323E+006
            2616    1.23296E+007    1.09486E+007    1.09486E+007   -8.45525E+005   -1.85443E+006    1.28031E+007   -2.74956E+006    1.22362E+007   -1.84129E+006    1.08723E+007   -7.82318E+005    2.45244E+005    7.43132E+004   -9.18189E+005
            2617    1.36090E+007    1.12402E+007    1.12402E+007   -1.41753E+006   -3.15360E+006    1.43938E+007   -2.22301E+006    1.33565E+007   -3.13967E+006    1.09550E+007   -1.14624E+006    4.37726E+005   -3.20062E+004   -1.83418E+006
            2618    1.29016E+007    1.09691E+007    1.09691E+007   -9.52500E+005   -2.72858E+006    1.36976E+007   -2.42932E+006    1.26222E+007   -2.72047E+006    1.07447E+007   -7.36219E+005    3.28907E+005   -2.62696E+004   -1.59126E+006
            2619    1.23523E+007    1.07101E+007    1.07101E+007   -7.53195E+005   -2.37167E+006    1.30818E+007   -2.52841E+006    1.21103E+007   -2.35549E+006    1.05576E+007   -6.16877E+005    3.93934E+005    4.40824E+004   -1.26340E+006
            2620    1.16871E+007    1.03741E+007    1.03741E+007   -4.93999E+005   -1.98826E+006    1.23623E+007   -2.63060E+006    1.14692E+007   -1.97861E+006    1.02810E+007   -4.10606E+005    2.42667E+005    6.59453E+004   -9.76978E+005
            2621    1.25864E+007    1.03893E+007    1.03893E+007   -9.57834E+005   -3.14867E+006    1.35379E+007   -2.09426E+006    1.21462E+007   -3.13191E+006    1.01234E+007   -7.08738E+005    4.61981E+005   -1.89531E+004   -1.66528E+006
            2622    1.25030E+007    1.05527E+007    1.05527E+007   -9.03220E+005   -2.78426E+006    1.33369E+007   -2.28840E+006    1.21785E+007   -2.77596E+006    1.03623E+007   -7.21183E+005    3.30130E+005   -3.09000E+004   -1.43230E+006
            2623    1.18213E+007    1.02169E+007    1.02169E+007   -5.11934E+005   -2.45585E+006    1.26727E+007   -2.41637E+006    1.14534E+007   -2.44403E+006    1.00382E+007   -3.45033E+005    3.57385E+005    1.77867E+004   -1.33505E+006
            2624    1.10558E+007    9.76462E+006    9.76462E+006   -1.93371E+005   -2.13246E+006    1.18971E+007   -2.47960E+006    1.06631E+007   -2.12429E+006    9.65631E+006   -9.32236E+004    2.54278E+005    5.05795E+004   -1.00809E+006
            2625    1.04198E+007    9.17421E+006    9.17421E+006    2.10944E+005   -2.25849E+006    1.14327E+007   -2.37555E+006    9.72820E+006   -2.25102E+006    9.06780E+006    3.09882E+005    2.69521E+005    2.89539E+004   -9.42438E+005
            2626    1.11848E+007    9.53523E+006    9.53523E+006   -3.26410E+005   -2.61782E+006    1.21530E+007   -2.19700E+006    1.06373E+007   -2.60882E+006    9.32613E+006   -1.26318E+005    3.19675E+005   -4.91018E+003   -1.39232E+006
            2627    1.22974E+007    1.03697E+007    1.03697E+007   -7.30461E+005   -2.84941E+006    1.32191E+007   -2.26328E+006    1.18762E+007   -2.83973E+006    1.00596E+007   -4.30031E+005    3.52085E+005   -3.57548E+004   -1.80121E+006
            2628    1.36255E+007    1.13127E+007    1.13127E+007   -1.40253E+006   -3.06972E+006    1.43824E+007   -2.28014E+006    1.33932E+007   -3.06017E+006    1.10905E+007   -1.18996E+006    3.66172E+005   -5.41597E+004   -1.62973E+006
            2629    1.89369E+007    1.69262E+007    1.69262E+007   -8.07535E+005   -3.01958E+006    1.99458E+007   -4.36637E+006    1.86429E+007   -3.01496E+006    1.69105E+007   -7.96424E+005    3.01161E+005   -1.92093E+004   -4.44922E+005
            2630    1.82470E+007    1.61067E+007    1.61067E+007   -9.41440E+005   -3.13999E+006    1.92467E+007   -4.00841E+006    1.79454E+007   -3.13452E+006    1.60124E+007   -8.52632E+005    3.10093E+005   -5.13913E+004   -1.22966E+006
            2631    1.71661E+007    1.48594E+007    1.48594E+007   -1.11425E+006   -3.29141E+006    1.81508E+007   -3.48456E+006    1.68512E+007   -3.28436E+006    1.46709E+007   -9.32807E+005    3.24375E+005   -8.19326E+004   -1.69712E+006
            2632    1.58654E+007    1.33834E+007    1.33834E+007   -1.31511E+006   -3.43568E+006    1.68190E+007   -2.87752E+006    1.55418E+007   -3.42713E+006    1.31290E+007   -1.06926E+006    3.37973E+005   -9.80637E+004   -1.88966E+006
            2633    1.46378E+007    1.20376E+007    1.20376E+007   -1.46889E+006   -3.51588E+006    1.55535E+007   -2.35096E+006    1.43104E+007   -3.50615E+006    1.17722E+007   -1.21314E+006    3.45164E+005   -1.04997E+005   -1.84589E+006
            2634    1.34555E+007    1.07313E+007    1.07313E+007   -1.62980E+006   -3.60096E+006    1.43323E+007   -1.83353E+006    1.31247E+007   -3.59093E+006    1.05155E+007   -1.42400E+006    3.35327E+005   -1.02019E+005   -1.58756E+006
            2635    1.34268E+007    1.05885E+007    1.05885E+007   -2.00955E+006   -3.53661E+006    1.41251E+007   -1.68077E+006    1.32294E+007   -3.52641E+006    1.04495E+007   -1.88077E+006    3.28705E+005   -9.17768E+004   -1.27752E+006
            2636    9.99701E+006    9.03662E+006    9.03662E+006    4.76679E+005   -1.95049E+006    1.09871E+007   -2.52093E+006    9.29876E+006   -1.94541E+006    8.99969E+006    5.08523E+005    1.94604E+005    5.33718E+004   -5.35271E+005
            2637    9.79167E+006    9.01622E+006    9.01622E+006    6.14601E+005   -1.73718E+006    1.07534E+007   -2.63121E+006    9.12318E+006   -1.73400E+006    9.00912E+006    6.18518E+005    1.03982E+005    6.92934E+004   -2.26842E+005
            2638    9.75515E+006    9.02295E+006    9.02295E+006    6.02435E+005   -1.66681E+006    1.06898E+007   -2.65286E+006    9.13254E+006   -1.66437E+006    9.02295E+006    5.99990E+005    1.60921E+003    7.44499E+004   -1.62428E+002
            2639    9.78894E+006    9.01108E+006    9.01108E+006    6.05381E+005   -1.73635E+006    1.07474E+007   -2.62670E+006    9.12626E+006   -1.73324E+006    9.00448E+006    6.08878E+005   -1.00787E+005    6.90140E+004    2.18624E+005
            2640    9.99570E+006    9.03599E+006    9.03599E+006    4.72615E+005   -1.94760E+006    1.09836E+007   -2.52033E+006    9.30157E+006   -1.94255E+006    8.99852E+006    5.05034E+005   -1.93623E+005    5.31756E+004    5.39903E+005
            2641    1.04323E+007    9.16504E+006    9.16504E+006    1.59117E+005   -2.26630E+006    1.14313E+007   -2.35262E+006    9.76723E+006   -2.25899E+006    9.06473E+006    2.52120E+005   -2.67801E+005    2.72924E+004    9.16126E+005
            2642    1.11834E+007    9.55017E+006    9.55017E+006   -3.16650E+005   -2.59795E+006    1.21481E+007   -2.21186E+006    1.06408E+007   -2.58900E+006    9.36048E+006   -1.35903E+005   -3.18096E+005   -1.79326E+003    1.32533E+006
            2643    1.20365E+007    9.99922E+006    9.99922E+006   -8.88294E+005   -2.92614E+006    1.29254E+007   -2.06160E+006    1.16389E+007   -2.91670E+006    9.79741E+006   -6.95910E+005   -3.45665E+005   -2.98145E+004    1.43429E+006
            2644    1.21996E+007    9.88350E+006    9.88350E+006   -1.13228E+006   -3.22835E+006    1.31119E+007   -1.84096E+006    1.17842E+007   -3.21920E+006    9.72092E+006   -9.78852E+005   -3.22976E+005   -8.04998E+004    1.29394E+006
            2645    1.05319E+007    9.51704E+006    9.51704E+006    1.15214E+005   -1.86409E+006    1.13811E+007   -2.58939E+006    1.01007E+007   -1.85617E+006    9.47121E+006    1.53131E+005    1.98109E+005    8.29311E+004   -6.31398E+005
            2646    1.11789E+007    1.00846E+007    1.00846E+007   -2.93742E+005   -1.75178E+006    1.18363E+007   -2.67968E+006    1.09619E+007   -1.73926E+006    1.00420E+007   -2.63709E+005    2.09390E+005    1.01888E+005   -6.35860E+005
            2647    1.18409E+007    1.06682E+007    1.06682E+007   -6.79094E+005   -1.61126E+006    1.22795E+007   -2.79262E+006    1.17580E+007   -1.59199E+006    1.06347E+007   -6.64830E+005    2.19814E+005    1.08217E+005   -5.80990E+005
            2648    1.24634E+007    1.12067E+007    1.12067E+007   -1.03012E+006   -1.47155E+006    1.26782E+007   -2.90167E+006    1.24458E+007   -1.44696E+006    1.11836E+007   -1.03167E+006    2.21988E+005    8.48532E+004   -4.85418E+005
            2649    1.30302E+007    1.16788E+007    1.16788E+007   -1.26825E+006   -1.43298E+006    1.31118E+007   -2.99254E+006    1.30279E+007   -1.32743E+006    1.16642E+007   -1.35919E+006    2.26319E+005    7.36145E+004   -3.74140E+005
            2650    1.34471E+007    1.20282E+007    1.20282E+007   -1.23434E+006   -1.59616E+006    1.36244E+007   -3.06591E+006    1.34362E+007   -1.23513E+006    1.20207E+007   -1.58781E+006    2.27474E+005    3.71176E+004   -2.23638E+005
            2651    1.36747E+007    1.22124E+007    1.22124E+007   -1.19459E+006   -1.71530E+006    1.39277E+007   -3.10082E+006    1.36524E+007   -1.19140E+006    1.22079E+007   -1.71404E+006    2.28983E+005    1.79074E+004   -8.70108E+004
            2652    1.02462E+007    9.38170E+006    9.38170E+006    2.33570E+005   -1.68992E+006    1.10716E+007   -2.64178E+006    9.82759E+006   -1.68385E+006    9.37173E+006    2.37463E+005    8.86903E+004    9.91086E+004   -2.91681E+005
            2653    1.08225E+007    9.89538E+006    9.89538E+006   -1.42209E+005   -1.57018E+006    1.14656E+007   -2.72766E+006    1.06074E+007   -1.56064E+006    9.88683E+006   -1.43198E+005    7.17926E+004    1.11817E+005   -2.85860E+005
            2654    1.14815E+007    1.04531E+007    1.04531E+007   -5.75574E+005   -1.43302E+006    1.18861E+007   -2.81484E+006    1.14091E+007   -1.41667E+006    1.04476E+007   -5.86368E+005    5.69808E+004    1.15175E+005   -2.42080E+005
            2655    1.21301E+007    1.10065E+007    1.10065E+007   -9.49651E+005   -1.29048E+006    1.22970E+007   -2.92212E+006    1.21194E+007   -1.26480E+006    1.10037E+007   -9.72507E+005    3.95780E+004    8.91842E+004   -1.80007E+005
            2656    1.26955E+007    1.14725E+007    1.14725E+007   -1.11020E+006   -1.33305E+006    1.28055E+007   -3.00973E+006    1.26911E+007   -1.14139E+006    1.14714E+007   -1.30079E+006    2.56064E+004    7.71423E+004   -1.14395E+005
            2657    1.31299E+007    1.18274E+007    1.18274E+007   -1.04355E+006   -1.54686E+006    1.33743E+007   -3.07900E+006    1.31081E+007   -1.04655E+006    1.18270E+007   -1.54346E+006    1.47466E+004    3.87347E+004   -7.17950E+004
            2658    1.33551E+007    1.20103E+007    1.20103E+007   -9.99033E+005   -1.66569E+006    1.36760E+007   -3.11518E+006    1.33176E+007   -9.99632E+005    1.20103E+007   -1.66507E+006    8.38965E+003    2.00672E+004   -1.61671E+004
            2659    1.01627E+007    9.35639E+006    9.35639E+006    2.98159E+005   -1.63352E+006    1.09899E+007   -2.67368E+006    9.73673E+006   -1.62760E+006    9.35636E+006    2.92278E+005   -2.45598E+003    1.06696E+005    1.68219E+004
            2660    1.07584E+007    9.85718E+006    9.85718E+006   -1.10561E+005   -1.54745E+006    1.14046E+007   -2.73306E+006    1.05393E+007   -1.53718E+006    9.85683E+006   -1.20483E+005   -9.26257E+003    1.20919E+005    5.78672E+004
            2661    1.14446E+007    1.04334E+007    1.04334E+007   -5.37989E+005   -1.43189E+006    1.18653E+007   -2.82118E+006    1.13656E+007   -1.41434E+006    1.04325E+007   -5.54589E+005   -1.95228E+004    1.23737E+005    1.00523E+005
            2662    1.21312E+007    1.10028E+007    1.10028E+007   -9.31941E+005   -1.31576E+006    1.23186E+007   -2.91837E+006    1.21175E+007   -1.28985E+006    1.10014E+007   -9.56406E+005   -3.11302E+004    9.58522E+004    1.28317E+005
            2663    1.27543E+007    1.15080E+007    1.15080E+007   -1.14584E+006   -1.34456E+006    1.28525E+007   -3.00585E+006    1.27508E+007   -1.18798E+006    1.15066E+007   -1.30108E+006   -4.15800E+004    8.09248E+004    1.24447E+005
            2664    1.32108E+007    1.18777E+007    1.18777E+007   -1.10619E+006   -1.54882E+006    1.34266E+007   -3.07424E+006    1.31941E+007   -1.10982E+006    1.18769E+007   -1.54433E+006   -4.90972E+004    4.05876E+004    9.49387E+004
            2665    1.34612E+007    1.20770E+007    1.20770E+007   -1.07315E+006   -1.67506E+006    1.37520E+007   -3.10959E+006    1.34308E+007   -1.07361E+006    1.20767E+007   -1.67433E+006   -5.34937E+004    2.00583E+004    2.78303E+004
            2666    1.02482E+007    9.37263E+006    9.37263E+006    2.35447E+005   -1.70828E+006    1.10809E+007   -2.63327E+006    9.82060E+006   -1.70211E+006    9.35956E+006    2.42350E+005   -1.05450E+005    9.69463E+004    3.32864E+005
            2667    1.08548E+007    9.89192E+006    9.89192E+006   -1.57549E+005   -1.61996E+006    1.15119E+007   -2.70480E+006    1.06298E+007   -1.61018E+006    9.87464E+006   -1.50041E+005   -1.17792E+005    1.07549E+005    4.02859E+005
            2668    1.15667E+007    1.04857E+007    1.04857E+007   -5.96856E+005   -1.51084E+006    1.19966E+007   -2.79267E+006    1.14850E+007   -1.49479E+006    1.04665E+007   -5.93666E+005   -1.35365E+005    1.09339E+005    4.44186E+005
            2669    1.22849E+007    1.10892E+007    1.10892E+007   -9.87948E+005   -1.39354E+006    1.24827E+007   -2.90256E+006    1.22698E+007   -1.37187E+006    1.10715E+007   -9.91984E+005   -1.51433E+005    8.21944E+004    4.37830E+005
            2670    1.29312E+007    1.16190E+007    1.16190E+007   -1.22727E+006   -1.39546E+006    1.30144E+007   -2.99875E+006    1.29287E+007   -1.27233E+006    1.16059E+007   -1.33730E+006   -1.67547E+005    7.07256E+004    3.77094E+005
            2671    1.34163E+007    1.20196E+007    1.20196E+007   -1.19071E+006   -1.59367E+006    1.36133E+007   -3.07840E+006    1.34027E+007   -1.19190E+006    1.20126E+007   -1.58554E+006   -1.77302E+005    3.44062E+004    2.49640E+005
            2672    1.36740E+007    1.22297E+007    1.22297E+007   -1.15702E+006   -1.71457E+006    1.39443E+007   -3.11937E+006    1.36484E+007   -1.15514E+006    1.22266E+007   -1.71335E+006   -1.83987E+005    1.77594E+004    8.94208E+004
            2673    1.05387E+007    9.48881E+006    9.48881E+006    8.98605E+004   -1.90464E+006    1.13934E+007   -2.55801E+006    1.01009E+007   -1.89688E+006    9.43768E+006    1.33226E+005   -2.01712E+005    7.94460E+004    6.68389E+005
            2674    1.12319E+007    1.00831E+007    1.00831E+007   -3.06370E+005   -1.83470E+006    1.19178E+007   -2.64734E+006    1.09943E+007   -1.82299E+006    1.00251E+007   -2.60118E+005   -2.22039E+005    9.34594E+004    7.47876E+005
            2675    1.19950E+007    1.07247E+007    1.07247E+007   -7.19075E+005   -1.75444E+006    1.24791E+007   -2.75040E+006    1.18939E+007   -1.73617E+006    1.06670E+007   -6.79611E+005   -2.51984E+005    1.00432E+005    7.76774E+005
            2676    1.27788E+007    1.13862E+007    1.13862E+007   -1.10091E+006   -1.66565E+006    1.30518E+007   -2.87320E+006    1.27507E+007   -1.64454E+006    1.13362E+007   -1.07207E+006   -2.77910E+005    7.55706E+004    7.42176E+005
            2677    1.34918E+007    1.19807E+007    1.19807E+007   -1.40413E+006   -1.61560E+006    1.35963E+007   -2.98699E+006    1.34881E+007   -1.57192E+006    1.19458E+007   -1.41294E+006   -3.06160E+005    6.63515E+004    6.13424E+005
            2678    1.40148E+007    1.24196E+007    1.24196E+007   -1.50903E+006   -1.67980E+006    1.40994E+007   -3.07691E+006    1.40124E+007   -1.51238E+006    1.24004E+007   -1.65729E+006   -3.23686E+005    3.22988E+004    4.05544E+005
            2679    1.43017E+007    1.26583E+007    1.26583E+007   -1.49473E+006   -1.78753E+006    1.44459E+007   -3.12536E+006    1.42950E+007   -1.48813E+006    1.26491E+007   -1.78489E+006   -3.35812E+005    1.68124E+004    1.35657E+005
            2680    1.10450E+007    9.72177E+006    9.72177E+006   -1.90852E+005   -2.18408E+006    1.19059E+007   -2.44895E+006    1.06290E+007   -2.17556E+006    9.60832E+006   -8.59234E+004   -2.69797E+005    4.51848E+004    1.02701E+006
            2681    1.17193E+007    1.03186E+007    1.03186E+007   -5.29262E+005   -2.11136E+006    1.24300E+007   -2.55934E+006    1.14754E+007   -2.10132E+006    1.02052E+007   -4.25866E+005   -2.76613E+005    5.38278E+004    1.07474E+006
            2682    1.25318E+007    1.10216E+007    1.10216E+007   -9.09636E+005   -2.03479E+006    1.30564E+007   -2.69240E+006    1.24174E+007   -2.02157E+006    1.09097E+007   -8.10885E+005   -2.98807E+005    5.87037E+004    1.11667E+006
            2683    1.33837E+007    1.17649E+007    1.17649E+007   -1.25833E+006   -1.95227E+006    1.37172E+007   -2.85145E+006    1.33432E+007   -1.93923E+006    1.16744E+007   -1.18079E+006   -3.17831E+005    3.81996E+004    1.03877E+006
            2684    1.41371E+007    1.24185E+007    1.24185E+007   -1.53602E+006   -1.89448E+006    1.43130E+007   -2.99599E+006    1.41269E+007   -1.87697E+006    1.23580E+007   -1.49309E+006   -3.41575E+005    3.66705E+004    8.53623E+005
            2685    1.47096E+007    1.29212E+007    1.29212E+007   -1.73742E+006   -1.83887E+006    1.47601E+007   -3.11498E+006    1.47088E+007   -1.82164E+006    1.28913E+007   -1.72478E+006   -3.55297E+005    1.48828E+004    5.59154E+005
            2686    1.50171E+007    1.31881E+007    1.31881E+007   -1.80624E+006   -1.85172E+006    1.50398E+007   -3.17672E+006    1.50170E+007   -1.80177E+006    1.31768E+007   -1.84490E+006   -3.65001E+005    8.84703E+003    1.90100E+005
            2687    1.16787E+007    1.00178E+007    1.00178E+007   -5.41492E+005   -2.52600E+006    1.25438E+007   -2.31677E+006    1.12900E+007   -2.51513E+006    9.84885E+006   -3.83416E+005   -3.45791E+005    1.34048E+004    1.28803E+006
            2688    1.23651E+007    1.06426E+007    1.06426E+007   -7.83591E+005   -2.48514E+006    1.31278E+007   -2.45797E+006    1.20975E+007   -2.47055E+006    1.04590E+007   -6.14551E+005   -3.86489E+005    3.08794E+004    1.39337E+006
            2689    1.32757E+007    1.14470E+007    1.14470E+007   -1.12186E+006   -2.43761E+006    1.38846E+007   -2.62916E+006    1.31278E+007   -2.41819E+006    1.12735E+007   -9.67819E+005   -4.32304E+005    4.31409E+004    1.41066E+006
            2690    1.41789E+007    1.22601E+007    1.22601E+007   -1.40291E+006   -2.38386E+006    1.46439E+007   -2.82443E+006    1.41023E+007   -2.36428E+006    1.21176E+007   -1.28003E+006   -4.65015E+005    2.55964E+004    1.31559E+006
            2691    1.50258E+007    1.30202E+007    1.30202E+007   -1.63917E+006   -2.34698E+006    1.53672E+007   -3.01135E+006    1.49882E+007   -2.32522E+006    1.29240E+007   -1.56471E+006   -5.02485E+005    2.51955E+004    1.07943E+006
            2692    1.56524E+007    1.35904E+007    1.35904E+007   -1.80293E+006   -2.30896E+006    1.58993E+007   -3.15949E+006    1.56340E+007   -2.28937E+006    1.35401E+007   -1.77224E+006   -5.25494E+005    9.46306E+003    7.11086E+005
            2693    1.60181E+007    1.39215E+007    1.39215E+007   -1.88552E+006   -2.29972E+006    1.62212E+007   -3.24543E+006    1.60061E+007   -2.28120E+006    1.38997E+007   -1.88227E+006   -5.39955E+005    6.46418E+003    2.44464E+005
            2694    1.21744E+007    1.01993E+007    1.01993E+007   -8.50611E+005   -2.85163E+006    1.30510E+007   -2.16570E+006    1.17959E+007   -2.84252E+006    9.97275E+006   -6.33131E+005   -3.40510E+005   -2.88183E+004    1.53490E+006
            2695    1.29910E+007    1.09674E+007    1.09674E+007   -1.07047E+006   -2.80283E+006    1.37702E+007   -2.36470E+006    1.27272E+007   -2.79477E+006    1.07323E+007   -8.43376E+005   -3.30181E+005   -4.43695E+004    1.63717E+006
            2696    1.39116E+007    1.18200E+007    1.18200E+007   -1.26897E+006   -2.78922E+006    1.46092E+007   -2.58728E+006    1.37228E+007   -2.77886E+006    1.15951E+007   -1.05440E+006   -3.80384E+005   -2.27265E+004    1.66319E+006
            2697    1.49613E+007    1.28005E+007    1.28005E+007   -1.48904E+006   -2.75252E+006    1.55530E+007   -2.85297E+006    1.48406E+007   -2.74163E+006    1.26144E+007   -1.31383E+006   -4.06665E+005   -2.88974E+004    1.57291E+006
            2698    1.59158E+007    1.37029E+007    1.37029E+007   -1.63928E+006   -2.73043E+006    1.64333E+007   -3.11106E+006    1.58313E+007   -2.71826E+006    1.35791E+007   -1.52761E+006   -4.42219E+005   -2.14142E+004    1.30504E+006
            2699    1.66737E+007    1.44269E+007    1.44269E+007   -1.75222E+006   -2.70074E+006    1.71277E+007   -3.32466E+006    1.66128E+007   -2.68811E+006    1.43671E+007   -1.70505E+006   -4.61884E+005   -1.26352E+004    8.73441E+005
            2700    1.71108E+007    1.48480E+007    1.48480E+007   -1.79757E+006   -2.69297E+006    1.75409E+007   -3.45247E+006    1.70580E+007   -2.68019E+006    1.48297E+007   -1.79205E+006   -4.73256E+005   -7.65705E+003    3.03017E+005
            2701    1.27261E+007    1.04269E+007    1.04269E+007   -1.17871E+006   -3.18203E+006    1.36089E+007   -2.02204E+006    1.23638E+007   -3.16559E+006    1.01740E+007   -9.42258E+005   -4.50243E+005   -4.71992E+003    1.64471E+006
            2702    1.33580E+007    1.10558E+007    1.10558E+007   -1.23433E+006   -3.16089E+006    1.42167E+007   -2.22020E+006    1.30400E+007   -3.14790E+006    1.07782E+007   -9.69703E+005   -4.25469E+005   -5.01988E+004    1.78323E+006
            2703    1.44245E+007    1.20624E+007    1.20624E+007   -1.38944E+006   -3.16957E+006    1.52320E+007   -2.50112E+006    1.41742E+007   -3.15601E+006    1.17829E+007   -1.12347E+006   -4.49593E+005   -4.80388E+004    1.87225E+006
            2704    1.55376E+007    1.31604E+007    1.31604E+007   -1.47142E+006   -3.14707E+006    1.63075E+007   -2.84730E+006    1.53323E+007   -3.13397E+006    1.29208E+007   -1.24491E+006   -4.58771E+005   -5.21001E+004    1.80563E+006
            2705    1.66748E+007    1.43057E+007    1.43057E+007   -1.51763E+006   -3.10686E+006    1.74125E+007   -3.22706E+006    1.65031E+007   -3.09378E+006    1.41365E+007   -1.36154E+006   -4.74435E+005   -4.99453E+004    1.56317E+006
            2706    1.75942E+007    1.52487E+007    1.52487E+007   -1.53690E+006   -3.05567E+006    1.83044E+007   -3.55204E+006    1.74458E+007   -3.04297E+006    1.51671E+007   -1.46805E+006   -4.80890E+005   -3.10360E+004    1.07240E+006
            2707    1.81316E+007    1.58014E+007    1.58014E+007   -1.54382E+006   -3.02564E+006    1.88270E+007   -3.74397E+006    1.79946E+007   -3.01309E+006    1.57801E+007   -1.53511E+006   -4.85414E+005   -1.52119E+004    3.88634E+005
            2708    1.90337E+007    1.70403E+007    1.70403E+007   -7.47597E+005   -3.03288E+006    2.00732E+007   -4.41995E+006    1.87214E+007   -3.02828E+006    1.70233E+007   -7.35209E+005   -3.01628E+005   -1.91743E+004    4.70241E+005
            2709    1.83240E+007    1.61844E+007    1.61844E+007   -9.12549E+005   -3.15945E+006    1.93439E+007   -4.03747E+006    1.80102E+007   -3.15389E+006    1.60837E+007   -8.17435E+005   -3.13355E+005   -5.26712E+004    1.27398E+006
            2710    1.71590E+007    1.48310E+007    1.48310E+007   -1.12282E+006   -3.32119E+006    1.81522E+007   -3.46233E+006    1.68378E+007   -3.31400E+006    1.46276E+007   -9.26589E+005   -3.29629E+005   -8.25623E+004    1.76230E+006
            2711    1.58721E+007    1.34045E+007    1.34045E+007   -1.28449E+006   -3.43189E+006    1.68364E+007   -2.89606E+006    1.55402E+007   -3.42331E+006    1.31273E+007   -1.01579E+006   -3.43648E+005   -9.70419E+004    1.97211E+006
            2712    1.45887E+007    1.20727E+007    1.20727E+007   -1.32923E+006   -3.46683E+006    1.55396E+007   -2.42556E+006    1.42300E+007   -3.45720E+006    1.17717E+007   -1.03779E+006   -3.46405E+005   -1.06339E+005    1.95865E+006
            2713    1.35356E+007    1.10347E+007    1.10347E+007   -1.31030E+006   -3.43909E+006    1.44738E+007   -2.09511E+006    1.31510E+007   -3.42963E+006    1.07479E+007   -1.03290E+006   -3.40809E+005   -9.65015E+004    1.83201E+006
            2714    1.26000E+007    1.02008E+007    1.02008E+007   -1.12302E+006   -3.37234E+006    1.35732E+007   -1.90182E+006    1.21359E+007   -3.36277E+006    9.97717E+006   -9.08943E+005   -3.08787E+005   -1.10261E+005    1.54874E+006
            2715    1.36073E+007    1.12828E+007    1.12828E+007   -1.41627E+006   -3.07968E+006    1.43625E+007   -2.26229E+006    1.33757E+007   -3.07010E+006    1.10636E+007   -1.20667E+006    3.66434E+005    5.37865E+004    1.61745E+006
            2716    1.23398E+007    1.04047E+007    1.04047E+007   -7.48170E+005   -2.85160E+006    1.32563E+007   -2.26832E+006    1.19264E+007   -2.84190E+006    1.00935E+007   -4.46609E+005    3.52754E+005    3.57935E+004    1.80891E+006
            2717    1.12074E+007    9.55422E+006    9.55422E+006   -3.31835E+005   -2.62099E+006    1.21752E+007   -2.20046E+006    1.06622E+007   -2.61196E+006    9.34182E+006   -1.28464E+005    3.20667E+005    5.89499E+003    1.40511E+006
            2718    1.04293E+007    9.18337E+006    9.18337E+006    2.08677E+005   -2.25815E+006    1.14415E+007   -2.37796E+006    9.73987E+006   -2.25068E+006    9.07550E+006    3.09072E+005    2.69803E+005   -2.84609E+004    9.49740E+005
            2719    1.10741E+007    9.78110E+006    9.78110E+006   -1.98402E+005   -2.13269E+006    1.19138E+007   -2.48334E+006    1.06841E+007   -2.12447E+006    9.67198E+006   -9.74963E+004    2.55425E+005   -5.04854E+004    1.01292E+006
            2720    1.17180E+007    1.03999E+007    1.03999E+007   -5.07183E+005   -1.98820E+006    1.23881E+007   -2.63484E+006    1.15046E+007   -1.97847E+006    1.03064E+007   -4.23427E+005    2.44509E+005   -6.55544E+004    9.80845E+005
            2721    1.23570E+007    1.09722E+007    1.09722E+007   -8.57372E+005   -1.85215E+006    1.28243E+007   -2.75422E+006    1.22664E+007   -1.83886E+006    1.08963E+007   -7.94748E+005    2.46574E+005   -7.42178E+004    9.16558E+005
            2722    1.30149E+007    1.15586E+007    1.15586E+007   -1.18528E+006   -1.71132E+006    1.32699E+007   -2.88733E+006    1.29909E+007   -1.69665E+006    1.15021E+007   -1.14341E+006    2.44249E+005   -5.74474E+004    8.14067E+005
            2723    1.35930E+007    1.20630E+007    1.20630E+007   -1.44291E+006   -1.61543E+006    1.36784E+007   -3.00154E+006    1.35905E+007   -1.58102E+006    1.20296E+007   -1.44395E+006    2.48489E+005   -5.39528E+004    6.25127E+005
            2724    1.40294E+007    1.24369E+007    1.24369E+007   -1.49161E+006   -1.69143E+006    1.41283E+007   -3.08460E+006    1.40262E+007   -1.49330E+006    1.24206E+007   -1.67347E+006    2.47612E+005   -2.70877E+004    4.09780E+005
            2725    1.42492E+007    1.26271E+007    1.26271E+007   -1.45005E+006   -1.78826E+006    1.44153E+007   -3.12959E+006    1.42402E+007   -1.44651E+006    1.26215E+007   -1.78627E+006    2.47939E+005   -1.44773E+004    1.29209E+005
            2726    1.18483E+007    1.02383E+007    1.02383E+007   -5.22329E+005   -2.45895E+006    1.26973E+007   -2.41902E+006    1.14841E+007   -2.44711E+006    1.00589E+007   -3.54763E+005    3.58087E+005   -1.75077E+004    1.33964E+006
            2727    1.23843E+007    1.07353E+007    1.07353E+007   -7.64089E+005   -2.37602E+006    1.31113E+007   -2.53172E+006    1.21449E+007   -2.35977E+006    1.05810E+007   -6.26091E+005    3.95180E+005   -4.37076E+004    1.27289E+006
            2728    1.30860E+007    1.13786E+007    1.13786E+007   -1.06527E+006   -2.26663E+006    1.36452E+007   -2.68224E+006    1.29611E+007   -2.24611E+006    1.12335E+007   -9.40691E+005    4.22889E+005   -5.36272E+004    1.27675E+006
            2729    1.38301E+007    1.20574E+007    1.20574E+007   -1.35985E+006   -2.15152E+006    1.42090E+007   -2.84868E+006    1.37790E+007   -2.13063E+006    1.19465E+007   -1.26985E+006    4.41978E+005   -3.88281E+004    1.13896E+006
            2730    1.44857E+007    1.26355E+007    1.26355E+007   -1.62008E+006   -2.06975E+006    1.47053E+007   -2.98189E+006    1.44699E+007   -2.04510E+006    1.25616E+007   -1.57081E+006    4.64588E+005   -3.69160E+004    9.18330E+005
            2731    1.49699E+007    1.30746E+007    1.30746E+007   -1.79576E+006   -1.99282E+006    1.50674E+007   -3.09535E+006    1.49670E+007   -1.97096E+006    1.30370E+007   -1.78004E+006    4.77769E+005   -1.73130E+004    5.77543E+005
            2732    1.52169E+007    1.32945E+007    1.32945E+007   -1.89092E+006   -1.95375E+006    1.52483E+007   -3.14994E+006    1.52166E+007   -1.93441E+006    1.32762E+007   -1.89196E+006    4.86365E+005   -8.42862E+003    2.05629E+005
            2733    1.24977E+007    1.05445E+007    1.05445E+007   -9.02717E+005   -2.78910E+006    1.33336E+007   -2.28423E+006    1.21712E+007   -2.78080E+006    1.03530E+007   -7.19457E+005    3.30078E+005    3.16854E+004    1.43644E+006
            2734    1.29488E+007    1.10077E+007    1.10077E+007   -9.68210E+005   -2.73292E+006    1.37406E+007   -2.43553E+006    1.26740E+007   -2.72478E+006    1.07815E+007   -7.50128E+005    3.30068E+005    2.70844E+004    1.60142E+006
            2735    1.38965E+007    1.18660E+007    1.18660E+007   -1.28410E+006   -2.67262E+006    1.45386E+007   -2.63643E+006    1.37391E+007   -2.66191E+006    1.16555E+007   -1.08432E+006    3.74905E+005    6.66050E+003    1.61243E+006
            2736    1.47849E+007    1.26813E+007    1.26813E+007   -1.54131E+006   -2.60811E+006    1.52894E+007   -2.84395E+006    1.46979E+007   -2.59680E+006    1.25135E+007   -1.38481E+006    4.00007E+005    1.13787E+004    1.48735E+006
            2737    1.55952E+007    1.34529E+007    1.34529E+007   -1.70949E+006   -2.54181E+006    1.59947E+007   -3.06720E+006    1.55451E+007   -2.52907E+006    1.33481E+007   -1.61743E+006    4.32024E+005    3.37685E+003    1.18457E+006
            2738    1.61849E+007    1.40113E+007    1.40113E+007   -1.83835E+006   -2.48927E+006    1.65006E+007   -3.22790E+006    1.61555E+007   -2.47649E+006    1.39607E+007   -1.80049E+006    4.49956E+005    3.70151E+003    7.78786E+005
            2739    1.64869E+007    1.43040E+007    1.43040E+007   -1.89046E+006   -2.46059E+006    1.67646E+007   -3.31766E+006    1.64647E+007   -2.44777E+006    1.42872E+007   -1.88648E+006    4.62088E+005    9.53329E+002    2.56077E+005
            2740    1.26094E+007    1.04090E+007    1.04090E+007   -9.68238E+005   -3.14831E+006    1.35573E+007   -2.09748E+006    1.21745E+007   -3.13146E+006    1.01404E+007   -7.16488E+005    4.63186E+005    1.90294E+004    1.67624E+006
            2741    1.36239E+007    1.12537E+007    1.12537E+007   -1.41939E+006   -3.15472E+006    1.44084E+007   -2.22653E+006    1.33719E+007   -3.14086E+006    1.09701E+007   -1.14965E+006    4.37008E+005    3.23315E+004    1.83013E+006
            2742    1.44799E+007    1.20676E+007    1.20676E+007   -1.53688E+006   -3.15229E+006    1.52199E+007   -2.45947E+006    1.42751E+007   -3.13808E+006    1.17958E+007   -1.27933E+006    4.57170E+005    3.72079E+004    1.85463E+006
            2743    1.55992E+007    1.32150E+007    1.32150E+007   -1.58257E+006   -3.07814E+006    1.62931E+007   -2.85142E+006    1.54367E+007   -3.06425E+006    1.29935E+007   -1.37499E+006    4.71286E+005    4.10012E+004    1.74009E+006
            2744    1.65853E+007    1.42138E+007    1.42138E+007   -1.62944E+006   -3.02538E+006    1.72392E+007   -3.18634E+006    1.64524E+007   -3.01108E+006    1.40627E+007   -1.49262E+006    4.94014E+005    3.80002E+004    1.46553E+006
            2745    1.73688E+007    1.50153E+007    1.50153E+007   -1.66170E+006   -2.97107E+006    1.79864E+007   -3.46085E+006    1.72572E+007   -2.95663E+006    1.49425E+007   -1.60332E+006    5.08506E+005    2.51958E+004    9.84726E+005
            2746    1.77986E+007    1.54439E+007    1.54439E+007   -1.69419E+006   -2.94867E+006    1.83926E+007   -3.60036E+006    1.76987E+007   -2.93409E+006    1.54219E+007   -1.68671E+006    5.17387E+005    1.09133E+004    3.57921E+005
            2747    1.89273E+007    1.69142E+007    1.69142E+007   -8.09252E+005   -3.02237E+006    1.99366E+007   -4.36085E+006    1.86329E+007   -3.01776E+006    1.68974E+007   -7.97114E+005    3.00742E+005    1.96789E+004    4.64797E+005
            2748    1.82483E+007    1.61076E+007    1.61076E+007   -9.40395E+005   -3.14135E+006    1.92490E+007   -4.00863E+006    1.79461E+007   -3.13590E+006    1.60133E+007   -8.51470E+005    3.09635E+005    5.13497E+004    1.23046E+006
            2749    1.71820E+007    1.48718E+007    1.48718E+007   -1.12147E+006   -3.29250E+006    1.81643E+007   -3.48596E+006    1.68693E+007   -3.28543E+006    1.46847E+007   -9.41374E+005    3.24795E+005    8.18737E+004    1.69197E+006
            2750    1.58915E+007    1.34072E+007    1.34072E+007   -1.32093E+006   -3.43588E+006    1.68431E+007   -2.88346E+006    1.55701E+007   -3.42735E+006    1.31528E+007   -1.07506E+006    3.38908E+005    9.73473E+004    1.89155E+006
            2751    1.46749E+007    1.20824E+007    1.20824E+007   -1.45742E+006   -3.51109E+006    1.55935E+007   -2.37131E+006    1.43462E+007   -3.50137E+006    1.18161E+007   -1.20081E+006    3.45092E+005    1.05567E+005    1.85131E+006
            2752    1.34851E+007    1.07726E+007    1.07726E+007   -1.61312E+006   -3.59289E+006    1.43655E+007   -1.85554E+006    1.31521E+007   -3.58288E+006    1.05514E+007   -1.40186E+006    3.36030E+005    1.02041E+005    1.60941E+006
            2753    1.34127E+007    1.05876E+007    1.05876E+007   -1.98339E+006   -3.53228E+006    1.41199E+007   -1.69065E+006    1.32092E+007   -3.52205E+006    1.04493E+007   -1.85527E+006    3.27648E+005    9.29326E+004    1.27326E+006
            2754    1.81373E+007    1.58062E+007    1.58062E+007   -1.54378E+006   -3.02736E+006    1.88335E+007   -3.74501E+006    1.80000E+007   -3.01484E+006    1.57844E+007   -1.53458E+006   -4.84999E+005    1.55579E+004   -3.99356E+005
            2755    1.71150E+007    1.48520E+007    1.48520E+007   -1.79439E+006   -2.69585E+006    1.75479E+007   -3.45393E+006    1.70614E+007   -2.68308E+006    1.48331E+007   -1.78826E+006   -4.73127E+005    8.06562E+003   -3.19321E+005
            2756    1.60211E+007    1.39231E+007    1.39231E+007   -1.88538E+006   -2.30258E+006    1.62256E+007   -3.24503E+006    1.60089E+007   -2.28409E+006    1.39008E+007   -1.88158E+006   -5.39499E+005   -6.11162E+003   -2.61970E+005
            2757    1.50115E+007    1.31822E+007    1.31822E+007   -1.80725E+006   -1.85133E+006    1.50335E+007   -3.17454E+006    1.50114E+007   -1.80399E+006    1.31704E+007   -1.84282E+006   -3.65291E+005   -9.67734E+003   -2.07590E+005
            2758    1.42951E+007    1.26527E+007    1.26527E+007   -1.49518E+006   -1.78522E+006    1.44379E+007   -3.12409E+006    1.42885E+007   -1.48871E+006    1.26432E+007   -1.78222E+006   -3.35461E+005   -1.72076E+004   -1.48288E+005
            2759    1.36690E+007    1.22253E+007    1.22253E+007   -1.15764E+006   -1.71295E+006    1.39382E+007   -3.11822E+006    1.36436E+007   -1.15581E+006    1.22221E+007   -1.71159E+006   -1.83824E+005   -1.83590E+004   -9.65460E+004
            2760    1.34587E+007    1.20752E+007    1.20752E+007   -1.07340E+006   -1.67337E+006    1.37486E+007   -3.10949E+006    1.34285E+007   -1.07386E+006    1.20750E+007   -1.67262E+006   -5.37598E+004   -2.00280E+004   -3.09821E+004
            2761    1.33553E+007    1.20100E+007    1.20100E+007   -9.99563E+005   -1.66615E+006    1.36761E+007   -3.11476E+006    1.33178E+007   -1.00018E+006    1.20100E+007   -1.66551E+006    8.72639E+003   -2.03976E+004    1.43734E+004
            2762    1.36772E+007    1.22148E+007    1.22148E+007   -1.19500E+006   -1.71510E+006    1.39299E+007   -3.10156E+006    1.36550E+007   -1.19175E+006    1.22103E+007   -1.71390E+006    2.29523E+005   -1.74510E+004    8.46773E+004
            2763    1.75860E+007    1.52400E+007    1.52400E+007   -1.53236E+006   -3.05989E+006    1.82999E+007   -3.54926E+006    1.74358E+007   -3.04721E+006    1.51561E+007   -1.46112E+006   -4.80466E+005    3.13104E+004   -1.09035E+006
            2764    1.66648E+007    1.44176E+007    1.44176E+007   -1.74665E+006   -2.70614E+006    1.71238E+007   -3.32162E+006    1.66024E+007   -2.69355E+006    1.43556E+007   -1.69719E+006   -4.61277E+005    1.34839E+004   -8.93771E+005
            2765    1.56294E+007    1.35686E+007    1.35686E+007   -1.79723E+006   -2.31177E+006    1.58804E+007   -3.15320E+006    1.56104E+007   -2.29208E+006    1.35161E+007   -1.76446E+006   -5.23857E+005   -1.04889E+004   -7.34699E+005
            2766    1.46788E+007    1.28942E+007    1.28942E+007   -1.73015E+006   -1.83852E+006    1.47327E+007   -3.10851E+006    1.46779E+007   -1.82149E+006    1.28630E+007   -1.71597E+006   -3.54292E+005   -1.52672E+004   -5.76037E+005
            2767    1.39847E+007    1.23950E+007    1.23950E+007   -1.50569E+006   -1.67216E+006    1.40672E+007   -3.07240E+006    1.39825E+007   -1.51052E+006    1.23754E+007   -1.64769E+006   -3.21749E+005   -3.39416E+004   -4.14636E+005
            2768    1.33975E+007    1.20049E+007    1.20049E+007   -1.18929E+006   -1.58694E+006    1.35919E+007   -3.07623E+006    1.33842E+007   -1.19067E+006    1.19979E+007   -1.57854E+006   -1.75309E+005   -3.48893E+004   -2.52796E+005
            2769    1.32036E+007    1.18720E+007    1.18720E+007   -1.10631E+006   -1.54599E+006    1.34180E+007   -3.07323E+006    1.31872E+007   -1.11005E+006    1.18712E+007   -1.54142E+006   -4.77116E+004   -4.09173E+004   -9.43175E+004
            2770    1.31326E+007    1.18296E+007    1.18296E+007   -1.04448E+006   -1.54706E+006    1.33766E+007   -3.07934E+006    1.31109E+007   -1.04752E+006    1.18292E+007   -1.54361E+006    1.66741E+004   -3.89673E+004    7.31105E+004
            2771    1.34587E+007    1.20365E+007    1.20365E+007   -1.23718E+006   -1.59978E+006    1.36363E+007   -3.06653E+006    1.34477E+007   -1.23771E+006    1.20289E+007   -1.59159E+006    2.29940E+005   -3.63209E+004    2.24383E+005
            2772    1.66419E+007    1.42725E+007    1.42725E+007   -1.51351E+006   -3.11020E+006    1.73826E+007   -3.21625E+006    1.64682E+007   -3.09711E+006    1.41008E+007   -1.35493E+006   -4.74024E+005    5.05747E+004   -1.57359E+006
            2773    1.58655E+007    1.36549E+007    1.36549E+007   -1.63231E+006   -2.73164E+006    1.63866E+007   -3.09699E+006    1.57794E+007   -2.71949E+006    1.35275E+007   -1.51705E+006   -4.41206E+005    2.19625E+004   -1.32327E+006
            2774    1.49543E+007    1.29582E+007    1.29582E+007   -1.62499E+006   -2.34150E+006    1.52997E+007   -2.99725E+006    1.49157E+007   -2.31967E+006    1.28594E+007   -1.54804E+006   -4.98364E+005   -2.67395E+004   -1.09499E+006
            2775    1.40650E+007    1.23598E+007    1.23598E+007   -1.51736E+006   -1.88573E+006    1.42456E+007   -2.98559E+006    1.40542E+007   -1.86837E+006    1.22983E+007   -1.47320E+006   -3.36857E+005   -3.76218E+004   -8.61505E+005
            2776    1.34361E+007    1.19380E+007    1.19380E+007   -1.38673E+006   -1.60683E+006    1.35448E+007   -2.98147E+006    1.34321E+007   -1.56351E+006    1.19034E+007   -1.39550E+006   -3.01468E+005   -6.83705E+004   -6.10574E+005
            2777    1.29003E+007    1.15959E+007    1.15959E+007   -1.22017E+006   -1.38699E+006    1.29829E+007   -2.99624E+006    1.28978E+007   -1.26738E+006    1.15832E+007   -1.32713E+006   -1.62495E+005   -7.14516E+004   -3.70851E+005
            2778    1.27462E+007    1.15023E+007    1.15023E+007   -1.14383E+006   -1.34179E+006    1.28441E+007   -3.00555E+006    1.27428E+007   -1.18679E+006    1.15011E+007   -1.29765E+006   -3.83428E+004   -8.13373E+004   -1.16605E+005
            2779    1.27046E+007    1.14788E+007    1.14788E+007   -1.11216E+006   -1.33647E+006    1.28153E+007   -3.01007E+006    1.27002E+007   -1.14305E+006    1.14776E+007   -1.30437E+006    2.92380E+004   -7.70915E+004    1.20826E+005
            2780    1.30511E+007    1.16952E+007    1.16952E+007   -1.27258E+006   -1.43758E+006    1.31328E+007   -2.99503E+006    1.30488E+007   -1.32926E+006    1.16803E+007   -1.36598E+006    2.29845E+005   -7.29503E+004    3.78090E+005
            2781    1.54883E+007    1.31114E+007    1.31114E+007   -1.47034E+006   -3.14687E+006    1.62583E+007   -2.83141E+006    1.52821E+007   -3.13378E+006    1.28696E+007   -1.24157E+006   -4.57924E+005    5.15128E+004   -1.81131E+006
            2782    1.48742E+007    1.27217E+007    1.27217E+007   -1.47618E+006   -2.74724E+006    1.54690E+007   -2.83277E+006    1.47513E+007   -2.73635E+006    1.25333E+007   -1.29867E+006   -4.05086E+005    2.79823E+004   -1.57807E+006
            2783    1.40702E+007    1.21701E+007    1.21701E+007   -1.37735E+006   -2.37024E+006    1.45403E+007   -2.80749E+006    1.39910E+007   -2.35060E+006    1.20267E+007   -1.25365E+006   -4.59510E+005   -2.83680E+004   -1.31575E+006
            2784    1.32883E+007    1.16916E+007    1.16916E+007   -1.22885E+006   -1.93612E+006    1.36278E+007   -2.84223E+006    1.32458E+007   -1.92322E+006    1.16023E+007   -1.15242E+006   -3.11106E+005   -4.00887E+004   -1.02854E+006
            2785    1.27147E+007    1.13392E+007    1.13392E+007   -1.07861E+006   -1.65284E+006    1.29920E+007   -2.86925E+006    1.26854E+007   -1.63169E+006    1.12911E+007   -1.05165E+006   -2.71865E+005   -7.77589E+004   -7.26592E+005
            2786    1.22560E+007    1.10692E+007    1.10692E+007   -9.77495E+005   -1.38584E+006    1.24550E+007   -2.90195E+006    1.22406E+007   -1.36435E+006    1.10528E+007   -9.82611E+005   -1.45153E+005   -8.28421E+004   -4.21671E+005
            2787    1.21300E+007    1.10024E+007    1.10024E+007   -9.32328E+005   -1.31402E+006    1.23164E+007   -2.91867E+006    1.21165E+007   -1.28791E+006    1.10012E+007   -9.57245E+005   -2.69685E+004   -9.59977E+004   -1.16537E+005
            2788    1.21459E+007    1.10189E+007    1.10189E+007   -9.56195E+005   -1.29072E+006    1.23097E+007   -2.92401E+006    1.21355E+007   -1.26479E+006    1.10158E+007   -9.79013E+005    4.28162E+004   -8.85609E+004    1.88664E+005
            2789    1.24847E+007    1.12234E+007    1.12234E+007   -1.04047E+006   -1.47107E+006    1.26944E+007   -2.90394E+006    1.24680E+007   -1.44610E+006    1.12003E+007   -1.04233E+006    2.24634E+005   -8.41625E+004    4.85781E+005
            2790    1.43644E+007    1.20073E+007    1.20073E+007   -1.38328E+006   -3.16473E+006    1.51721E+007   -2.48644E+006    1.41127E+007   -3.15118E+006    1.17268E+007   -1.11631E+006   -4.48496E+005    4.73800E+004   -1.87136E+006
            2791    1.38127E+007    1.17356E+007    1.17356E+007   -1.24927E+006   -2.77768E+006    1.45133E+007   -2.56956E+006    1.36205E+007   -2.76733E+006    1.15110E+007   -1.03502E+006   -3.78341E+005    2.11060E+004   -1.65541E+006
            2792    1.31633E+007    1.13603E+007    1.13603E+007   -1.08751E+006   -2.41752E+006    1.37779E+007   -2.61844E+006    1.30109E+007   -2.39818E+006    1.11898E+007   -9.36304E+005   -4.26301E+005   -4.59006E+004   -1.39236E+006
            2793    1.24439E+007    1.09584E+007    1.09584E+007   -8.78271E+005   -2.01478E+006    1.29732E+007   -2.68845E+006    1.23263E+007   -2.00170E+006    1.08502E+007   -7.83164E+005   -2.91173E+005   -6.11757E+004   -1.09380E+006
            2794    1.19469E+007    1.06928E+007    1.06928E+007   -7.00421E+005   -1.73985E+006    1.24326E+007   -2.75083E+006    1.18445E+007   -1.72159E+006    1.06382E+007   -6.64074E+005   -2.46000E+005   -1.02378E+005   -7.53540E+005
            2795    1.15528E+007    1.04778E+007    1.04778E+007   -5.93363E+005   -1.50283E+006    1.19806E+007   -2.79386E+006    1.14718E+007   -1.48672E+006    1.04599E+007   -5.91642E+005   -1.29941E+005   -1.10122E+005   -4.27556E+005
            2796    1.14535E+007    1.04416E+007    1.04416E+007   -5.43727E+005   -1.42884E+006    1.18704E+007   -2.82300E+006    1.13762E+007   -1.41112E+006    1.04408E+007   -5.60711E+005   -1.61569E+004   -1.23795E+005   -8.89901E+004
            2797    1.15033E+007    1.04702E+007    1.04702E+007   -5.88099E+005   -1.43161E+006    1.19018E+007   -2.81683E+006    1.14334E+007   -1.41505E+006    1.04644E+007   -5.98836E+005    5.87565E+004   -1.14820E+005    2.48069E+005
            2798    1.18681E+007    1.06908E+007    1.06908E+007   -6.92617E+005   -1.60879E+006    1.22996E+007   -2.79648E+006    1.17881E+007   -1.58920E+006    1.06574E+007   -6.78800E+005    2.21083E+005   -1.08235E+005    5.80392E+005
            2799    1.33065E+007    1.10112E+007    1.10112E+007   -1.22493E+006   -3.15497E+006    1.41662E+007   -2.21044E+006    1.29860E+007   -3.14205E+006    1.07343E+007   -9.60951E+005   -4.23319E+005    4.93083E+004   -1.77710E+006
            2800    1.29121E+007    1.09068E+007    1.09068E+007   -1.04584E+006   -2.78797E+006    1.36947E+007   -2.35766E+006    1.26437E+007   -2.77998E+006    1.06746E+007   -8.21652E+005   -3.27947E+005    4.19068E+004   -1.62100E+006
            2801    1.22858E+007    1.05861E+007    1.05861E+007   -7.53965E+005   -2.46584E+006    1.30519E+007   -2.45542E+006    1.20130E+007   -2.45131E+006    1.04070E+007   -5.89367E+005   -3.82746E+005   -3.30954E+004   -1.37074E+006
            2802    1.16679E+007    1.02865E+007    1.02865E+007   -5.07340E+005   -2.09328E+006    1.23798E+007   -2.56196E+006    1.14217E+007   -2.08337E+006    1.01774E+007   -4.08138E+005   -2.71283E+005   -5.58268E+004   -1.05163E+006
            2803    1.12135E+007    1.00737E+007    1.00737E+007   -3.00321E+005   -1.82359E+006    1.18973E+007   -2.64992E+006    1.09771E+007   -1.81186E+006    1.00180E+007   -2.56397E+005   -2.18475E+005   -9.46916E+004   -7.32018E+005
            2804    1.08607E+007    9.89924E+006    9.89924E+006   -1.63594E+005   -1.61356E+006    1.15128E+007   -2.70736E+006    1.06396E+007   -1.60371E+006    9.88287E+006   -1.57063E+005   -1.15024E+005   -1.08093E+005   -3.92384E+005
            2805    1.07792E+007    9.87474E+006    9.87474E+006   -1.24422E+005   -1.54381E+006    1.14186E+007   -2.73550E+006    1.05659E+007   -1.53334E+006    9.87443E+006   -1.34586E+005   -7.89794E+003   -1.21410E+005   -5.52862E+004
            2806    1.08445E+007    9.91349E+006    9.91349E+006   -1.56510E+005   -1.56741E+006    1.14809E+007   -2.72986E+006    1.06351E+007   -1.55774E+006    9.90490E+006   -1.57590E+005    7.22402E+004   -1.11873E+005    2.86889E+005
            2807    1.12009E+007    1.01037E+007    1.01037E+007   -3.04753E+005   -1.74945E+006    1.18532E+007   -2.68317E+006    1.09884E+007   -1.73676E+006    1.00610E+007   -2.74753E+005    2.10229E+005   -1.02193E+005    6.37675E+005
            2808    1.26926E+007    1.04007E+007    1.04007E+007   -1.16436E+006   -3.17864E+006    1.35793E+007   -2.01923E+006    1.23253E+007   -3.16227E+006    1.01486E+007   -9.28678E+005   -4.48798E+005    4.52933E+003   -1.63914E+006
            2809    1.21252E+007    1.01634E+007    1.01634E+007   -8.32098E+005   -2.84078E+006    1.30041E+007   -2.16350E+006    1.17421E+007   -2.83169E+006    9.94051E+006   -6.18335E+005   -3.39286E+005    2.69102E+004   -1.51826E+006
            2810    1.16396E+007    9.99435E+006    9.99435E+006   -5.22368E+005   -2.51179E+006    1.25061E+007   -2.32007E+006    1.12476E+007   -2.50099E+006    9.82930E+006   -3.68114E+005   -3.43564E+005   -1.45054E+004   -1.27023E+006
            2811    1.10235E+007    9.70987E+006    9.70987E+006   -1.82165E+005   -2.17352E+006    1.18834E+007   -2.45139E+006    1.06074E+007   -2.16507E+006    9.59894E+006   -7.96899E+004   -2.67111E+005   -4.62791E+004   -1.01451E+006
            2812    1.05389E+007    9.49182E+006    9.49182E+006    8.79657E+004   -1.89923E+006    1.13910E+007   -2.56018E+006    1.01044E+007   -1.89147E+006    9.44168E+006    1.30339E+005   -2.00287E+005   -8.00310E+004   -6.61965E+005
            2813    1.02594E+007    9.38235E+006    9.38235E+006    2.26700E+005   -1.70589E+006    1.10882E+007   -2.63439E+006    9.83727E+006   -1.69962E+006    9.36932E+006    2.33469E+005   -1.05328E+005   -9.76033E+004   -3.32710E+005
            2814    1.01780E+007    9.36858E+006    9.36858E+006    2.85545E+005   -1.63169E+006    1.10003E+007   -2.67414E+006    9.75924E+006   -1.62567E+006    9.36855E+006    2.79555E+005   -3.08632E+003   -1.07259E+005   -1.66123E+004
            2815    1.02595E+007    9.39425E+006    9.39425E+006    2.24913E+005   -1.68654E+006    1.10808E+007   -2.64421E+006    9.84685E+006   -1.68039E+006    9.38426E+006    2.28751E+005    8.78397E+004   -9.97014E+004    2.92649E+005
            2816    1.05467E+007    9.52941E+006    9.52941E+006    1.05112E+005   -1.86253E+006    1.13919E+007   -2.59066E+006    1.01213E+007   -1.85454E+006    9.48335E+006    1.43180E+005    1.98032E+005   -8.34825E+004    6.33890E+005
            2817    9.99568E+006    9.03994E+006    9.03994E+006    4.80374E+005   -1.94536E+006    1.09853E+007   -2.52498E+006    9.29820E+006   -1.94030E+006    9.00303E+006    5.12215E+005    1.93466E+005   -5.37277E+004    5.35374E+005
            2818    9.79109E+006    9.01521E+006    9.01521E+006    6.08757E+005   -1.73509E+006    1.07503E+007   -2.62963E+006    9.12730E+006   -1.73191E+006    9.00833E+006    6.12457E+005    1.01564E+005   -6.99215E+004    2.23589E+005
            2819    9.75452E+006    9.02216E+006    9.02216E+006    6.01215E+005   -1.66646E+006    1.06886E+007   -2.65231E+006    9.13277E+006   -1.66399E+006    9.02216E+006    5.98754E+005   -2.42035E+002   -7.46791E+004   -3.25403E+003
            2820    9.79644E+006    9.01634E+006    9.01634E+006    6.00063E+005   -1.73740E+006    1.07537E+007   -2.62633E+006    9.13686E+006   -1.73425E+006    9.00955E+006    6.03705E+005   -1.01924E+005   -6.93121E+004   -2.22024E+005
            2821    9.99954E+006    9.03933E+006    9.03933E+006    4.69687E+005   -1.94710E+006    1.09864E+007   -2.52064E+006    9.30778E+006   -1.94203E+006    9.00190E+006    5.02049E+005   -1.93969E+005   -5.33935E+004   -5.39765E+005
            2822    1.04250E+007    9.16198E+006    9.16198E+006    1.61126E+005   -2.26086E+006    1.14228E+007   -2.35408E+006    9.76145E+006   -2.25356E+006    9.06348E+006    2.52334E+005   -2.66848E+005   -2.81256E+004   -9.07306E+005
            2823    1.11576E+007    9.53377E+006    9.53377E+006   -3.05755E+005   -2.58881E+006    1.21226E+007   -2.21307E+006    1.06128E+007   -2.57988E+006    9.34808E+006   -1.28992E+005   -3.17054E+005    5.07564E+002   -1.30923E+006
            2824    1.20005E+007    9.97919E+006    9.97919E+006   -8.63383E+005   -2.91472E+006    1.28939E+007   -2.06703E+006    1.15961E+007   -2.90533E+006    9.78084E+006   -6.74426E+005   -3.44571E+005    2.88149E+004   -1.41874E+006
            2825    1.21833E+007    9.87306E+006    9.87306E+006   -1.12135E+006   -3.22515E+006    1.30982E+007   -1.84219E+006    1.17642E+007   -3.21598E+006    9.70835E+006   -9.65806E+005   -3.25269E+005    7.86324E+004   -1.30096E+006
            2826    1.90434E+007    1.70514E+007    1.70514E+007   -7.47592E+005   -3.03053E+006    2.00820E+007   -4.42443E+006    1.87318E+007   -3.02592E+006    1.70343E+007   -7.35093E+005   -3.01942E+005    1.93508E+004   -4.72489E+005
            2827    1.83215E+007    1.61836E+007    1.61836E+007   -9.08544E+005   -3.15915E+006    1.93428E+007   -4.03865E+006    1.80065E+007   -3.15361E+006    1.60821E+007   -8.12493E+005   -3.12808E+005    5.27539E+004   -1.28000E+006
            2828    1.71416E+007    1.48161E+007    1.48161E+007   -1.11632E+006   -3.32124E+006    1.81374E+007   -3.45953E+006    1.68181E+007   -3.31404E+006    1.46111E+007   -9.18439E+005   -3.28980E+005    8.33213E+004   -1.76845E+006
            2829    1.58354E+007    1.33705E+007    1.33705E+007   -1.27794E+006   -3.43149E+006    1.68020E+007   -2.88702E+006    1.55008E+007   -3.42290E+006    1.30916E+007   -1.00763E+006   -3.43212E+005    9.74711E+004   -1.97511E+006
            2830    1.45386E+007    1.20217E+007    1.20217E+007   -1.32920E+006   -3.46768E+006    1.54894E+007   -2.40827E+006    1.41782E+007   -3.45798E+006    1.17198E+007   -1.03698E+006   -3.46467E+005    1.07158E+005   -1.95750E+006
            2831    1.34849E+007    1.09816E+007    1.09816E+007   -1.31184E+006   -3.44134E+006    1.44230E+007   -2.07615E+006    1.30986E+007   -3.43193E+006    1.06974E+007   -1.03700E+006   -3.39963E+005    9.55126E+004   -1.81977E+006
            2832    1.25869E+007    1.01887E+007    1.01887E+007   -1.12080E+006   -3.37175E+006    1.35605E+007   -1.89873E+006    1.21216E+007   -3.36209E+006    9.96632E+006   -9.08050E+005   -3.07255E+005    1.12438E+005   -1.54359E+006
            2833    1.78787E+007    1.54665E+007    1.54665E+007   -1.68845E+006   -3.05715E+006    1.85237E+007   -3.57364E+006    1.77602E+007   -3.02244E+006    1.54247E+007   -1.68138E+006    8.00934E+005   -1.33245E+004   -3.48196E+005
            2834    1.63335E+007    1.41374E+007    1.41374E+007   -1.91768E+006   -2.46105E+006    1.65985E+007   -3.25289E+006    1.63132E+007   -2.41172E+006    1.40844E+007   -1.91397E+006    8.99325E+005    1.44660E+003   -2.58489E+005
            2835    1.50962E+007    1.32776E+007    1.32776E+007   -1.76158E+006   -1.87488E+006    1.51525E+007   -3.21372E+006    1.50952E+007   -1.73855E+006    1.32487E+007   -1.86898E+006    6.25622E+005    9.64421E+003   -2.08544E+005
            2836    1.41567E+007    1.25909E+007    1.25909E+007   -1.32697E+006   -1.79314E+006    1.43840E+007   -3.15692E+006    1.41394E+007   -1.30633E+006    1.25681E+007   -1.79096E+006    5.48194E+005    1.62975E+004   -1.31805E+005
            2837    1.74345E+007    1.50280E+007    1.50280E+007   -1.64951E+006   -3.07592E+006    1.81039E+007   -3.43419E+006    1.73025E+007   -3.04175E+006    1.49380E+007   -1.59367E+006    7.84497E+005   -4.55640E+004   -9.62392E+005
            2838    1.60349E+007    1.38459E+007    1.38459E+007   -1.86118E+006   -2.49781E+006    1.63437E+007   -3.16230E+006    1.60064E+007   -2.44712E+006    1.37607E+007   -1.82668E+006    8.81749E+005    1.13110E+003   -7.66471E+005
            2839    1.48467E+007    1.30516E+007    1.30516E+007   -1.73637E+006   -1.85315E+006    1.49047E+007   -3.15402E+006    1.48457E+007   -1.78667E+006    1.30034E+007   -1.75464E+006    6.18972E+005    3.15952E+004   -5.77157E+005
            2840    1.39284E+007    1.23907E+007    1.23907E+007   -1.36554E+006   -1.70368E+006    1.40944E+007   -3.10717E+006    1.39192E+007   -1.36083E+006    1.23574E+007   -1.67504E+006    5.44167E+005    5.74165E+004   -4.09956E+005
            2841    1.66323E+007    1.42124E+007    1.42124E+007   -1.62190E+006   -3.11694E+006    1.73293E+007   -3.15785E+006    1.64801E+007   -3.08396E+006    1.40479E+007   -1.49038E+006    7.52422E+005   -6.53833E+004   -1.43565E+006
            2842    1.54597E+007    1.33044E+007    1.33044E+007   -1.73403E+006   -2.54467E+006    1.58491E+007   -3.00858E+006    1.54118E+007   -2.49323E+006    1.31668E+007   -1.64777E+006    8.45862E+005    5.77947E+003   -1.17572E+006
            2843    1.43557E+007    1.26000E+007    1.26000E+007   -1.59145E+006   -1.91443E+006    1.45145E+007   -3.03139E+006    1.43475E+007   -1.86660E+006    1.25160E+007   -1.55521E+006    6.01026E+005    4.46618E+004   -9.16555E+005
            2844    1.34891E+007    1.20183E+007    1.20183E+007   -1.36034E+006   -1.57854E+006    1.35968E+007   -3.02648E+006    1.34851E+007   -1.44402E+006    1.19687E+007   -1.44521E+006    5.32650E+005    8.44935E+004   -6.23520E+005
            2845    1.56372E+007    1.32149E+007    1.32149E+007   -1.56437E+006   -3.15827E+006    1.63732E+007   -2.83075E+006    1.54529E+007   -3.12689E+006    1.29862E+007   -1.36709E+006    7.11481E+005   -8.05253E+004   -1.69426E+006
            2846    1.46331E+007    1.25114E+007    1.25114E+007   -1.55010E+006   -2.63310E+006    1.51445E+007   -2.77607E+006    1.45425E+007   -2.58129E+006    1.23138E+007   -1.40428E+006    8.04365E+005    1.71360E+004   -1.46843E+006
            2847    1.36887E+007    1.20000E+007    1.20000E+007   -1.32694E+006   -2.02377E+006    1.40238E+007   -2.88310E+006    1.36487E+007   -1.98072E+006    1.18800E+007   -1.25003E+006    5.79271E+005    6.64826E+004   -1.13038E+006
            2848    1.29225E+007    1.15107E+007    1.15107E+007   -1.14734E+006   -1.66092E+006    1.31717E+007   -2.90083E+006    1.28995E+007   -1.58703E+006    1.14385E+007   -1.14897E+006    5.25019E+005    1.23757E+005   -8.10061E+005
            2849    1.44896E+007    1.20553E+007    1.20553E+007   -1.51329E+006   -3.20647E+006    1.52618E+007   -2.44518E+006    1.42645E+007   -3.17786E+006    1.17807E+007   -1.26728E+006    6.54376E+005   -8.67683E+004   -1.80846E+006
            2850    1.37468E+007    1.17079E+007    1.17079E+007   -1.28569E+006   -2.68508E+006    1.43930E+007   -2.57905E+006    1.35852E+007   -2.63837E+006    1.14732E+007   -1.09766E+006    7.51403E+005    1.41706E+004   -1.58251E+006
            2851    1.29144E+007    1.12953E+007    1.12953E+007   -1.03122E+006   -2.13588E+006    1.34312E+007   -2.70942E+006    1.28074E+007   -2.10227E+006    1.11444E+007   -9.13922E+005    5.46163E+005    5.92492E+004   -1.25562E+006
            2852    1.22620E+007    1.09294E+007    1.09294E+007   -8.25906E+005   -1.78322E+006    1.27126E+007   -2.77342E+006    1.21775E+007   -1.73384E+006    1.08412E+007   -7.87054E+005    5.02458E+005    1.29671E+005   -8.99594E+005
            2853    1.36496E+007    1.12654E+007    1.12654E+007   -1.38485E+006   -3.20159E+006    1.44670E+007   -2.22632E+006    1.33736E+007   -3.17528E+006    1.09849E+007   -1.13061E+006    6.10248E+005   -8.72805E+004   -1.77337E+006
            2854    1.28455E+007    1.08721E+007    1.08721E+007   -9.74276E+005   -2.78123E+006    1.36533E+007   -2.37220E+006    1.25548E+007   -2.73621E+006    1.06268E+007   -7.74027E+005    7.19392E+005    2.49593E+004   -1.55490E+006
            2855    1.22340E+007    1.06455E+007    1.06455E+007   -7.66140E+005   -2.27155E+006    1.29171E+007   -2.53594E+006    1.20230E+007   -2.24038E+006    1.04854E+007   -6.37250E+005    5.28794E+005    6.63991E+004   -1.25218E+006
            2856    1.16356E+007    1.03489E+007    1.03489E+007   -5.03085E+005   -1.93737E+006    1.22862E+007   -2.63614E+006    1.14342E+007   -1.89627E+006    1.02451E+007   -4.40393E+005    4.84335E+005    1.37972E+005   -9.60952E+005
            2857    1.25924E+007    1.03988E+007    1.03988E+007   -9.13115E+005   -3.16917E+006    1.35679E+007   -2.10549E+006    1.21251E+007   -3.14672E+006    1.01393E+007   -6.76135E+005    5.30413E+005   -1.19335E+005   -1.62100E+006
            2858    1.24793E+007    1.04943E+007    1.04943E+007   -8.76767E+005   -2.85663E+006    1.33509E+007   -2.25363E+006    1.21184E+007   -2.82276E+006    1.02932E+007   -7.09539E+005    6.50346E+005   -9.68986E+003   -1.37691E+006
            2859    1.17204E+007    1.01502E+007    1.01502E+007   -4.85659E+005   -2.41520E+006    1.25654E+007   -2.41645E+006    1.13548E+007   -2.38837E+006    9.96657E+006   -3.28847E+005    5.24922E+005    3.91592E+004   -1.30320E+006
            2860    1.09967E+007    9.73574E+006    9.73574E+006   -1.70766E+005   -2.09671E+006    1.18325E+007   -2.48942E+006    1.06073E+007   -2.06866E+006    9.62128E+006   -8.43629E+004    4.51904E+005    1.05401E+005   -9.80770E+005
            2861    1.03484E+007    9.11747E+006    9.11747E+006    1.89133E+005   -2.22444E+006    1.13419E+007   -2.36072E+006    9.68430E+006   -2.20549E+006    9.00360E+006    2.84048E+005    4.35935E+005    3.42560E+004   -9.27388E+005
            2862    1.11226E+007    9.46672E+006    9.46672E+006   -3.44445E+005   -2.61645E+006    1.20832E+007   -2.16861E+006    1.05814E+007   -2.59268E+006    9.24925E+006   -1.50754E+005    5.24640E+005   -2.38853E+004   -1.36716E+006
            2863    1.22634E+007    1.03105E+007    1.03105E+007   -7.44919E+005   -2.88041E+006    1.31909E+007   -2.22839E+006    1.18342E+007   -2.85406E+006    9.99390E+006   -4.54678E+005    5.81743E+005   -9.10076E+004   -1.76549E+006
            2864    1.35561E+007    1.11896E+007    1.11896E+007   -1.44129E+006   -3.13298E+006    1.43225E+007   -2.20510E+006    1.33155E+007   -3.10506E+006    1.09493E+007   -1.22898E+006    6.15420E+005   -1.12962E+005   -1.62429E+006
            2865    1.89896E+007    1.67548E+007    1.67548E+007   -8.63394E+005   -3.35947E+006    2.01142E+007   -4.17730E+006    1.86152E+007   -3.34343E+006    1.67278E+007   -8.52459E+005    5.65241E+005   -3.06703E+004   -4.40766E+005
            2866    1.82857E+007    1.59352E+007    1.59352E+007   -9.92363E+005   -3.45838E+006    1.93935E+007   -3.82813E+006    1.79058E+007   -3.43966E+006    1.58290E+007   -9.04970E+005    5.80097E+005   -9.29135E+004   -1.21972E+006
            2867    1.71789E+007    1.46853E+007    1.46853E+007   -1.16155E+006   -3.57132E+006    1.82566E+007   -3.31747E+006    1.67924E+007   -3.54871E+006    1.44843E+007   -9.83139E+005    5.99790E+005   -1.36601E+005   -1.68082E+006
            2868    1.58488E+007    1.32108E+007    1.32108E+007   -1.35694E+006   -3.66574E+006    1.68765E+007   -2.72937E+006    1.54636E+007   -3.63899E+006    1.29409E+007   -1.11384E+006    6.19109E+005   -1.62564E+005   -1.87531E+006
            2869    1.45849E+007    1.18573E+007    1.18573E+007   -1.51385E+006   -3.69563E+006    1.55529E+007   -2.21593E+006    1.42108E+007   -3.66641E+006    1.15747E+007   -1.26055E+006    6.25943E+005   -1.63925E+005   -1.83040E+006
            2870    1.33717E+007    1.05364E+007    1.05364E+007   -1.68758E+006   -3.74457E+006    1.42810E+007   -1.70143E+006    1.30086E+007   -3.71456E+006    1.02977E+007   -1.47891E+006    6.20774E+005   -1.43410E+005   -1.58831E+006
            2871    1.33120E+007    1.03692E+007    1.03692E+007   -2.08511E+006   -3.66032E+006    1.40295E+007   -1.54125E+006    1.30998E+007   -3.63033E+006    1.02039E+007   -1.94979E+006    6.32885E+005   -1.00959E+005   -1.29311E+006
            2872    9.91402E+006    8.97880E+006    8.97880E+006    4.54213E+005   -1.90062E+006    1.08794E+007   -2.51080E+006    9.25286E+006   -1.88753E+006    8.93723E+006    4.82691E+005    3.15890E+005    8.03631E+004   -5.26896E+005
            2873    9.69922E+006    8.96003E+006    8.96003E+006    5.94676E+005   -1.67171E+006    1.06317E+007   -2.62766E+006    9.07430E+006   -1.66351E+006    8.95149E+006    5.95003E+005    1.66397E+005    1.09025E+005   -2.24345E+005
            2874    9.66360E+006    8.96707E+006    8.96707E+006    5.83491E+005   -1.60218E+006    1.05692E+007   -2.64946E+006    9.08215E+006   -1.59576E+006    8.96706E+006    5.77071E+005    2.89313E+003    1.18287E+005    2.49266E+002
            2875    9.69641E+006    8.95429E+006    8.95429E+006    5.85535E+005   -1.67161E+006    1.06259E+007   -2.62274E+006    9.07665E+006   -1.66350E+006    8.94630E+006    5.85411E+005   -1.63056E+005    1.09127E+005    2.15990E+005
            2876    9.91618E+006    8.97959E+006    8.97959E+006    4.48613E+005   -1.90009E+006    1.08797E+007   -2.50937E+006    9.25881E+006   -1.88716E+006    8.93741E+006    4.77866E+005   -3.13854E+005    7.95576E+004    5.32877E+005
            2877    1.03594E+007    9.10523E+006    9.10523E+006    1.35085E+005   -2.23325E+006    1.13385E+007   -2.33569E+006    9.72188E+006   -2.21450E+006    8.99719E+006    2.24383E+005   -4.34146E+005    3.35419E+004    9.02197E+005
            2878    1.11277E+007    9.48576E+006    9.48576E+006   -3.38015E+005   -2.59862E+006    1.20844E+007   -2.18304E+006    1.05924E+007   -2.57522E+006    9.28722E+006   -1.62874E+005   -5.22206E+005   -2.48588E+004    1.30179E+006
            2879    1.19916E+007    9.92571E+006    9.92571E+006   -9.26216E+005   -2.94845E+006    1.28742E+007   -2.01702E+006    1.15987E+007   -2.92300E+006    9.71123E+006   -7.37185E+005   -5.67231E+005   -7.16500E+004    1.41806E+006
            2880    1.21688E+007    9.74920E+006    9.74920E+006   -1.23333E+006   -3.33264E+006    1.30818E+007   -1.72774E+006    1.17510E+007   -3.30401E+006    9.56259E+006   -1.07535E+006   -6.03167E+005   -9.08500E+004    1.30659E+006
            2881    1.04214E+007    9.46511E+006    9.46511E+006    1.34631E+005   -1.78138E+006    1.12465E+007   -2.60612E+006    1.00136E+007   -1.75936E+006    9.41694E+006    1.60784E+005    2.95959E+005    1.48292E+005   -6.16709E+005
            2882    1.10462E+007    1.00260E+007    1.00260E+007   -3.00265E+005   -1.62143E+006    1.16474E+007   -2.70142E+006    1.08663E+007   -1.58695E+006    9.98094E+006   -2.89729E+005    2.79563E+005    1.74465E+005   -6.32568E+005
            2883    1.16894E+007    1.06240E+007    1.06240E+007   -6.52338E+005   -1.43882E+006    1.20628E+007   -2.84428E+006    1.16297E+007   -1.39422E+006    1.05892E+007   -6.62187E+005    2.60735E+005    1.58305E+005   -5.76412E+005
            2884    1.23141E+007    1.11668E+007    1.11668E+007   -9.62619E+005   -1.32407E+006    1.24908E+007   -2.96002E+006    1.23021E+007   -1.22844E+006    1.11429E+007   -1.03434E+006    2.45943E+005    1.47249E+005   -4.84623E+005
            2885    1.28737E+007    1.16504E+007    1.16504E+007   -1.04288E+006   -1.39647E+006    1.30469E+007   -3.07036E+006    1.28628E+007   -1.07515E+006    1.16358E+007   -1.34962E+006    2.24035E+005    1.00683E+005   -3.73654E+005
            2886    1.32921E+007    1.20038E+007    1.20038E+007   -9.74188E+005   -1.58158E+006    1.35854E+007   -3.14933E+006    1.32608E+007   -9.79328E+005    1.19966E+007   -1.56930E+006    2.13033E+005    6.82627E+004   -2.23490E+005
            2887    1.35181E+007    1.21919E+007    1.21919E+007   -9.25983E+005   -1.69363E+006    1.38855E+007   -3.19076E+006    1.34689E+007   -9.23353E+005    1.21882E+007   -1.69254E+006    2.04237E+005    1.92068E+004   -8.68065E+004
            2888    1.01694E+007    9.36340E+006    9.36340E+006    2.54716E+005   -1.60886E+006    1.09723E+007   -2.66975E+006    9.77405E+006   -1.58869E+006    9.35238E+006    2.45566E+005    1.56850E+005    1.77876E+005   -2.85346E+005
            2889    1.07702E+007    9.89870E+006    9.89870E+006   -1.42610E+005   -1.47620E+006    1.13749E+007   -2.75996E+006    1.05821E+007   -1.44080E+006    9.88881E+006   -1.68121E+005    1.51938E+005    2.04568E+005   -2.83908E+005
            2890    1.14401E+007    1.04834E+007    1.04834E+007   -5.43643E+005   -1.32925E+006    1.18127E+007   -2.87017E+006    1.13792E+007   -1.27943E+006    1.04766E+007   -5.86659E+005    1.42806E+005    1.85471E+005   -2.39155E+005
            2891    1.21136E+007    1.10495E+007    1.10495E+007   -8.75072E+005   -1.24462E+006    1.22941E+007   -2.97661E+006    1.21009E+007   -1.13422E+006    1.10454E+007   -9.81317E+005    1.34895E+005    1.66505E+005   -1.80621E+005
            2892    1.26910E+007    1.15334E+007    1.15334E+007   -9.68550E+005   -1.33866E+006    1.28720E+007   -3.07539E+006    1.26789E+007   -1.00592E+006    1.15311E+007   -1.29902E+006    1.25134E+005    1.12006E+005   -1.15581E+005
            2893    1.31415E+007    1.18966E+007    1.18966E+007   -9.20892E+005   -1.54652E+006    1.34431E+007   -3.14307E+006    1.31079E+007   -9.29055E+005    1.18951E+007   -1.53682E+006    1.21137E+005    7.50586E+004   -7.25997E+004
            2894    1.33730E+007    1.20860E+007    1.20860E+007   -8.83808E+005   -1.65676E+006    1.37427E+007   -3.18179E+006    1.33226E+007   -8.83243E+005    1.20849E+007   -1.65624E+006    1.17199E+005    1.93854E+004   -1.78151E+004
            2895    1.00561E+007    9.31259E+006    9.31259E+006    3.14734E+005   -1.54270E+006    1.08553E+007   -2.69487E+006    9.65874E+006   -1.52441E+006    9.31255E+006    2.96475E+005   -1.02645E+004    1.83385E+005    1.66757E+004
            2896    1.06382E+007    9.80913E+006    9.80913E+006   -1.15081E+005   -1.42223E+006    1.12314E+007   -2.75727E+006    1.04552E+007   -1.38837E+006    9.80870E+006   -1.48518E+005   -3.20708E+004    2.07205E+005    5.80963E+004
            2897    1.13016E+007    1.03937E+007    1.03937E+007   -5.10265E+005   -1.26753E+006    1.16612E+007   -2.87197E+006    1.12443E+007   -1.21876E+006    1.03925E+007   -5.57836E+005   -5.66503E+004    1.84897E+005    1.01069E+005
            2898    1.19805E+007    1.09582E+007    1.09582E+007   -8.45383E+005   -1.19169E+006    1.21499E+007   -2.97372E+006    1.19692E+007   -1.06985E+006    1.09563E+007   -9.65250E+005   -8.20365E+004    1.64320E+005    1.30590E+005
            2899    1.25855E+007    1.14647E+007    1.14647E+007   -9.01438E+005   -1.32926E+006    1.27940E+007   -3.07801E+006    1.25692E+007   -9.32018E+005    1.14626E+007   -1.29655E+006   -1.04492E+005    1.10608E+005    1.26827E+005
            2900    1.30338E+007    1.18299E+007    1.18299E+007   -8.38463E+005   -1.54093E+006    1.33708E+007   -3.15017E+006    1.29911E+007   -8.45437E+005    1.18281E+007   -1.53212E+006   -1.19992E+005    7.41221E+004    9.73361E+004
            2901    1.32761E+007    1.20279E+007    1.20279E+007   -7.95414E+005   -1.65889E+006    1.36868E+007   -3.19119E+006    1.32127E+007   -7.94565E+005    1.20265E+007   -1.65836E+006   -1.29719E+005    1.96973E+004    2.95202E+004
            2902    1.01687E+007    9.35240E+006    9.35240E+006    2.56860E+005   -1.62617E+006    1.09786E+007   -2.66103E+006    9.76478E+006   -1.60629E+006    9.33833E+006    2.51058E+005   -1.70326E+005    1.74325E+005    3.25121E+005
            2903    1.07990E+007    9.89284E+006    9.89284E+006   -1.56897E+005   -1.52504E+006    1.14179E+007   -2.73697E+006    1.06014E+007   -1.49016E+006    9.87419E+006   -1.73120E+005   -1.90616E+005    1.99273E+005    3.97823E+005
            2904    1.15227E+007    1.05138E+007    1.05138E+007   -5.65829E+005   -1.40600E+006    1.19198E+007   -2.84731E+006    1.14535E+007   -1.35868E+006    1.04930E+007   -5.92374E+005   -2.16442E+005    1.78118E+005    4.35609E+005
            2905    1.22670E+007    1.11305E+007    1.11305E+007   -9.25799E+005   -1.33691E+006    1.24674E+007   -2.95594E+006    1.22515E+007   -1.24460E+006    1.11105E+007   -9.98108E+005   -2.46667E+005    1.59729E+005    4.30826E+005
            2906    1.29266E+007    1.16783E+007    1.16783E+007   -1.09413E+006   -1.39697E+006    1.30753E+007   -3.06241E+006    1.29186E+007   -1.14061E+006    1.16622E+007   -1.33434E+006   -2.71198E+005    1.06637E+005    3.70336E+005
            2907    1.34289E+007    1.20876E+007    1.20876E+007   -1.07414E+006   -1.59342E+006    1.36811E+007   -3.14002E+006    1.34063E+007   -1.07932E+006    1.20769E+007   -1.57747E+006   -2.90701E+005    7.13768E+004    2.45211E+005
            2908    1.36940E+007    1.23047E+007    1.23047E+007   -1.05007E+006   -1.70516E+006    1.40098E+007   -3.18314E+006    1.36587E+007   -1.04392E+006    1.22973E+007   -1.70397E+006   -3.01384E+005    1.88215E+004    8.67537E+004
            2909    1.04373E+007    9.43876E+006    9.43876E+006    1.09045E+005   -1.83329E+006    1.12720E+007   -2.57150E+006    1.00185E+007   -1.81132E+006    9.38459E+006    1.41235E+005   -3.18223E+005    1.39848E+005    6.51883E+005
            2910    1.11065E+007    1.00191E+007    1.00191E+007   -3.17704E+005   -1.72319E+006    1.17423E+007   -2.65941E+006    1.09037E+007   -1.68865E+006    9.95626E+006   -2.89376E+005   -3.40458E+005    1.63041E+005    7.43547E+005
            2911    1.18385E+007    1.06644E+007    1.06644E+007   -7.02891E+005   -1.59501E+006    1.22594E+007   -2.78882E+006    1.17626E+007   -1.55291E+006    1.06017E+007   -6.82333E+005   -3.63714E+005    1.41320E+005    7.71003E+005
            2912    1.26096E+007    1.13167E+007    1.13167E+007   -1.06422E+006   -1.50964E+006    1.28264E+007   -2.91429E+006    1.25919E+007   -1.43811E+006    1.12605E+007   -1.07947E+006   -3.96129E+005    1.28398E+005    7.42320E+005
            2913    1.32992E+007    1.19093E+007    1.19093E+007   -1.27428E+006   -1.50260E+006    1.34119E+007   -3.04413E+006    1.32948E+007   -1.32515E+006    1.18680E+007   -1.41042E+006   -4.18287E+005    8.33102E+004    6.14351E+005
            2914    1.38111E+007    1.23421E+007    1.23421E+007   -1.25989E+006   -1.66913E+006    1.40112E+007   -3.13768E+006    1.37975E+007   -1.25785E+006    1.23163E+007   -1.64536E+006   -4.37516E+005    5.61225E+004    4.07094E+005
            2915    1.40878E+007    1.25781E+007    1.25781E+007   -1.23106E+006   -1.77277E+006    1.43508E+007   -3.19141E+006    1.40643E+007   -1.21720E+006    1.25623E+007   -1.77083E+006   -4.47014E+005    1.40114E+004    1.37443E+005
            2916    1.09812E+007    9.69148E+006    9.69148E+006   -1.65241E+005   -2.14491E+006    1.18364E+007   -2.46044E+006    1.05685E+007   -2.11828E+006    9.57243E+006   -7.28225E+004   -4.55752E+005    9.41693E+004    9.98943E+005
            2917    1.16721E+007    1.02972E+007    1.02972E+007   -5.34251E+005   -2.06452E+006    1.23617E+007   -2.56615E+006    1.14431E+007   -2.02579E+006    1.01741E+007   -4.49821E+005   -5.01702E+005    1.23047E+005    1.05567E+006
            2918    1.24795E+007    1.10106E+007    1.10106E+007   -8.89569E+005   -1.97706E+006    1.29877E+007   -2.71467E+006    1.23723E+007   -1.93112E+006    1.08872E+007   -8.12106E+005   -5.49756E+005    1.08488E+005    1.09220E+006
            2919    1.33370E+007    1.17477E+007    1.17477E+007   -1.23546E+006   -1.91689E+006    1.36646E+007   -2.86513E+006    1.32977E+007   -1.85468E+006    1.16406E+007   -1.19056E+006   -6.09460E+005    1.04470E+005    1.02075E+006
            2920    1.40823E+007    1.23992E+007    1.23992E+007   -1.51455E+006   -1.84577E+006    1.42450E+007   -3.01298E+006    1.40736E+007   -1.77669E+006    1.23185E+007   -1.50293E+006   -6.55484E+005    6.76764E+004    8.40079E+005
            2921    1.46549E+007    1.28959E+007    1.28959E+007   -1.68607E+006   -1.83090E+006    1.47268E+007   -3.12630E+006    1.46533E+007   -1.73334E+006    1.28423E+007   -1.73011E+006   -6.94393E+005    4.59510E+004    5.50468E+005
            2922    1.49605E+007    1.31605E+007    1.31605E+007   -1.74012E+006   -1.85911E+006    1.50196E+007   -3.18710E+006    1.49594E+007   -1.70989E+006    1.31238E+007   -1.85265E+006   -7.14958E+005    1.28851E+004    1.86816E+005
            2923    1.15907E+007    9.95004E+006    9.95004E+006   -5.15640E+005   -2.50746E+006    1.24575E+007   -2.30898E+006    1.11959E+007   -2.48065E+006    9.77530E+006   -3.67709E+005   -5.33402E+005    3.12010E+004    1.25303E+006
            2924    1.22452E+007    1.05587E+007    1.05587E+007   -8.04584E+005   -2.41015E+006    1.29688E+007   -2.44798E+006    1.20050E+007   -2.37825E+006    1.03650E+007   -6.42837E+005   -5.60533E+005    4.81920E+004    1.37942E+006
            2925    1.31419E+007    1.13780E+007    1.13780E+007   -1.11653E+006   -2.32747E+006    1.37055E+007   -2.64468E+006    1.30155E+007   -2.29465E+006    1.11961E+007   -9.67437E+005   -5.93040E+005    3.01537E+004    1.38993E+006
            2926    1.40530E+007    1.21966E+007    1.21966E+007   -1.39159E+006   -2.27923E+006    1.44758E+007   -2.84191E+006    1.39897E+007   -2.24029E+006    1.20432E+007   -1.27716E+006   -6.47358E+005    3.40123E+004    1.29594E+006
            2927    1.48955E+007    1.29651E+007    1.29651E+007   -1.62976E+006   -2.21388E+006    1.51790E+007   -3.04049E+006    1.48697E+007   -2.17540E+006    1.28559E+007   -1.55907E+006   -6.87511E+005    1.56184E+004    1.06473E+006
            2928    1.55272E+007    1.35402E+007    1.35402E+007   -1.78399E+006   -2.18237E+006    1.57226E+007   -3.19128E+006    1.55157E+007   -2.14434E+006    1.34750E+007   -1.75677E+006   -7.22337E+005    1.07609E+004    6.99894E+005
            2929    1.58929E+007    1.38732E+007    1.38732E+007   -1.87057E+006   -2.16471E+006    1.60379E+007   -3.27930E+006    1.58867E+007   -2.12979E+006    1.38351E+007   -1.86742E+006   -7.41623E+005    1.43973E+003    2.41633E+005
            2930    1.21583E+007    1.01620E+007    1.01620E+007   -8.11562E+005   -2.90842E+006    1.30704E+007   -2.14733E+006    1.17412E+007   -2.87840E+006    9.93065E+006   -6.10269E+005   -6.13838E+005   -3.25571E+004    1.47513E+006
            2931    1.29732E+007    1.09004E+007    1.09004E+007   -1.07654E+006   -2.88030E+006    1.37807E+007   -2.31451E+006    1.26865E+007   -2.83821E+006    1.06472E+007   -8.65479E+005   -7.07645E+005    1.26822E+004    1.59741E+006
            2932    1.38518E+007    1.17274E+007    1.17274E+007   -1.29133E+006   -2.82911E+006    1.45565E+007   -2.53567E+006    1.36578E+007   -2.78614E+006    1.14793E+007   -1.08619E+006   -7.48450E+005   -8.58431E+003    1.63802E+006
            2933    1.48897E+007    1.26855E+007    1.26855E+007   -1.50366E+006   -2.81763E+006    1.55032E+007   -2.78808E+006    1.47584E+007   -2.76977E+006    1.24712E+007   -1.33719E+006   -8.15748E+005   -6.97018E+003    1.54939E+006
            2934    1.58255E+007    1.35671E+007    1.35671E+007   -1.67420E+006   -2.78424E+006    1.63513E+007   -3.03621E+006    1.57376E+007   -2.73528E+006    1.34108E+007   -1.56693E+006   -8.63477E+005   -1.18303E+004    1.29249E+006
            2935    1.65723E+007    1.42748E+007    1.42748E+007   -1.78086E+006   -2.76971E+006    1.70445E+007   -3.24142E+006    1.65057E+007   -2.72034E+006    1.41799E+007   -1.73529E+006   -9.05279E+005   -1.44844E+004    8.64052E+005
            2936    1.70053E+007    1.46858E+007    1.46858E+007   -1.83438E+006   -2.76621E+006    1.74520E+007   -3.36174E+006    1.69477E+007   -2.71654E+006    1.46309E+007   -1.82914E+006   -9.26993E+005    1.06734E+002    3.02388E+005
            2937    1.26692E+007    1.03858E+007    1.03858E+007   -1.15449E+006   -3.17046E+006    1.35563E+007   -2.02029E+006    1.23005E+007   -3.14653E+006    1.01357E+007   -9.28266E+005   -5.20348E+005   -1.48540E+005    1.60784E+006
            2938    1.33642E+007    1.10406E+007    1.10406E+007   -1.19430E+006   -3.22127E+006    1.42619E+007   -2.20835E+006    1.30116E+007   -3.19471E+006    1.07670E+007   -9.47274E+005   -6.04394E+005   -1.04556E+005    1.71948E+006
            2939    1.44463E+007    1.20589E+007    1.20589E+007   -1.36581E+006   -3.22840E+006    1.52873E+007   -2.48822E+006    1.41724E+007   -3.19979E+006    1.17805E+007   -1.11600E+006   -6.50682E+005   -1.06017E+005    1.81272E+006
            2940    1.55902E+007    1.31674E+007    1.31674E+007   -1.43897E+006   -3.24870E+006    1.64161E+007   -2.82657E+006    1.53512E+007   -3.21771E+006    1.29234E+007   -1.22597E+006   -7.04191E+005   -1.00792E+005    1.74953E+006
            2941    1.67580E+007    1.43250E+007    1.43250E+007   -1.50316E+006   -3.22921E+006    1.75542E+007   -3.19754E+006    1.65562E+007   -3.19775E+006    1.41463E+007   -1.35593E+006   -7.37917E+005   -7.91687E+004    1.51808E+006
            2942    1.77048E+007    1.52802E+007    1.52802E+007   -1.52312E+006   -3.20587E+006    1.84861E+007   -3.51708E+006    1.75235E+007   -3.17402E+006    1.51834E+007   -1.45809E+006   -7.63454E+005   -5.93924E+004    1.04291E+006
            2943    1.82608E+007    1.58421E+007    1.58421E+007   -1.53742E+006   -3.18789E+006    1.90300E+007   -3.70559E+006    1.80918E+007   -3.15650E+006    1.58025E+007   -1.52920E+006   -7.72059E+005   -1.58275E+004    3.77515E+005
            2944    1.90803E+007    1.68551E+007    1.68551E+007   -8.07249E+005   -3.38168E+006    2.02368E+007   -4.22206E+006    1.86836E+007   -3.36771E+006    1.68289E+007   -7.94999E+005   -5.27332E+005   -3.53701E+004    4.68149E+005
            2945    1.83636E+007    1.60065E+007    1.60065E+007   -9.70052E+005   -3.48501E+006    1.94915E+007   -3.85047E+006    1.79701E+007   -3.46777E+006    1.58952E+007   -8.75998E+005   -5.48089E+005   -1.02189E+005    1.26931E+006
            2946    1.71838E+007    1.46610E+007    1.46610E+007   -1.17583E+006   -3.61017E+006    1.82712E+007   -3.29167E+006    1.67893E+007   -3.58805E+006    1.44451E+007   -9.82069E+005   -5.79081E+005   -1.49593E+005    1.75293E+006
            2947    1.58772E+007    1.32440E+007    1.32440E+007   -1.33814E+006   -3.67019E+006    1.69142E+007   -2.74523E+006    1.54848E+007   -3.64341E+006    1.29516E+007   -1.07255E+006   -6.05091E+005   -1.77443E+005    1.96211E+006
            2948    1.45748E+007    1.19167E+007    1.19167E+007   -1.38557E+006   -3.66251E+006    1.55792E+007   -2.28955E+006    1.41663E+007   -3.63330E+006    1.15980E+007   -1.09605E+006   -6.20027E+005   -1.75661E+005    1.94883E+006
            2949    1.34958E+007    1.08769E+007    1.08769E+007   -1.37282E+006   -3.59028E+006    1.44672E+007   -1.97128E+006    1.30765E+007   -3.55967E+006    1.05686E+007   -1.09504E+006   -6.21383E+005   -1.67091E+005    1.82889E+006
            2950    1.25618E+007    1.00305E+007    1.00305E+007   -1.23296E+006   -3.51639E+006    1.35468E+007   -1.76037E+006    1.20815E+007   -3.48537E+006    9.77791E+006   -1.01143E+006   -6.30640E+005   -1.24838E+005    1.56373E+006
            2951    1.35377E+007    1.11600E+007    1.11600E+007   -1.45435E+006   -3.14263E+006    1.43026E+007   -2.18768E+006    1.32978E+007   -3.11475E+006    1.09228E+007   -1.24497E+006    6.14205E+005    1.12981E+005    1.61228E+006
            2952    1.23062E+007    1.03455E+007    1.03455E+007   -7.62254E+005   -2.88340E+006    1.32289E+007   -2.23329E+006    1.18845E+007   -2.85695E+006    1.00277E+007   -4.70914E+005    5.83684E+005    9.18624E+004    1.77303E+006
            2953    1.11455E+007    9.48562E+006    9.48562E+006   -3.49965E+005   -2.62024E+006    1.21059E+007   -2.17180E+006    1.06064E+007   -2.59639E+006    9.26492E+006   -1.53118E+005    5.26103E+005    2.50027E+004    1.37965E+006
            2954    1.03579E+007    9.12657E+006    9.12657E+006    1.87138E+005   -2.22430E+006    1.13509E+007   -2.36314E+006    9.69564E+006   -2.20530E+006    9.01121E+006    2.83493E+005    4.36819E+005   -3.37621E+004    9.34698E+005
            2955    1.10142E+007    9.75186E+006    9.75186E+006   -1.75912E+005   -2.09617E+006    1.18480E+007   -2.49326E+006    1.06277E+007   -2.06799E+006    9.63661E+006   -8.88434E+004    4.52975E+005   -1.05437E+005    9.85499E+005
            2956    1.16655E+007    1.03744E+007    1.03744E+007   -5.15882E+005   -1.93619E+006    1.23106E+007   -2.64079E+006    1.14686E+007   -1.89481E+006    1.02702E+007   -4.53006E+005    4.86200E+005   -1.37548E+005    9.64637E+005
            2957    1.22882E+007    1.09525E+007    1.09525E+007   -8.37631E+005   -1.77965E+006    1.27321E+007   -2.77840E+006    1.22066E+007   -1.73011E+006    1.08646E+007   -7.99300E+005    5.03279E+005   -1.28702E+005    8.98347E+005
            2958    1.29431E+007    1.15305E+007    1.15305E+007   -1.15506E+006   -1.65560E+006    1.31861E+007   -2.90660E+006    1.29213E+007   -1.58069E+006    1.14592E+007   -1.15867E+006    5.24230E+005   -1.23265E+005    8.04179E+005
            2959    1.35086E+007    1.20340E+007    1.20340E+007   -1.36425E+006   -1.58231E+006    1.36163E+007   -3.02915E+006    1.35047E+007   -1.44285E+006    1.19847E+007   -1.45441E+006    5.34838E+005   -8.42384E+004    6.18614E+005
            2960    1.39432E+007    1.24028E+007    1.24028E+007   -1.36767E+006   -1.70696E+006    1.41097E+007   -3.10937E+006    1.39339E+007   -1.36224E+006    1.23694E+007   -1.67906E+006    5.47295E+005   -5.65995E+004    4.05925E+005
            2961    1.41588E+007    1.25920E+007    1.25920E+007   -1.32820E+006   -1.79396E+006    1.43859E+007   -3.15660E+006    1.41415E+007   -1.30741E+006    1.25691E+007   -1.79193E+006    5.48974E+005   -1.52877E+004    1.28759E+005
            2962    1.17479E+007    1.01715E+007    1.01715E+007   -4.96212E+005   -2.41918E+006    1.25907E+007   -2.41871E+006    1.13857E+007   -2.39220E+006    9.98709E+006   -3.38743E+005    5.27484E+005   -3.84042E+004    1.30767E+006
            2963    1.22661E+007    1.06703E+007    1.06703E+007   -7.77307E+005   -2.27646E+006    1.29468E+007   -2.53885E+006    1.20574E+007   -2.24511E+006    1.05083E+007   -6.46633E+005    5.32276E+005   -6.50780E+004    1.26178E+006
            2964    1.29669E+007    1.13387E+007    1.13387E+007   -1.04912E+006   -2.13845E+006    1.34772E+007   -2.71705E+006    1.28633E+007   -2.10448E+006    1.11875E+007   -9.31886E+005    5.50641E+005   -5.84664E+004    1.25884E+006
            2965    1.37209E+007    1.20276E+007    1.20276E+007   -1.33805E+006   -2.02277E+006    1.40504E+007   -2.88894E+006    1.36824E+007   -1.97931E+006    1.19086E+007   -1.26247E+006    5.81956E+005   -6.61796E+004    1.12551E+006
            2966    1.43718E+007    1.26166E+007    1.26166E+007   -1.59411E+006   -1.91103E+006    1.45276E+007   -3.03715E+006    1.43639E+007   -1.86331E+006    1.25337E+007   -1.55890E+006    6.00908E+005   -4.40759E+004    9.08499E+005
            2967    1.48586E+007    1.30611E+007    1.30611E+007   -1.73923E+006   -1.85520E+006    1.49163E+007   -3.15555E+006    1.48576E+007   -1.78834E+006    1.30133E+007   -1.75831E+006    6.19977E+005   -3.16416E+004    5.70823E+005
            2968    1.51043E+007    1.32844E+007    1.32844E+007   -1.76302E+006   -1.87602E+006    1.51605E+007   -3.21513E+006    1.51033E+007   -1.73998E+006    1.32556E+007   -1.87021E+006    6.26352E+005   -9.88532E+003    2.04163E+005
            2969    1.24743E+007    1.04861E+007    1.04861E+007   -8.75864E+005   -2.86216E+006    1.33482E+007   -2.24935E+006    1.21108E+007   -2.82823E+006    1.02838E+007   -7.07471E+005    6.51016E+005    1.01268E+004    1.38095E+006
            2970    1.28932E+007    1.09110E+007    1.09110E+007   -9.89739E+005   -2.78625E+006    1.36973E+007   -2.37834E+006    1.26070E+007   -2.74112E+006    1.06639E+007   -7.87751E+005    7.21445E+005   -2.41316E+004    1.56490E+006
            2971    1.37960E+007    1.17492E+007    1.17492E+007   -1.29866E+006   -2.68965E+006    1.44388E+007   -2.58696E+006    1.36369E+007   -2.64303E+006    1.15140E+007   -1.11012E+006    7.53718E+005   -1.21482E+004    1.58692E+006
            2972    1.46726E+007    1.25480E+007    1.25480E+007   -1.55650E+006   -2.63344E+006    1.51814E+007   -2.78601E+006    1.45833E+007   -2.58150E+006    1.23517E+007   -1.41215E+006    8.07557E+005   -1.64043E+004    1.46317E+006
            2973    1.54647E+007    1.33083E+007    1.33083E+007   -1.73564E+006   -2.54520E+006    1.58535E+007   -3.00917E+006    1.54169E+007   -2.49367E+006    1.31713E+007   -1.65018E+006    8.47304E+005   -5.63068E+003    1.17059E+006
            2974    1.60466E+007    1.38570E+007    1.38570E+007   -1.86155E+006   -2.49872E+006    1.63557E+007   -3.16557E+006    1.60181E+007   -2.44793E+006    1.37716E+007   -1.82700E+006    8.82861E+005   -1.19889E+003    7.67377E+005
            2975    1.63434E+007    1.41456E+007    1.41456E+007   -1.91954E+006   -2.46256E+006    1.66081E+007   -3.25449E+006    1.63231E+007   -2.41327E+006    1.40927E+007   -1.91593E+006    8.99704E+005   -8.62021E+002    2.54016E+005
            2976    1.26142E+007    1.04180E+007    1.04180E+007   -9.23434E+005   -3.16775E+006    1.35857E+007   -2.10892E+006    1.21528E+007   -3.14538E+006    1.01560E+007   -6.83806E+005    5.29362E+005    1.20098E+005    1.63208E+006
            2977    1.36642E+007    1.12772E+007    1.12772E+007   -1.38724E+006   -3.20472E+006    1.44819E+007   -2.22842E+006    1.33882E+007   -3.17830E+006    1.09981E+007   -1.13450E+006    6.11680E+005    8.82890E+004    1.76924E+006
            2978    1.45272E+007    1.20913E+007    1.20913E+007   -1.51452E+006   -3.20869E+006    1.53000E+007   -2.45602E+006    1.43024E+007   -3.18005E+006    1.18181E+007   -1.27001E+006    6.55530E+005    8.73763E+004    1.80554E+006
            2979    1.56559E+007    1.32353E+007    1.32353E+007   -1.55867E+006   -3.15966E+006    1.63949E+007   -2.83897E+006    1.54702E+007   -3.12828E+006    1.30073E+007   -1.36209E+006    7.12090E+005    8.01094E+004    1.69215E+006
            2980    1.66541E+007    1.42377E+007    1.42377E+007   -1.61661E+006   -3.11503E+006    1.73527E+007   -3.16867E+006    1.65014E+007   -3.08211E+006    1.40740E+007   -1.48590E+006    7.52155E+005    6.50533E+004    1.43216E+006
            2981    1.74458E+007    1.50405E+007    1.50405E+007   -1.64868E+006   -3.07440E+006    1.81149E+007   -3.43914E+006    1.73140E+007   -3.04025E+006    1.49506E+007   -1.59298E+006    7.84517E+005    4.58648E+004    9.61610E+005
            2982    1.78801E+007    1.54698E+007    1.54698E+007   -1.68560E+006   -3.05611E+006    1.85259E+007   -3.57604E+006    1.77614E+007   -3.02144E+006    1.54280E+007   -1.67840E+006    8.00509E+005    1.34115E+004    3.51170E+005
            2983    1.89791E+007    1.67419E+007    1.67419E+007   -8.64807E+005   -3.36239E+006    2.01043E+007   -4.17156E+006    1.86040E+007   -3.34633E+006    1.67139E+007   -8.52867E+005    5.65355E+005    3.15615E+004    4.60277E+005
            2984    1.82861E+007    1.59342E+007    1.59342E+007   -9.92131E+005   -3.46075E+006    1.93950E+007   -3.82712E+006    1.79054E+007   -3.44203E+006    1.58280E+007   -9.04649E+005    5.79646E+005    9.34882E+004    1.22044E+006
            2985    1.71945E+007    1.46973E+007    1.46973E+007   -1.16901E+006   -3.57248E+006    1.82698E+007   -3.31862E+006    1.68104E+007   -3.54987E+006    1.44975E+007   -9.91733E+005    6.00739E+005    1.35686E+005    1.67645E+006
            2986    1.58746E+007    1.32339E+007    1.32339E+007   -1.36251E+006   -3.66700E+006    1.69009E+007   -2.73481E+006    1.54916E+007   -3.64020E+006    1.29642E+007   -1.11959E+006    6.20021E+005    1.62647E+005    1.87654E+006
            2987    1.46238E+007    1.19032E+007    1.19032E+007   -1.50238E+006   -3.69178E+006    1.55950E+007   -2.23636E+006    1.42480E+007   -3.66263E+006    1.16200E+007   -1.24831E+006    6.25891E+005    1.64081E+005    1.83552E+006
            2988    1.34029E+007    1.05793E+007    1.05793E+007   -1.66939E+006   -3.73754E+006    1.43168E+007   -1.72411E+006    1.30367E+007   -3.70756E+006    1.03355E+007   -1.45557E+006    6.20436E+005    1.45233E+005    1.60911E+006
            2989    1.32997E+007    1.03694E+007    1.03694E+007   -2.06016E+006   -3.65632E+006    1.40257E+007   -1.55098E+006    1.30816E+007   -3.62628E+006    1.02047E+007   -1.92547E+006    6.33066E+005    1.01577E+005    1.28892E+006
            2990    1.82674E+007    1.58476E+007    1.58476E+007   -1.53692E+006   -3.19031E+006    1.90379E+007   -3.70679E+006    1.80979E+007   -3.15904E+006    1.58076E+007   -1.52821E+006   -7.70773E+005    1.63387E+004   -3.88529E+005
            2991    1.70107E+007    1.46907E+007    1.46907E+007   -1.83091E+006   -2.77009E+006    1.74608E+007   -3.36323E+006    1.69522E+007   -2.72052E+006    1.46353E+007   -1.82507E+006   -9.26314E+005    1.09235E+003   -3.17885E+005
            2992    1.58957E+007    1.38742E+007    1.38742E+007   -1.87010E+006   -2.16877E+006    1.60430E+007   -3.27845E+006    1.58894E+007   -2.13366E+006    1.38355E+007   -1.86651E+006   -7.42502E+005   -1.98379E+003   -2.58870E+005
            2993    1.49547E+007    1.31546E+007    1.31546E+007   -1.74120E+006   -1.85827E+006    1.50129E+007   -3.18504E+006    1.49536E+007   -1.71172E+006    1.31175E+007   -1.85065E+006   -7.14606E+005   -1.35828E+004   -2.04316E+005
            2994    1.40814E+007    1.25725E+007    1.25725E+007   -1.23192E+006   -1.77046E+006    1.43430E+007   -3.19004E+006    1.40582E+007   -1.21819E+006    1.25565E+007   -1.76815E+006   -4.46885E+005   -1.53148E+004   -1.49790E+005
            2995    1.36891E+007    1.23002E+007    1.23002E+007   -1.05085E+006   -1.70353E+006    1.40038E+007   -3.18196E+006    1.36540E+007   -1.04476E+006    1.22928E+007   -1.70219E+006   -3.01162E+005   -1.94458E+004   -9.39115E+004
            2996    1.32735E+007    1.20261E+007    1.20261E+007   -7.95524E+005   -1.65731E+006    1.36834E+007   -3.19108E+006    1.32103E+007   -7.94687E+005    1.20247E+007   -1.65675E+006   -1.29977E+005   -2.00198E+004   -3.24854E+004
            2997    1.33726E+007    1.20854E+007    1.20854E+007   -8.83891E+005   -1.65709E+006    1.37424E+007   -3.18146E+006    1.33222E+007   -8.83336E+005    1.20843E+007   -1.65657E+006    1.17264E+005   -1.96029E+004    1.61097E+004
            2998    1.35205E+007    1.21942E+007    1.21942E+007   -9.26022E+005   -1.69375E+006    1.38880E+007   -3.19149E+006    1.34713E+007   -9.23356E+005    1.21905E+007   -1.69271E+006    2.04886E+005   -1.89301E+004    8.43447E+004
            2999    1.76976E+007    1.52723E+007    1.52723E+007   -1.51829E+006   -3.21074E+006    1.84830E+007   -3.51443E+006    1.75142E+007   -3.17903E+006    1.51734E+007   -1.45107E+006   -7.61427E+005    6.07706E+004   -1.05994E+006
            3000    1.65658E+007    1.42674E+007    1.42674E+007   -1.77548E+006   -2.77610E+006    1.70435E+007   -3.23859E+006    1.64976E+007   -2.72693E+006    1.41704E+007   -1.72768E+006   -9.03156E+005    1.48568E+004   -8.84266E+005
            3001    1.55045E+007    1.35179E+007    1.35179E+007   -1.77889E+006   -2.18632E+006    1.57042E+007   -3.18423E+006    1.54925E+007   -2.14818E+006    1.34504E+007   -1.74955E+006   -7.21867E+005   -1.06584E+004   -7.23122E+005
            3002    1.46232E+007    1.28687E+007    1.28687E+007   -1.67831E+006   -1.82957E+006    1.46982E+007   -3.12026E+006    1.46214E+007   -1.73204E+006    1.28141E+007   -1.72131E+006   -6.91060E+005   -4.81235E+004   -5.66670E+005
            3003    1.37821E+007    1.23184E+007    1.23184E+007   -1.25728E+006   -1.66123E+006    1.39796E+007   -3.13329E+006    1.37688E+007   -1.25612E+006    1.22922E+007   -1.63615E+006   -4.33976E+005   -5.72846E+004   -4.17284E+005
            3004    1.34105E+007    1.20733E+007    1.20733E+007   -1.07254E+006   -1.58694E+006    1.36603E+007   -3.13795E+006    1.33883E+007   -1.07835E+006    1.20626E+007   -1.57041E+006   -2.88060E+005   -7.26418E+004   -2.47118E+005
            3005    1.30263E+007    1.18240E+007    1.18240E+007   -8.37944E+005   -1.53846E+006    1.33624E+007   -3.14919E+006    1.29838E+007   -8.45121E+005    1.18222E+007   -1.52947E+006   -1.18189E+005   -7.47969E+004   -9.78846E+004
            3006    1.31435E+007    1.18984E+007    1.18984E+007   -9.21596E+005   -1.54642E+006    1.34448E+007   -3.14345E+006    1.31100E+007   -9.29671E+005    1.18968E+007   -1.53676E+006    1.23014E+005   -7.47642E+004    7.46558E+004
            3007    1.33025E+007    1.20113E+007    1.20113E+007   -9.76395E+005   -1.58513E+006    1.35964E+007   -3.14992E+006    1.32711E+007   -9.81380E+005    1.20040E+007   -1.57290E+006    2.16146E+005   -6.80586E+004    2.23916E+005
            3008    1.67245E+007    1.42914E+007    1.42914E+007   -1.49812E+006   -3.23269E+006    1.75241E+007   -3.18688E+006    1.65203E+007   -3.20128E+006    1.41106E+007   -1.34864E+006   -7.36397E+005    8.06889E+004   -1.52767E+006
            3009    1.57764E+007    1.35210E+007    1.35210E+007   -1.66640E+006   -2.78489E+006    1.63059E+007   -3.02325E+006    1.56869E+007   -2.73602E+006    1.33615E+007   -1.55574E+006   -8.59611E+005    1.07569E+004   -1.31084E+006
            3010    1.48249E+007    1.29038E+007    1.29038E+007   -1.61564E+006   -2.20867E+006    1.51125E+007   -3.02651E+006    1.47982E+007   -2.17010E+006    1.27922E+007   -1.54260E+006   -6.83186E+005   -1.70073E+004   -1.08007E+006
            3011    1.40090E+007    1.23405E+007    1.23405E+007   -1.49425E+006   -1.83651E+006    1.41770E+007   -3.00326E+006    1.39996E+007   -1.76655E+006    1.22592E+007   -1.48293E+006   -6.47823E+005   -7.13465E+004   -8.47297E+005
            3012    1.32449E+007    1.18680E+007    1.18680E+007   -1.26146E+006   -1.48929E+006    1.33573E+007   -3.03909E+006    1.32404E+007   -1.31659E+006    1.18272E+007   -1.39340E+006   -4.09528E+005   -8.52909E+004   -6.12476E+005
            3013    1.28967E+007    1.16561E+007    1.16561E+007   -1.08726E+006   -1.38862E+006    1.30447E+007   -3.06008E+006    1.28888E+007   -1.13620E+006    1.16406E+007   -1.32418E+006   -2.64574E+005   -1.08481E+005   -3.63027E+005
            3014    1.25766E+007    1.14585E+007    1.14585E+007   -8.99263E+005   -1.32608E+006    1.27846E+007   -3.07773E+006    1.25603E+007   -9.30223E+005    1.14566E+007   -1.29322E+006   -9.88015E+004   -1.11050E+005   -1.19632E+005
            3015    1.27001E+007    1.15398E+007    1.15398E+007   -9.70481E+005   -1.34198E+006    1.28818E+007   -3.07577E+006    1.26879E+007   -1.00736E+006    1.15373E+007   -1.30261E+006    1.30023E+005   -1.11613E+005    1.22391E+005
            3016    1.28925E+007    1.16656E+007    1.16656E+007   -1.04466E+006   -1.40157E+006    1.30672E+007   -3.07314E+006    1.28813E+007   -1.07529E+006    1.16507E+007   -1.35604E+006    2.27085E+005   -9.90405E+004    3.77634E+005
            3017    1.55386E+007    1.31174E+007    1.31174E+007   -1.43745E+006   -3.24671E+006    1.63641E+007   -2.81107E+006    1.52990E+007   -3.21572E+006    1.28714E+007   -1.22251E+006   -7.02757E+005    1.01611E+005   -1.75426E+006
            3018    1.48023E+007    1.26086E+007    1.26086E+007   -1.49027E+006   -2.80903E+006    1.54176E+007   -2.76975E+006    1.46693E+007   -2.76138E+006    1.23924E+007   -1.32178E+006   -8.09546E+005    5.15802E+003   -1.55434E+006
            3019    1.39451E+007    1.21082E+007    1.21082E+007   -1.36611E+006   -2.26428E+006    1.43725E+007   -2.82595E+006    1.38798E+007   -2.22543E+006    1.19543E+007   -1.25103E+006   -6.39029E+005   -3.69861E+004   -1.29619E+006
            3020    1.32404E+007    1.16746E+007    1.16746E+007   -1.20515E+006   -1.89919E+006    1.35738E+007   -2.85675E+006    1.31994E+007   -1.83689E+006    1.15694E+007   -1.16221E+006   -5.98279E+005   -1.08820E+005   -1.01024E+006
            3021    1.25464E+007    1.12712E+007    1.12712E+007   -1.04246E+006   -1.49560E+006    1.27669E+007   -2.91106E+006    1.25280E+007   -1.42460E+006    1.12171E+007   -1.05936E+006   -3.84146E+005   -1.31097E+005   -7.27687E+005
            3022    1.22395E+007    1.11118E+007    1.11118E+007   -9.15132E+005   -1.32984E+006    1.24416E+007   -2.95560E+006    1.22237E+007   -1.23762E+006    1.10932E+007   -9.88796E+005   -2.38035E+005   -1.61432E+005   -4.14257E+005
            3023    1.19785E+007    1.09572E+007    1.09572E+007   -8.44667E+005   -1.19042E+006    1.21476E+007   -2.97404E+006    1.19672E+007   -1.06723E+006    1.09555E+007   -9.66201E+005   -7.55549E+004   -1.64698E+005   -1.19389E+005
            3024    1.21297E+007    1.10622E+007    1.10622E+007   -8.80584E+005   -1.24603E+006    1.23083E+007   -2.97854E+006    1.21173E+007   -1.13425E+006    1.10577E+007   -9.87841E+005    1.39787E+005   -1.65562E+005    1.89342E+005
            3025    1.23340E+007    1.11827E+007    1.11827E+007   -9.70319E+005   -1.32459E+006    1.25073E+007   -2.96259E+006    1.23225E+007   -1.22591E+006    1.11588E+007   -1.04511E+006    2.46286E+005   -1.46812E+005    4.84848E+005
            3026    1.43846E+007    1.20028E+007    1.20028E+007   -1.36015E+006   -3.22214E+006    1.52249E+007   -2.47351E+006    1.41097E+007   -3.19358E+006    1.17234E+007   -1.10926E+006   -6.49132E+005    1.04850E+005   -1.81222E+006
            3027    1.37512E+007    1.16438E+007    1.16438E+007   -1.27107E+006   -2.81369E+006    1.44575E+007   -2.51967E+006    1.35545E+007   -2.77089E+006    1.13964E+007   -1.06648E+006   -7.41358E+005    4.94888E+003   -1.63058E+006
            3028    1.30305E+007    1.12935E+007    1.12935E+007   -1.08233E+006   -2.30536E+006    1.35989E+007   -2.63526E+006    1.29004E+007   -2.27276E+006    1.11147E+007   -9.36200E+005   -5.83650E+005   -3.45494E+004   -1.37219E+006
            3029    1.23911E+007    1.09480E+007    1.09480E+007   -8.57819E+005   -1.95545E+006    1.29034E+007   -2.71157E+006    1.22810E+007   -1.90967E+006    1.08287E+007   -7.84346E+005   -5.39003E+005   -1.12821E+005   -1.06960E+006
            3030    1.17900E+007    1.06330E+007    1.06330E+007   -6.84216E+005   -1.57875E+006    1.22118E+007   -2.79002E+006    1.17133E+007   -1.53693E+006    1.05738E+007   -6.66807E+005   -3.52415E+005   -1.43705E+005   -7.48384E+005
            3031    1.15100E+007    1.05072E+007    1.05072E+007   -5.61797E+005   -1.39822E+006    1.19054E+007   -2.84906E+006    1.14413E+007   -1.35067E+006    1.04879E+007   -5.90097E+005   -2.08489E+005   -1.79255E+005   -4.18922E+005
            3032    1.13096E+007    1.04014E+007    1.04014E+007   -5.15636E+005   -1.26366E+006    1.16650E+007   -2.87403E+006    1.12537E+007   -1.21452E+006    1.04004E+007   -5.63824E+005   -5.14223E+004   -1.84524E+005   -8.97118E+004
            3033    1.14622E+007    1.05011E+007    1.05011E+007   -5.55370E+005   -1.32791E+006    1.18290E+007   -2.87260E+006    1.14035E+007   -1.27753E+006    1.04939E+007   -5.98605E+005    1.46520E+005   -1.84505E+005    2.45406E+005
            3034    1.17161E+007    1.06467E+007    1.06467E+007   -6.64847E+005   -1.43602E+006    1.20827E+007   -2.84860E+006    1.16588E+007   -1.39056E+006    1.06121E+007   -6.75702E+005    2.61604E+005   -1.58233E+005    5.75579E+005
            3035    1.33113E+007    1.09955E+007    1.09955E+007   -1.18441E+006   -3.21395E+006    1.42095E+007   -2.19906E+006    1.29563E+007   -3.18741E+006    1.07226E+007   -9.38056E+005   -6.03723E+005    1.02615E+005   -1.71313E+006
            3036    1.28928E+007    1.08398E+007    1.08398E+007   -1.05177E+006   -2.86270E+006    1.37025E+007   -2.30846E+006    1.26019E+007   -2.82077E+006    1.05899E+007   -8.43750E+005   -7.02362E+005   -1.56000E+004   -1.58141E+006
            3037    1.21652E+007    1.05032E+007    1.05032E+007   -7.74774E+005   -2.38816E+006    1.28914E+007   -2.44676E+006    1.19209E+007   -2.35650E+006    1.03145E+007   -6.17699E+005   -5.52312E+005   -5.24269E+004   -1.35686E+006
            3038    1.16217E+007    1.02662E+007    1.02662E+007   -5.13152E+005   -2.04581E+006    1.23120E+007   -2.56907E+006    1.13910E+007   -2.00725E+006    1.01475E+007   -4.33039E+005   -4.93987E+005   -1.26327E+005   -1.03310E+006
            3039    1.10871E+007    1.00096E+007    1.00096E+007   -3.11736E+005   -1.71052E+006    1.17201E+007   -2.66245E+006    1.08859E+007   -1.67590E+006    9.94931E+006   -2.86063E+005   -3.33256E+005   -1.65204E+005   -7.27706E+005
            3040    1.08061E+007    9.90139E+006    9.90139E+006   -1.63074E+005   -1.51846E+006    1.14199E+007   -2.73995E+006    1.06123E+007   -1.48321E+006    9.88365E+006   -1.80595E+005   -1.86443E+005   -2.00205E+005   -3.87927E+005
            3041    1.06586E+007    9.82664E+006    9.82664E+006   -1.28958E+005   -1.41771E+006    1.12444E+007   -2.75999E+006    1.04811E+007   -1.38320E+006    9.82626E+006   -1.63089E+005   -3.05133E+004   -2.07673E+005   -5.53798E+004
            3042    1.07924E+007    9.91734E+006    9.91734E+006   -1.56634E+005   -1.47274E+006    1.13901E+007   -2.76265E+006    1.06096E+007   -1.43682E+006    9.90743E+006   -1.82647E+005    1.52583E+005   -2.04651E+005    2.84359E+005
            3043    1.10684E+007    1.00454E+007    1.00454E+007   -3.11233E+005   -1.61864E+006    1.16641E+007   -2.70519E+006    1.08927E+007   -1.58382E+006    1.00003E+007   -3.00872E+005    2.80755E+005   -1.74345E+005    6.34496E+005
            3044    1.26350E+007    1.03594E+007    1.03594E+007   -1.14070E+006   -3.16593E+006    1.35253E+007   -2.01759E+006    1.22619E+007   -3.14208E+006    1.01100E+007   -9.15117E+005   -5.19908E+005    1.47479E+005   -1.60247E+006
            3045    1.21087E+007    1.01259E+007    1.01259E+007   -7.93741E+005   -2.89652E+006    1.30224E+007   -2.14521E+006    1.16873E+007   -2.86666E+006    9.89813E+006   -5.95848E+005   -6.10646E+005    3.03756E+004   -1.45948E+006
            3046    1.15501E+007    9.92660E+006    9.92660E+006   -4.96041E+005   -2.49111E+006    1.24177E+007   -2.31315E+006    1.11526E+007   -2.46443E+006    9.75577E+006   -3.51886E+005   -5.29379E+005   -3.39815E+004   -1.23571E+006
            3047    1.09601E+007    9.68014E+006    9.68014E+006   -1.56500E+005   -2.13406E+006    1.18142E+007   -2.46319E+006    1.05474E+007   -2.10751E+006    9.56352E+006   -6.64428E+004   -4.52249E+005   -9.60174E+004   -9.87256E+005
            3048    1.04367E+007    9.44157E+006    9.44157E+006    1.07361E+005   -1.82695E+006    1.12685E+007   -2.57399E+006    1.00214E+007   -1.80490E+006    9.38845E+006    1.38430E+005   -3.15813E+005   -1.41096E+005   -6.45504E+005
            3049    1.01801E+007    9.36271E+006    9.36271E+006    2.48201E+005   -1.62334E+006    1.09861E+007   -2.66252E+006    9.78179E+006   -1.60314E+006    9.34868E+006    2.42030E+005   -1.69941E+005   -1.75558E+005   -3.25153E+005
            3050    1.00714E+007    9.32516E+006    9.32516E+006    3.02124E+005   -1.54024E+006    1.08654E+007   -2.69568E+006    9.68133E+006   -1.52158E+006    9.32512E+006    2.83498E+005   -1.13003E+004   -1.84425E+005   -1.60772E+004
            3051    1.01824E+007    9.37618E+006    9.37618E+006    2.46178E+005   -1.60471E+006    1.09809E+007   -2.67255E+006    9.79314E+006   -1.58419E+006    9.36514E+006    2.36699E+005    1.55807E+005   -1.79155E+005    2.86493E+005
            3052    1.04366E+007    9.47794E+006    9.47794E+006    1.24807E+005   -1.77974E+006    1.12577E+007   -2.60767E+006    1.00344E+007   -1.75746E+006    9.42950E+006    1.50970E+005    2.96264E+005   -1.49173E+005    6.19481E+005
            3053    9.91248E+006    8.98225E+006    8.98225E+006    4.58074E+005   -1.89505E+006    1.08773E+007   -2.51509E+006    9.25222E+006   -1.88202E+006    8.94081E+006    4.86478E+005    3.13684E+005   -8.12094E+004    5.26794E+005
            3054    9.69859E+006    8.95933E+006    8.95933E+006    5.89246E+005   -1.66923E+006    1.06286E+007   -2.62645E+006    9.07821E+006   -1.66100E+006    8.95109E+006    5.89260E+005    1.62528E+005   -1.10302E+005    2.21018E+005
            3055    9.66286E+006    8.96639E+006    8.96639E+006    5.82462E+005   -1.60155E+006    1.05679E+007   -2.64910E+006    9.08228E+006   -1.59508E+006    8.96639E+006    5.75999E+005   -3.83741E+002   -1.18645E+005   -3.85821E+003
            3056    9.70417E+006    8.95987E+006    8.95987E+006    5.80540E+005   -1.67270E+006    1.06326E+007   -2.62257E+006    9.08721E+006   -1.66443E+006    8.95166E+006    5.80485E+005   -1.64954E+005   -1.09929E+005   -2.19414E+005
            3057    9.91995E+006    8.98296E+006    8.98296E+006    4.45708E+005   -1.89943E+006    1.08824E+007   -2.50975E+006    9.26495E+006   -1.88645E+006    8.94080E+006    4.74896E+005   -3.14365E+005   -7.97573E+004   -5.32741E+005
            3058    1.03523E+007    9.10267E+006    9.10267E+006    1.37157E+005   -2.22729E+006    1.13300E+007   -2.33751E+006    9.71648E+006   -2.20861E+006    8.99650E+006    2.24644E+005   -4.32549E+005   -3.48330E+004   -8.93370E+005
            3059    1.11013E+007    9.46976E+006    9.46976E+006   -3.26868E+005   -2.58812E+006    1.20579E+007   -2.18493E+006    1.05644E+007   -2.56488E+006    9.27535E+006   -1.55700E+005   -5.19625E+005    2.31666E+004   -1.28558E+006
            3060    1.19556E+007    9.90618E+006    9.90618E+006   -9.00899E+005   -2.93649E+006    1.28427E+007   -2.02293E+006    1.15560E+007   -2.91110E+006    9.69525E+006   -7.15356E+005   -5.66009E+005    6.98532E+004   -1.40220E+006
            3061    1.21511E+007    9.73973E+006    9.73973E+006   -1.22110E+006   -3.32651E+006    1.30662E+007   -1.73071E+006    1.17302E+007   -3.29815E+006    9.55126E+006   -1.06098E+006   -5.99732E+005    9.11551E+004   -1.31398E+006
            3062    1.90896E+007    1.68661E+007    1.68661E+007   -8.06868E+005   -3.37922E+006    2.02454E+007   -4.22668E+006    1.86937E+007   -3.36525E+006    1.68398E+007   -7.94505E+005   -5.27624E+005    3.52891E+004   -4.70375E+005
            3063    1.83612E+007    1.60052E+007    1.60052E+007   -9.66619E+005   -3.48525E+006    1.94905E+007   -3.85111E+006    1.79664E+007   -3.46803E+006    1.58930E+007   -8.71645E+005   -5.47404E+005    1.02578E+005   -1.27525E+006
            3064    1.71668E+007    1.46464E+007    1.46464E+007   -1.16966E+006   -3.61006E+006    1.82564E+007   -3.28889E+006    1.67699E+007   -3.58797E+006    1.44287E+007   -9.74087E+005   -5.78136E+005    1.50106E+005   -1.75976E+006
            3065    1.58401E+007    1.32099E+007    1.32099E+007   -1.33211E+006   -3.66877E+006    1.68787E+007   -2.73634E+006    1.54452E+007   -3.64188E+006    1.29158E+007   -1.06491E+006   -6.05346E+005    1.78376E+005   -1.96517E+006
            3066    1.45241E+007    1.18662E+007    1.18662E+007   -1.38612E+006   -3.66129E+006    1.55275E+007   -2.27292E+006    1.41149E+007   -3.63211E+006    1.15464E+007   -1.09556E+006   -6.19844E+005    1.74643E+005   -1.94815E+006
            3067    1.34442E+007    1.08234E+007    1.08234E+007   -1.37476E+006   -3.59127E+006    1.44147E+007   -1.95247E+006    1.30236E+007   -3.56057E+006    1.05173E+007   -1.09936E+006   -6.21978E+005    1.66270E+005   -1.81721E+006
            3068    1.25482E+007    1.00156E+007    1.00156E+007   -1.23385E+006   -3.51765E+006    1.35332E+007   -1.75469E+006    1.20672E+007   -3.48659E+006    9.76396E+006   -1.01330E+006   -6.32159E+005    1.21847E+005   -1.55902E+006
            3069    1.77242E+007    1.51702E+007    1.51702E+007   -1.74880E+006   -3.26224E+006    1.84324E+007   -3.38638E+006    1.75780E+007   -3.17587E+006    1.50769E+007   -1.74186E+006    1.25851E+006   -2.20732E+004   -3.41911E+005
            3070    1.62465E+007    1.41449E+007    1.41449E+007   -1.87714E+006   -2.31702E+006    1.64619E+007   -3.31692E+006    1.62331E+007   -2.24322E+006    1.40677E+007   -1.87373E+006    1.09595E+006   -2.02729E+003   -2.50370E+005
            3071    1.48921E+007    1.31374E+007    1.31374E+007   -1.61968E+006   -1.88617E+006    1.50236E+007   -3.21052E+006    1.48868E+007   -1.55550E+006    1.30673E+007   -1.88021E+006    9.94770E+005    1.50920E+004   -2.05799E+005
            3072    1.39579E+007    1.25897E+007    1.25897E+007   -9.60392E+005   -1.74308E+006    1.43328E+007   -3.29541E+006    1.39084E+007   -9.41575E+005    1.25686E+007   -1.74082E+006    5.18547E+005    2.37054E+004   -1.31858E+005
            3073    1.72806E+007    1.47376E+007    1.47376E+007   -1.71217E+006   -3.26843E+006    1.80060E+007   -3.25234E+006    1.71218E+007   -3.18299E+006    1.45972E+007   -1.65722E+006    1.23462E+006   -5.18602E+004   -9.48851E+005
            3074    1.59473E+007    1.38509E+007    1.38509E+007   -1.82457E+006   -2.35498E+006    1.62059E+007   -3.22380E+006    1.59275E+007   -2.27812E+006    1.37437E+007   -1.79422E+006    1.07114E+006    4.21360E+003   -7.51592E+005
            3075    1.46530E+007    1.29203E+007    1.29203E+007   -1.62346E+006   -1.83939E+006    1.47597E+007   -3.15250E+006    1.46494E+007   -1.60141E+006    1.28320E+007   -1.77309E+006    9.82166E+005    4.89080E+004   -5.70975E+005
            3076    1.37275E+007    1.23835E+007    1.23835E+007   -1.00451E+006   -1.65990E+006    1.40434E+007   -3.23971E+006    1.36922E+007   -9.95025E+005    1.23510E+007   -1.63679E+006    5.25241E+005    6.86746E+004   -4.12378E+005
            3077    1.64758E+007    1.39333E+007    1.39333E+007   -1.67512E+006   -3.29091E+006    1.72242E+007   -2.98908E+006    1.62961E+007   -3.20769E+006    1.37213E+007   -1.54635E+006    1.18822E+006   -7.94848E+004   -1.41095E+006
            3078    1.53733E+007    1.33032E+007    1.33032E+007   -1.69034E+006   -2.42365E+006    1.57268E+007   -3.06306E+006    1.53339E+007   -2.34716E+006    1.31479E+007   -1.61158E+006    1.02685E+006    4.39676E+003   -1.14506E+006
            3079    1.41865E+007    1.24836E+007    1.24836E+007   -1.53792E+006   -1.86226E+006    1.43458E+007   -3.02780E+006    1.41781E+007   -1.70965E+006    1.23617E+007   -1.56867E+006    9.57398E+005    8.35734E+004   -9.02774E+005
            3080    1.32900E+007    1.19968E+007    1.19968E+007   -1.07885E+006   -1.49747E+006    1.34943E+007   -3.14018E+006    1.32751E+007   -1.11266E+006    1.19461E+007   -1.41289E+006    5.37684E+005    1.16985E+005   -6.25242E+005
            3081    1.54848E+007    1.29532E+007    1.29532E+007   -1.62419E+006   -3.30243E+006    1.62556E+007   -2.67552E+006    1.52782E+007   -3.22253E+006    1.26798E+007   -1.43073E+006    1.12450E+006   -8.12656E+004   -1.66990E+006
            3082    1.45407E+007    1.25038E+007    1.25038E+007   -1.52426E+006   -2.50039E+006    1.50042E+007   -2.82638E+006    1.44667E+007   -2.42738E+006    1.22934E+007   -1.38683E+006    9.61088E+005    8.11744E+003   -1.43715E+006
            3083    1.35404E+007    1.19049E+007    1.19049E+007   -1.30880E+006   -1.94017E+006    1.38450E+007   -2.88530E+006    1.35072E+007   -1.82196E+006    1.17512E+007   -1.27336E+006    9.16891E+005    1.06619E+005   -1.11060E+006
            3084    1.27130E+007    1.14763E+007    1.14763E+007   -1.04493E+006   -1.42008E+006    1.28964E+007   -3.00377E+006    1.27005E+007   -1.25705E+006    1.14016E+007   -1.13324E+006    5.45616E+005    1.46978E+005   -8.10798E+005
            3085    1.43391E+007    1.18034E+007    1.18034E+007   -1.55928E+006   -3.34484E+006    1.51483E+007   -2.29977E+006    1.40858E+007   -3.26746E+006    1.14877E+007   -1.32089E+006    1.06023E+006   -7.30654E+004   -1.77399E+006
            3086    1.36599E+007    1.16852E+007    1.16852E+007   -1.25532E+006   -2.59539E+006    1.42806E+007   -2.61150E+006    1.35109E+007   -2.52777E+006    1.14431E+007   -1.08086E+006    8.97294E+005    1.91021E+004   -1.53975E+006
            3087    1.28148E+007    1.12182E+007    1.12182E+007   -1.01779E+006   -2.10594E+006    1.33242E+007   -2.69816E+006    1.27102E+007   -2.00080E+006    1.10381E+007   -9.42832E+005    8.77917E+005    1.38934E+005   -1.22619E+006
            3088    1.20659E+007    1.08682E+007    1.08682E+007   -7.88311E+005   -1.56929E+006    1.24375E+007   -2.83686E+006    1.20089E+007   -1.46589E+006    1.07742E+007   -7.97733E+005    5.62284E+005    1.93213E+005   -9.01550E+005
            3089    1.35077E+007    1.10227E+007    1.10227E+007   -1.44120E+006   -3.32995E+006    1.43527E+007   -2.08385E+006    1.32057E+007   -3.25521E+006    1.06989E+007   -1.19210E+006    1.00807E+006   -5.94397E+004   -1.75257E+006
            3090    1.27181E+007    1.08236E+007    1.08236E+007   -9.45418E+005   -2.66801E+006    1.34916E+007   -2.40338E+006    1.24516E+007   -2.61370E+006    1.05729E+007   -7.49055E+005    8.19077E+005   -1.44839E+004   -1.52333E+006
            3091    1.21622E+007    1.06014E+007    1.06014E+007   -7.33351E+005   -2.24667E+006    1.28481E+007   -2.54046E+006    1.19477E+007   -2.16915E+006    1.04217E+007   -6.31189E+005    8.18180E+005    1.14793E+005   -1.20292E+006
            3092    1.14391E+007    1.02808E+007    1.02808E+007   -4.64731E+005   -1.74438E+006    1.20251E+007   -2.69055E+006    1.12764E+007   -1.67619E+006    1.01719E+007   -4.24035E+005    5.66454E+005    1.81746E+005   -9.45732E+005
            3093    1.25253E+007    1.01931E+007    1.01931E+007   -9.79133E+005   -3.34725E+006    1.35403E+007   -1.95557E+006    1.20061E+007   -3.26935E+006    9.89447E+006   -7.58400E+005    1.00009E+006   -4.27204E+004   -1.56425E+006
            3094    1.23512E+007    1.03865E+007    1.03865E+007   -9.19863E+005   -2.79515E+006    1.31816E+007   -2.22382E+006    1.20247E+007   -2.74032E+006    1.01685E+007   -7.56737E+005    8.17844E+005   -7.75001E+003   -1.36368E+006
            3095    1.16625E+007    1.00911E+007    1.00911E+007   -5.21701E+005   -2.39440E+006    1.24855E+007   -2.39167E+006    1.13168E+007   -2.33209E+006    9.89014E+006   -3.83045E+005    7.69476E+005    8.31726E+004   -1.27230E+006
            3096    1.08538E+007    9.65194E+006    9.65194E+006   -2.00198E+005   -1.98288E+006    1.16348E+007   -2.48962E+006    1.05169E+007   -1.92771E+006    9.52791E+006   -1.31343E+005    5.82722E+005    1.64014E+005   -9.70698E+005
            3097    1.02668E+007    9.05335E+006    9.05335E+006    2.16069E+005   -2.20885E+006    1.12622E+007   -2.35352E+006    9.59021E+006   -2.16969E+006    8.93207E+006    2.98187E+005    5.96352E+005    8.50939E+004   -8.90113E+005
            3098    1.10628E+007    9.40198E+006    9.40198E+006   -3.11397E+005   -2.63963E+006    1.20416E+007   -2.15032E+006    1.04901E+007   -2.59267E+006    9.17832E+006   -1.34694E+005    7.18746E+005    7.68613E+003   -1.31281E+006
            3099    1.22016E+007    1.02049E+007    1.02049E+007   -7.00544E+005   -2.97332E+006    1.31782E+007   -2.17700E+006    1.17111E+007   -2.92057E+006    9.88170E+006   -4.30115E+005    8.18958E+005   -7.13989E+004   -1.69658E+006
            3100    1.36015E+007    1.11674E+007    1.11674E+007   -1.36272E+006   -3.29811E+006    1.44655E+007   -2.16886E+006    1.32864E+007   -3.24576E+006    1.09311E+007   -1.17881E+006    8.61958E+005   -1.07505E+005   -1.50367E+006
            3101    1.93362E+007    1.68176E+007    1.68176E+007   -8.71831E+005   -3.82548E+006    2.06431E+007   -4.04010E+006    1.88186E+007   -3.79188E+006    1.67739E+007   -8.61680E+005    8.28733E+005   -4.48856E+004   -4.27529E+005
            3102    1.86106E+007    1.59960E+007    1.59960E+007   -9.92752E+005   -3.89537E+006    1.98913E+007   -3.70261E+006    1.80908E+007   -3.85759E+006    1.58775E+007   -9.12071E+005    8.42483E+005   -1.24406E+005   -1.17732E+006
            3103    1.74689E+007    1.47474E+007    1.47474E+007   -1.14316E+006   -3.95799E+006    1.87054E+007   -3.21541E+006    1.69474E+007   -3.91318E+006    1.45399E+007   -9.80481E+005    8.61090E+005   -1.90938E+005   -1.61540E+006
            3104    1.60904E+007    1.32703E+007    1.32703E+007   -1.32001E+006   -3.98694E+006    1.72572E+007   -2.65444E+006    1.55815E+007   -3.93556E+006    1.30024E+007   -1.10348E+006    8.72896E+005   -2.24164E+005   -1.78127E+006
            3105    1.47925E+007    1.19319E+007    1.19319E+007   -1.45281E+006   -3.95049E+006    1.58824E+007   -2.17619E+006    1.43066E+007   -3.89506E+006    1.16558E+007   -1.23215E+006    8.66259E+005   -2.31893E+005   -1.72210E+006
            3106    1.35709E+007    1.06461E+007    1.06461E+007   -1.60537E+006   -3.94098E+006    1.45871E+007   -1.69993E+006    1.31072E+007   -3.88653E+006    1.04220E+007   -1.43568E+006    8.25432E+005   -2.12086E+005   -1.45120E+006
            3107    1.35016E+007    1.05142E+007    1.05142E+007   -1.97155E+006   -3.81409E+006    1.43283E+007   -1.57619E+006    1.32144E+007   -3.76253E+006    1.03612E+007   -1.87016E+006    8.07408E+005   -1.66686E+005   -1.14320E+006
            3108    9.81713E+006    8.92511E+006    8.92511E+006    4.77972E+005   -1.84525E+006    1.07704E+007   -2.51928E+006    9.16751E+006   -1.81742E+006    8.87845E+006    4.96803E+005    4.23097E+005    1.40595E+005   -5.08274E+005
            3109    9.59712E+006    8.90842E+006    8.90842E+006    6.16863E+005   -1.60464E+006    1.05131E+007   -2.64021E+006    8.99091E+006   -1.58546E+006    8.89820E+006    6.07900E+005    2.24132E+005    1.73713E+005   -2.16051E+005
            3110    9.55329E+006    8.91549E+006    8.91549E+006    6.06982E+005   -1.52301E+006    1.04385E+007   -2.66649E+006    8.99546E+006   -1.50678E+006    8.91549E+006    5.90752E+005    2.65046E+003    1.85217E+005   -3.38378E+002
            3111    9.59634E+006    8.90423E+006    8.90423E+006    6.07919E+005   -1.60538E+006    1.05096E+007   -2.63559E+006    8.99477E+006   -1.58658E+006    8.89467E+006    5.98678E+005   -2.17986E+005    1.72911E+005    2.08022E+005
            3112    9.81916E+006    8.92525E+006    8.92525E+006    4.75833E+005   -1.84708E+006    1.07723E+007   -2.51800E+006    9.16987E+006   -1.81937E+006    8.87813E+006    4.95250E+005   -4.22896E+005    1.39714E+005    5.12345E+005
            3113    1.02853E+007    9.04770E+006    9.04770E+006    1.66623E+005   -2.22159E+006    1.12693E+007   -2.33091E+006    9.63134E+006   -2.18358E+006    8.93259E+006    2.43728E+005   -5.90953E+005    8.09316E+004    8.64269E+005
            3114    1.10625E+007    9.41631E+006    9.41631E+006   -2.97051E+005   -2.62488E+006    1.20412E+007   -2.16480E+006    1.04900E+007   -2.57806E+006    9.21069E+006   -1.38239E+005   -7.17626E+005    1.25668E+004    1.24753E+006
            3115    1.19573E+007    9.85654E+006    9.85654E+006   -8.51377E+005   -3.04614E+006    1.29027E+007   -1.98634E+006    1.14910E+007   -2.99602E+006    9.63837E+006   -6.83329E+005   -7.94163E+005   -5.36059E+004    1.33168E+006
            3116    1.21815E+007    9.77493E+006    9.77493E+006   -1.07347E+006   -3.40325E+006    1.31782E+007   -1.76607E+006    1.16644E+007   -3.35451E+006    9.60008E+006   -9.47354E+005   -7.76229E+005   -1.44909E+005    1.16726E+006
            3117    1.03441E+007    9.44536E+006    9.44536E+006    1.11651E+005   -1.67608E+006    1.11214E+007   -2.62698E+006    9.98763E+006   -1.62514E+006    9.39115E+006    1.14921E+005    4.09235E+005    2.28200E+005   -6.12142E+005
            3118    1.09861E+007    1.00589E+007    1.00589E+007   -2.57128E+005   -1.49284E+006    1.15517E+007   -2.76964E+006    1.08281E+007   -1.41804E+006    1.00087E+007   -2.81771E+005    4.03905E+005    2.45492E+005   -6.18128E+005
            3119    1.16616E+007    1.06721E+007    1.06721E+007   -6.01165E+005   -1.34253E+006    1.20146E+007   -2.90946E+006    1.16084E+007   -1.21752E+006    1.06302E+007   -6.84274E+005    4.07348E+005    2.45373E+005   -5.71588E+005
            3120    1.22925E+007    1.12418E+007    1.12418E+007   -8.42074E+005   -1.24915E+006    1.24910E+007   -3.05021E+006    1.22773E+007   -1.02652E+006    1.12105E+007   -1.03336E+006    3.97905E+005    1.88059E+005   -4.81749E+005
            3121    1.28763E+007    1.17360E+007    1.17360E+007   -8.64143E+005   -1.39960E+006    1.31356E+007   -3.15743E+006    1.28512E+007   -9.02276E+005    1.17134E+007   -1.33878E+006    3.94259E+005    1.44907E+005   -3.73070E+005
            3122    1.33034E+007    1.21014E+007    1.21014E+007   -8.01696E+005   -1.56908E+006    1.36705E+007   -3.24354E+006    1.32535E+007   -8.00086E+005    1.20860E+007   -1.55525E+006    3.90705E+005    8.12463E+004   -2.24366E+005
            3123    1.35375E+007    1.22935E+007    1.22935E+007   -7.71921E+005   -1.67129E+006    1.39648E+007   -3.28343E+006    1.34701E+007   -7.61304E+005    1.22813E+007   -1.66974E+006    3.89757E+005    2.76711E+004   -8.73415E+004
            3124    1.00513E+007    9.31465E+006    9.31465E+006    2.31920E+005   -1.48423E+006    1.07989E+007   -2.68744E+006    9.71344E+006   -1.43792E+006    9.30241E+006    1.97844E+005    1.98515E+005    2.62052E+005   -2.84336E+005
            3125    1.06169E+007    9.86987E+006    9.86987E+006   -1.05254E+005   -1.28952E+006    1.11594E+007   -2.82503E+006    1.04668E+007   -1.21781E+006    9.85970E+006   -1.66792E+005    1.69305E+005    2.73490E+005   -2.80074E+005
            3126    1.12845E+007    1.04560E+007    1.04560E+007   -4.80480E+005   -1.14703E+006    1.16030E+007   -2.94283E+006    1.12401E+007   -1.01074E+006    1.04492E+007   -6.09937E+005    1.40186E+005    2.64697E+005   -2.41284E+005
            3127    1.19363E+007    1.10379E+007    1.10379E+007   -6.73593E+005   -1.11110E+006    1.21490E+007   -3.08441E+006    1.19182E+007   -8.06663E+005    1.10343E+007   -9.74447E+005    1.04266E+005    2.00103E+005   -1.80582E+005
            3128    1.25114E+007    1.15220E+007    1.15220E+007   -6.34623E+005   -1.31625E+006    1.28383E+007   -3.19039E+006    1.24695E+007   -6.70523E+005    1.15206E+007   -1.27886E+006    7.47081E+004    1.52470E+005   -1.15575E+005
            3129    1.29505E+007    1.18906E+007    1.18906E+007   -5.52381E+005   -1.51384E+006    1.34044E+007   -3.27479E+006    1.28698E+007   -5.59807E+005    1.18900E+007   -1.50580E+006    5.21369E+004    8.50847E+004   -7.28794E+004
            3130    1.31785E+007    1.20796E+007    1.20796E+007   -5.13141E+005   -1.61536E+006    1.36950E+007   -3.31703E+006    1.30742E+007   -5.13866E+005    1.20795E+007   -1.61450E+006    3.88139E+004    3.04520E+004   -1.59013E+004
            3131    9.97697E+006    9.30503E+006    9.30503E+006    3.00398E+005   -1.42042E+006    1.07255E+007   -2.72833E+006    9.63457E+006   -1.37531E+006    9.30499E+006    2.55319E+005   -1.04866E+004    2.74912E+005    1.61044E+004
            3132    1.05814E+007    9.86138E+006    9.86138E+006   -6.95073E+004   -1.26834E+006    1.11297E+007   -2.84118E+006    1.04269E+007   -1.19546E+006    9.86099E+006   -1.41992E+005   -3.03614E+004    2.86150E+005    5.62133E+004
            3133    1.12934E+007    1.04768E+007    1.04768E+007   -4.46986E+005   -1.15301E+006    1.16298E+007   -2.95895E+006    1.12436E+007   -1.02330E+006    1.04757E+007   -5.75591E+005   -5.28107E+004    2.72769E+005    9.86279E+004
            3134    1.20012E+007    1.10855E+007    1.10855E+007   -6.98581E+005   -1.12167E+006    1.22072E+007   -3.08841E+006    1.19844E+007   -8.62730E+005    1.10837E+007   -9.55757E+005   -7.53789E+004    2.05497E+005    1.25977E+005
            3135    1.26499E+007    1.16183E+007    1.16183E+007   -7.20988E+005   -1.32085E+006    1.29392E+007   -3.19217E+006    1.26179E+007   -7.63538E+005    1.16165E+007   -1.27645E+006   -9.35463E+004    1.54249E+005    1.23029E+005
            3136    1.31244E+007    1.20098E+007    1.20098E+007   -6.75152E+005   -1.51375E+006    1.35235E+007   -3.27363E+006    1.30639E+007   -6.83137E+005    1.20083E+007   -1.50425E+006   -1.05396E+005    8.49714E+004    9.37163E+004
            3137    1.33848E+007    1.22195E+007    1.22195E+007   -6.55514E+005   -1.62266E+006    1.38422E+007   -3.31379E+006    1.33059E+007   -6.55480E+005    1.22185E+007   -1.62166E+006   -1.11953E+005    2.98953E+004    2.72224E+004
            3138    1.00570E+007    9.30472E+006    9.30472E+006    2.32878E+005   -1.50966E+006    1.08144E+007   -2.67598E+006    9.70859E+006   -1.46393E+006    9.28885E+006    2.03028E+005   -2.25115E+005    2.57588E+005    3.24141E+005
            3139    1.06510E+007    9.86099E+006    9.86099E+006   -1.24241E+005   -1.34983E+006    1.12108E+007   -2.79564E+006    1.04906E+007   -1.27926E+006    9.84057E+006   -1.74395E+005   -2.45216E+005    2.66552E+005    3.93918E+005
            3140    1.13627E+007    1.04742E+007    1.04742E+007   -5.15613E+005   -1.22782E+006    1.17020E+007   -2.91026E+006    1.13123E+007   -1.10161E+006    1.04507E+007   -6.18259E+005   -2.76003E+005    2.56009E+005    4.40043E+005
            3141    1.20704E+007    1.10938E+007    1.10938E+007   -7.65166E+005   -1.17747E+006    1.22712E+007   -3.05038E+006    1.20545E+007   -9.22637E+005    1.10707E+007   -9.96983E+005   -3.01282E+005    1.91229E+005    4.37048E+005
            3142    1.27105E+007    1.16285E+007    1.16285E+007   -7.69999E+005   -1.37270E+006    1.30012E+007   -3.16192E+006    1.26783E+007   -8.04070E+005    1.16091E+007   -1.31924E+006   -3.25874E+005    1.44690E+005    3.78598E+005
            3143    1.31867E+007    1.20312E+007    1.20312E+007   -7.01582E+005   -1.56670E+006    1.35979E+007   -3.25431E+006    1.31226E+007   -7.01290E+005    1.20176E+007   -1.55333E+006   -3.39666E+005    7.99958E+004    2.52001E+005
            3144    1.34382E+007    1.22401E+007    1.22401E+007   -6.69610E+005   -1.67054E+006    1.39106E+007   -3.29998E+006    1.33539E+007   -6.61083E+005    1.22301E+007   -1.66902E+006   -3.49367E+005    2.81123E+004    9.08595E+004
            3145    1.03530E+007    9.41230E+006    9.41230E+006    8.55804E+004   -1.72743E+006    1.11397E+007   -2.59015E+006    9.98641E+006   -1.67703E+006    9.35181E+006    9.56699E+004   -4.30110E+005    2.20169E+005    6.47252E+005
            3146    1.10329E+007    1.00441E+007    1.00441E+007   -2.73587E+005   -1.58650E+006    1.16306E+007   -2.72801E+006    1.08551E+007   -1.51585E+006    9.97655E+006   -2.76657E+005   -4.55754E+005    2.29549E+005    7.24440E+005
            3147    1.17996E+007    1.07043E+007    1.07043E+007   -6.55281E+005   -1.49101E+006    1.21953E+007   -2.85266E+006    1.17328E+007   -1.37900E+006    1.06339E+007   -6.96969E+005   -5.02707E+005    2.29350E+005    7.59920E+005
            3148    1.25783E+007    1.13833E+007    1.13833E+007   -9.74072E+005   -1.40484E+006    1.27882E+007   -3.00147E+006    1.25617E+007   -1.23944E+006    1.13181E+007   -1.07428E+006   -5.43712E+005    1.71495E+005    7.28774E+005
            3149    1.32929E+007    1.19855E+007    1.19855E+007   -1.10577E+006   -1.50039E+006    1.34859E+007   -3.12643E+006    1.32797E+007   -1.15863E+006    1.19323E+007   -1.39441E+006   -5.88698E+005    1.31333E+005    6.04085E+005
            3150    1.38147E+007    1.24296E+007    1.24296E+007   -1.09709E+006   -1.65609E+006    1.40857E+007   -3.22548E+006    1.37892E+007   -1.08441E+006    1.23902E+007   -1.62933E+006   -6.17808E+005    7.38536E+004    4.00243E+005
            3151    1.41012E+007    1.26698E+007    1.26698E+007   -1.09038E+006   -1.74929E+006    1.44191E+007   -3.27672E+006    1.40665E+007   -1.06229E+006    1.26391E+007   -1.74661E+006   -6.37211E+005    2.50114E+004    1.33354E+005
            3152    1.08580E+007    9.60787E+006    9.60787E+006   -2.00107E+005   -2.05997E+006    1.16678E+007   -2.44926E+006    1.04907E+007   -2.00557E+006    9.47773E+006   -1.24368E+005   -6.06841E+005    1.52113E+005    9.86586E+005
            3153    1.14859E+007    1.02148E+007    1.02148E+007   -5.08842E+005   -1.90565E+006    1.21204E+007   -2.60010E+006    1.12925E+007   -1.83906E+006    1.00827E+007   -4.43377E+005   -6.28866E+005    1.60377E+005    1.03675E+006
            3154    1.22696E+007    1.09131E+007    1.09131E+007   -8.71366E+005   -1.79007E+006    1.27031E+007   -2.75054E+006    1.21918E+007   -1.69573E+006    1.07774E+007   -8.29997E+005   -6.75894E+005    1.65431E+005    1.08954E+006
            3155    1.30850E+007    1.16516E+007    1.16516E+007   -1.19360E+006   -1.66071E+006    1.33123E+007   -2.93244E+006    1.30663E+007   -1.54652E+006    1.15333E+007   -1.18947E+006   -7.11310E+005    1.17539E+005    1.01974E+006
            3156    1.38129E+007    1.22951E+007    1.22951E+007   -1.38041E+006   -1.65110E+006    1.39462E+007   -3.08787E+006    1.38069E+007   -1.45773E+006    1.22033E+007   -1.48196E+006   -7.52085E+005    8.86183E+004    8.40486E+005
            3157    1.43630E+007    1.27889E+007    1.27889E+007   -1.39630E+006   -1.74552E+006    1.45344E+007   -3.21569E+006    1.43534E+007   -1.37261E+006    1.27254E+007   -1.70576E+006   -7.76608E+005    4.89515E+004    5.52568E+005
            3158    1.46575E+007    1.30489E+007    1.30489E+007   -1.38723E+006   -1.82031E+006    1.48692E+007   -3.28045E+006    1.46431E+007   -1.34501E+006    1.30028E+007   -1.81647E+006   -7.93039E+005    1.49200E+004    1.88462E+005
            3159    1.15268E+007    9.89084E+006    9.89084E+006   -5.53242E+005   -2.47669E+006    1.23675E+007   -2.28697E+006    1.11571E+007   -2.41759E+006    9.69919E+006   -4.20698E+005   -7.57667E+005    7.56194E+004    1.22744E+006
            3160    1.21889E+007    1.05315E+007    1.05315E+007   -7.65493E+005   -2.38698E+006    1.29184E+007   -2.45966E+006    1.19426E+007   -2.31635E+006    1.03229E+007   -6.27529E+005   -8.19582E+005    8.42707E+004    1.32606E+006
            3161    1.30818E+007    1.13241E+007    1.13241E+007   -1.09740E+006   -2.33065E+006    1.36548E+007   -2.63203E+006    1.29501E+007   -2.23450E+006    1.11151E+007   -9.84475E+005   -9.18872E+005    1.08558E+005    1.35151E+006
            3162    1.39537E+007    1.21224E+007    1.21224E+007   -1.38405E+006   -2.23921E+006    1.43616E+007   -2.83306E+006    1.38946E+007   -2.13577E+006    1.19335E+007   -1.29854E+006   -9.98383E+005    7.60514E+004    1.26924E+006
            3163    1.47799E+007    1.28638E+007    1.28638E+007   -1.61528E+006   -2.19959E+006    1.50634E+007   -3.01631E+006    1.47539E+007   -2.08948E+006    1.27109E+007   -1.57246E+006   -1.08042E+006    5.71563E+004    1.04373E+006
            3164    1.53888E+007    1.34182E+007    1.34182E+007   -1.79019E+006   -2.14475E+006    1.55630E+007   -3.16109E+006    1.53796E+007   -2.04015E+006    1.33034E+007   -1.77994E+006   -1.13768E+006    3.25625E+004    6.90168E+005
            3165    1.57475E+007    1.37402E+007    1.37402E+007   -1.88616E+006   -2.12582E+006    1.58660E+007   -3.24273E+006    1.57434E+007   -2.03551E+006    1.36495E+007   -1.88575E+006   -1.17248E+006    9.71870E+003    2.37021E+005
            3166    1.20443E+007    1.00327E+007    1.00327E+007   -8.71612E+005   -2.89512E+006    1.29278E+007   -2.08866E+006    1.16526E+007   -2.83791E+006    9.77969E+006   -6.75785E+005   -8.25210E+005   -1.07419E+004    1.46324E+006
            3167    1.28162E+007    1.08046E+007    1.08046E+007   -1.07583E+006   -2.77743E+006    1.35820E+007   -2.31710E+006    1.25583E+007   -2.72386E+006    1.05433E+007   -8.68095E+005   -8.30432E+005   -4.17667E+004    1.56430E+006
            3168    1.37395E+007    1.16605E+007    1.16605E+007   -1.25827E+006   -2.77405E+006    1.44346E+007   -2.54273E+006    1.35495E+007   -2.70990E+006    1.14037E+007   -1.06556E+006   -9.21589E+005   -2.23850E+004    1.58498E+006
            3169    1.47855E+007    1.26379E+007    1.26379E+007   -1.48960E+006   -2.72770E+006    1.53656E+007   -2.80688E+006    1.46682E+007   -2.65845E+006    1.24104E+007   -1.33136E+006   -9.95215E+005   -3.00292E+004    1.50579E+006
            3170    1.57445E+007    1.35376E+007    1.35376E+007   -1.63365E+006   -2.72359E+006    1.62612E+007   -3.06011E+006    1.56593E+007   -2.65011E+006    1.33627E+007   -1.53231E+006   -1.07132E+006   -3.48562E+004    1.24915E+006
            3171    1.65097E+007    1.42585E+007    1.42585E+007   -1.75463E+006   -2.70654E+006    1.69650E+007   -3.26577E+006    1.64478E+007   -2.63009E+006    1.41396E+007   -1.71219E+006   -1.12380E+006   -1.82703E+004    8.38215E+005
            3172    1.69539E+007    1.46784E+007    1.46784E+007   -1.79985E+006   -2.71407E+006    1.73925E+007   -3.38817E+006    1.68983E+007   -2.63731E+006    1.45966E+007   -1.79477E+006   -1.15254E+006   -1.45277E+004    2.89803E+005
            3173    1.26927E+007    1.02600E+007    1.02600E+007   -1.18068E+006   -3.39365E+006    1.36537E+007   -1.89523E+006    1.22473E+007   -3.32357E+006    9.98180E+006   -9.72541E+005   -9.54691E+005   -4.38206E+004    1.53683E+006
            3174    1.32912E+007    1.08611E+007    1.08611E+007   -1.26285E+006   -3.35023E+006    1.42114E+007   -2.08269E+006    1.29147E+007   -3.28127E+006    1.05503E+007   -1.02093E+006   -9.75723E+005   -8.71362E+004    1.69513E+006
            3175    1.43556E+007    1.18443E+007    1.18443E+007   -1.41448E+006   -3.40120E+006    1.52455E+007   -2.34288E+006    1.40413E+007   -3.32754E+006    1.15247E+007   -1.16857E+006   -1.04656E+006   -1.01722E+005    1.78714E+006
            3176    1.54828E+007    1.29219E+007    1.29219E+007   -1.51534E+006   -3.42862E+006    1.63505E+007   -2.65931E+006    1.52134E+007   -3.35247E+006    1.26343E+007   -1.30396E+006   -1.10493E+006   -1.02442E+005    1.73174E+006
            3177    1.66389E+007    1.40488E+007    1.40488E+007   -1.56727E+006   -3.45235E+006    1.75012E+007   -3.00974E+006    1.63961E+007   -3.37409E+006    1.38234E+007   -1.42012E+006   -1.16273E+006   -1.03213E+005    1.50521E+006
            3178    1.75787E+007    1.49772E+007    1.49772E+007   -1.59900E+006   -3.45646E+006    1.84337E+007   -3.30724E+006    1.73558E+007   -3.37780E+006    1.48334E+007   -1.53382E+006   -1.19942E+006   -6.50281E+004    1.03538E+006
            3179    1.81289E+007    1.55211E+007    1.55211E+007   -1.61014E+006   -3.46302E+006    1.89842E+007   -3.48266E+006    1.79140E+007   -3.38428E+006    1.54341E+007   -1.60184E+006   -1.21967E+006   -3.05492E+004    3.76276E+005
            3180    1.94849E+007    1.69488E+007    1.69488E+007   -8.16514E+005   -3.89026E+006    2.08391E+007   -4.08069E+006    1.89279E+007   -3.85801E+006    1.69054E+007   -8.05289E+005   -8.15426E+005   -4.68987E+004    4.50409E+005
            3181    1.87267E+007    1.60848E+007    1.60848E+007   -9.65016E+005   -3.95814E+006    2.00430E+007   -3.72056E+006    1.81768E+007   -3.92061E+006    1.59618E+007   -8.79561E+005   -8.38028E+005   -1.33742E+005    1.21534E+006
            3182    1.74811E+007    1.47214E+007    1.47214E+007   -1.15156E+006   -4.01448E+006    1.87358E+007   -3.18511E+006    1.69416E+007   -3.96887E+006    1.45011E+007   -9.76914E+005   -8.66574E+005   -1.98975E+005    1.67200E+006
            3183    1.60991E+007    1.32852E+007    1.32852E+007   -1.28430E+006   -3.99847E+006    1.72836E+007   -2.66747E+006    1.55718E+007   -3.94585E+006    1.29964E+007   -1.04813E+006   -8.83528E+005   -2.32033E+005    1.85607E+006
            3184    1.47298E+007    1.19521E+007    1.19521E+007   -1.30864E+006   -3.90235E+006    1.58544E+007   -2.24703E+006    1.42024E+007   -3.84615E+006    1.16431E+007   -1.05588E+006   -8.74261E+005   -2.38871E+005    1.82764E+006
            3185    1.36151E+007    1.09204E+007    1.09204E+007   -1.27299E+006   -3.77050E+006    1.46909E+007   -1.95897E+006    1.30847E+007   -3.71566E+006    1.06286E+007   -1.03601E+006   -8.44572E+005   -2.15307E+005    1.69223E+006
            3186    1.26389E+007    1.01033E+007    1.01033E+007   -1.06335E+006   -3.61765E+006    1.37209E+007   -1.80743E+006    1.20374E+007   -3.56535E+006    9.87572E+006   -8.88071E+005   -7.81895E+005   -2.15800E+005    1.40509E+006
            3187    1.35844E+007    1.11383E+007    1.11383E+007   -1.37663E+006   -3.30869E+006    1.44470E+007   -2.15100E+006    1.32700E+007   -3.25630E+006    1.09047E+007   -1.19544E+006    8.61750E+005    1.07243E+005    1.49176E+006
            3188    1.22442E+007    1.02393E+007    1.02393E+007   -7.17886E+005   -2.97717E+006    1.32165E+007   -2.18141E+006    1.17614E+007   -2.92423E+006    9.91489E+006   -4.46421E+005    8.21487E+005    7.18025E+004    1.70388E+006
            3189    1.10857E+007    9.42059E+006    9.42059E+006   -3.16672E+005   -2.64397E+006    1.20646E+007   -2.15331E+006    1.05147E+007   -2.59688E+006    9.19367E+006   -1.36852E+005    7.21177E+005   -5.61839E+003    1.32514E+006
            3190    1.02761E+007    9.06240E+006    9.06240E+006    2.13652E+005   -2.20837E+006    1.12708E+007   -2.35589E+006    9.60189E+006   -2.16920E+006    8.93971E+006    2.97176E+005    5.97207E+005   -8.41121E+004    8.97264E+005
            3191    1.08719E+007    9.66860E+006    9.66860E+006   -2.04944E+005   -1.98255E+006    1.16512E+007   -2.49370E+006    1.05375E+007   -1.92714E+006    9.54371E+006   -1.35467E+005    5.84708E+005   -1.63684E+005    9.75273E+005
            3192    1.14698E+007    1.03067E+007    1.03067E+007   -4.77369E+005   -1.74372E+006    1.20504E+007   -2.69520E+006    1.13109E+007   -1.67488E+006    1.01971E+007   -4.36658E+005    5.69864E+005   -1.81141E+005    9.49637E+005
            3193    1.20929E+007    1.08921E+007    1.08921E+007   -7.98875E+005   -1.56626E+006    1.24584E+007   -2.84232E+006    1.20380E+007   -1.46167E+006    1.07985E+007   -8.09843E+005    5.64044E+005   -1.92370E+005    8.99816E+005
            3194    1.27348E+007    1.14971E+007    1.14971E+007   -1.04864E+006   -1.41876E+006    1.29158E+007   -3.00989E+006    1.27227E+007   -1.25091E+006    1.14234E+007   -1.14281E+006    5.44707E+005   -1.46573E+005    8.04471E+005
            3195    1.33084E+007    1.20126E+007    1.20126E+007   -1.07770E+006   -1.50381E+006    1.35164E+007   -3.14369E+006    1.32931E+007   -1.10986E+006    1.19623E+007   -1.42140E+006    5.37504E+005   -1.16807E+005    6.20584E+005
            3196    1.37405E+007    1.23952E+007    1.23952E+007   -1.00419E+006   -1.66276E+006    1.40579E+007   -3.24274E+006    1.37049E+007   -9.94340E+005    1.23627E+007   -1.64019E+006    5.26285E+005   -6.78787E+004    4.08541E+005
            3197    1.39598E+007    1.25906E+007    1.25906E+007   -9.61497E+005   -1.74392E+006    1.43345E+007   -3.29507E+006    1.39103E+007   -9.42569E+005    1.25695E+007   -1.74178E+006    5.19311E+005   -2.30542E+004    1.28734E+005
            3198    1.16887E+007    1.01119E+007    1.01119E+007   -5.31924E+005   -2.39732E+006    1.25093E+007   -2.39424E+006    1.13466E+007   -2.33485E+006    9.91014E+006   -3.92585E+005    7.71843E+005   -8.21912E+004    1.27671E+006
            3199    1.21933E+007    1.06259E+007    1.06259E+007   -7.43968E+005   -2.25089E+006    1.28768E+007   -2.54367E+006    1.19812E+007   -2.17312E+006    1.04443E+007   -6.40152E+005    8.21689E+005   -1.13270E+005    1.21197E+006
            3200    1.28656E+007    1.12612E+007    1.12612E+007   -1.03588E+006   -2.10617E+006    1.33673E+007   -2.70637E+006    1.27649E+007   -2.00080E+006    1.10806E+007   -9.60719E+005    8.81316E+005   -1.36658E+005    1.22995E+006
            3201    1.35712E+007    1.19321E+007    1.19321E+007   -1.32009E+006   -1.93701E+006    1.38691E+007   -2.89167E+006    1.35396E+007   -1.81884E+006    1.17794E+007   -1.28553E+006    9.18411E+005   -1.04467E+005    1.10605E+006
            3202    1.42019E+007    1.24999E+007    1.24999E+007   -1.53966E+006   -1.85910E+006    1.43590E+007   -3.03371E+006    1.41939E+007   -1.70627E+006    1.23791E+007   -1.57170E+006    9.57706E+005   -8.27462E+004    8.95016E+005
            3203    1.46647E+007    1.29294E+007    1.29294E+007   -1.62604E+006   -1.84218E+006    1.47716E+007   -3.15373E+006    1.46611E+007   -1.60317E+006    1.28415E+007   -1.77712E+006    9.83052E+005   -4.88291E+004    5.64779E+005
            3204    1.49003E+007    1.31440E+007    1.31440E+007   -1.62188E+006   -1.88708E+006    1.50311E+007   -3.21169E+006    1.48950E+007   -1.55740E+006    1.30738E+007   -1.88138E+006    9.96273E+005   -1.47212E+004    2.01098E+005
            3205    1.23465E+007    1.03783E+007    1.03783E+007   -9.19825E+005   -2.80078E+006    1.31791E+007   -2.21924E+006    1.20178E+007   -2.74594E+006    1.01591E+007   -7.55466E+005    8.18476E+005    9.06328E+003    1.36770E+006
            3206    1.27657E+007    1.08612E+007    1.08612E+007   -9.61141E+005   -2.67488E+006    1.35360E+007   -2.40838E+006    1.25030E+007   -2.62035E+006    1.06085E+007   -7.62996E+005    8.22631E+005    1.60712E+004    1.53318E+006
            3207    1.37097E+007    1.17255E+007    1.17255E+007   -1.26876E+006   -2.60216E+006    1.43277E+007   -2.61820E+006    1.35627E+007   -2.53413E+006    1.14825E+007   -1.09381E+006    9.02673E+005   -1.77572E+004    1.54462E+006
            3208    1.45806E+007    1.25412E+007    1.25412E+007   -1.53048E+006   -2.49997E+006    1.50411E+007   -2.83690E+006    1.45078E+007   -2.42709E+006    1.23321E+007   -1.39427E+006    9.63371E+005   -6.83956E+003    1.43210E+006
            3209    1.53791E+007    1.33084E+007    1.33084E+007   -1.69139E+006   -2.42392E+006    1.57323E+007   -3.06436E+006    1.53398E+007   -2.34737E+006    1.31539E+007   -1.61344E+006    1.02761E+006   -4.59237E+003    1.14003E+006
            3210    1.59602E+007    1.38634E+007    1.38634E+007   -1.82481E+006   -2.35541E+006    1.62189E+007   -3.22774E+006    1.59403E+007   -2.27866E+006    1.37563E+007   -1.79438E+006    1.07107E+006   -3.99456E+003    7.52193E+005
            3211    1.62568E+007    1.41538E+007    1.41538E+007   -1.87817E+006   -2.31888E+006    1.64727E+007   -3.31893E+006    1.62434E+007   -2.24513E+006    1.40768E+007   -1.87486E+006    1.09621E+006    2.18278E+003    2.46505E+005
            3212    1.25487E+007    1.02126E+007    1.02126E+007   -9.89158E+005   -3.34820E+006    1.35608E+007   -1.95842E+006    1.20346E+007   -3.27016E+006    9.91143E+006   -7.65997E+005    1.00130E+006    4.26432E+004    1.57493E+006
            3213    1.35234E+007    1.10369E+007    1.10369E+007   -1.44305E+006   -3.33134E+006    1.43683E+007   -2.08751E+006    1.32219E+007   -3.25696E+006    1.07149E+007   -1.19538E+006    1.00708E+006    6.06852E+004    1.74831E+006
            3214    1.43777E+007    1.18389E+007    1.18389E+007   -1.56046E+006   -3.34964E+006    1.51885E+007   -2.30960E+006    1.41240E+007   -3.27226E+006    1.15247E+007   -1.32368E+006    1.06268E+006    7.50358E+004    1.76993E+006
            3215    1.55039E+007    1.29736E+007    1.29736E+007   -1.61838E+006   -3.30428E+006    1.62779E+007   -2.68365E+006    1.52956E+007   -3.22444E+006    1.27009E+007   -1.42548E+006    1.12504E+006    8.12211E+004    1.66827E+006
            3216    1.64985E+007    1.39583E+007    1.39583E+007   -1.66996E+006   -3.29081E+006    1.72491E+007   -2.99918E+006    1.63180E+007   -3.20775E+006    1.37473E+007   -1.54202E+006    1.18809E+006    7.92183E+004    1.40729E+006
            3217    1.72904E+007    1.47489E+007    1.47489E+007   -1.71147E+006   -3.26644E+006    1.80154E+007   -3.25701E+006    1.71321E+007   -3.18113E+006    1.46088E+007   -1.65664E+006    1.23409E+006    5.23352E+004    9.48056E+005
            3218    1.77255E+007    1.51723E+007    1.51723E+007   -1.74652E+006   -3.26250E+006    1.84348E+007   -3.38776E+006    1.75788E+007   -3.17607E+006    1.50788E+007   -1.73947E+006    1.25908E+006    2.25956E+004    3.44654E+005
            3219    1.93273E+007    1.68061E+007    1.68061E+007   -8.73638E+005   -3.82836E+006    2.06345E+007   -4.03472E+006    1.88091E+007   -3.79479E+006    1.67615E+007   -8.62526E+005    8.28054E+005    4.60588E+004    4.46887E+005
            3220    1.86139E+007    1.59983E+007    1.59983E+007   -9.91354E+005   -3.89796E+006    1.98962E+007   -3.70299E+006    1.80928E+007   -3.86024E+006    1.58798E+007   -9.10585E+005    8.41602E+005    1.24570E+005    1.17803E+006
            3221    1.74853E+007    1.47600E+007    1.47600E+007   -1.15048E+006   -3.95994E+006    1.87200E+007   -3.21653E+006    1.69664E+007   -3.91505E+006    1.45538E+007   -9.89117E+005    8.62411E+005    1.90533E+005    1.61005E+006
            3222    1.61174E+007    1.32939E+007    1.32939E+007   -1.32664E+006   -3.98892E+006    1.72828E+007   -2.65945E+006    1.56112E+007   -3.93752E+006    1.30257E+007   -1.10984E+006    8.75075E+005    2.22917E+005    1.78374E+006
            3223    1.48313E+007    1.19756E+007    1.19756E+007   -1.44199E+006   -3.94976E+006    1.59253E+007   -2.19461E+006    1.43426E+007   -3.89435E+006    1.16986E+007   -1.22043E+006    8.66727E+005    2.32812E+005    1.72782E+006
            3224    1.36006E+007    1.06857E+007    1.06857E+007   -1.58953E+006   -3.93513E+006    1.46208E+007   -1.72034E+006    1.31339E+007   -3.88056E+006    1.04563E+007   -1.41471E+006    8.27500E+005    2.13408E+005    1.47325E+006
            3225    1.34877E+007    1.05127E+007    1.05127E+007   -1.94540E+006   -3.81045E+006    1.43232E+007   -1.58563E+006    1.31929E+007   -3.75888E+006    1.03605E+007   -1.84475E+006    8.05744E+005    1.68568E+005    1.13879E+006
            3226    1.81359E+007    1.55257E+007    1.55257E+007   -1.61051E+006   -3.46709E+006    1.89927E+007   -3.48269E+006    1.79202E+007   -3.38847E+006    1.54383E+007   -1.60177E+006   -1.21891E+006    3.15199E+004   -3.86291E+005
            3227    1.69593E+007    1.46821E+007    1.46821E+007   -1.79697E+006   -2.71980E+006    1.74019E+007   -3.38844E+006    1.69027E+007   -2.64306E+006    1.45997E+007   -1.79132E+006   -1.15270E+006    1.52375E+004   -3.05637E+005
            3228    1.57513E+007    1.37417E+007    1.37417E+007   -1.88614E+006   -2.13014E+006    1.58719E+007   -3.24182E+006    1.57471E+007   -2.03966E+006    1.36505E+007   -1.88541E+006   -1.17242E+006   -9.59329E+003   -2.54031E+005
            3229    1.46522E+007    1.30429E+007    1.30429E+007   -1.38984E+006   -1.81919E+006    1.48621E+007   -3.27796E+006    1.46380E+007   -1.34788E+006    1.29963E+007   -1.81456E+006   -7.93714E+005   -1.66188E+004   -2.05371E+005
            3230    1.40945E+007    1.26641E+007    1.26641E+007   -1.09063E+006   -1.74719E+006    1.44113E+007   -3.27544E+006    1.40601E+007   -1.06275E+006    1.26331E+007   -1.74408E+006   -6.36728E+005   -2.62299E+004   -1.46003E+005
            3231    1.34332E+007    1.22356E+007    1.22356E+007   -6.70103E+005   -1.66920E+006    1.39048E+007   -3.29877E+006    1.33492E+007   -6.61649E+005    1.22255E+007   -1.66752E+006   -3.49226E+005   -2.89992E+004   -9.78187E+004
            3232    1.33823E+007    1.22178E+007    1.22178E+007   -6.55723E+005   -1.62095E+006    1.38388E+007   -3.31371E+006    1.33036E+007   -6.55694E+005    1.22168E+007   -1.61993E+006   -1.12394E+005   -3.00333E+004   -3.03512E+004
            3233    1.31790E+007    1.20794E+007    1.20794E+007   -5.13899E+005   -1.61597E+006    1.36954E+007   -3.31652E+006    1.30747E+007   -5.14651E+005    1.20793E+007   -1.61508E+006    3.92571E+004   -3.09819E+004    1.41465E+004
            3234    1.35399E+007    1.22958E+007    1.22958E+007   -7.72463E+005   -1.67084E+006    1.39667E+007   -3.28418E+006    1.34726E+007   -7.61744E+005    1.22836E+007   -1.66936E+006    3.90680E+005   -2.69753E+004    8.51789E+004
            3235    1.75726E+007    1.49684E+007    1.49684E+007   -1.59475E+006   -3.46413E+006    1.84325E+007   -3.30317E+006    1.73467E+007   -3.38556E+006    1.48223E+007   -1.52728E+006   -1.19861E+006    6.59549E+004   -1.05298E+006
            3236    1.65023E+007    1.42485E+007    1.42485E+007   -1.74912E+006   -2.71596E+006    1.69644E+007   -3.26113E+006    1.64384E+007   -2.63964E+006    1.41276E+007   -1.70453E+006   -1.12302E+006    1.98230E+004   -8.57440E+005
            3237    1.53666E+007    1.33971E+007    1.33971E+007   -1.78350E+006   -2.14895E+006    1.55460E+007   -3.15487E+006    1.53568E+007   -2.04354E+006    1.32804E+007   -1.77224E+006   -1.13481E+006   -3.44306E+004   -7.13025E+005
            3238    1.43338E+007    1.27632E+007    1.27632E+007   -1.39490E+006   -1.73997E+006    1.45032E+007   -3.20945E+006    1.43244E+007   -1.37292E+006    1.26986E+007   -1.69738E+006   -7.73815E+005   -5.04350E+004   -5.69495E+005
            3239    1.37853E+007    1.24059E+007    1.24059E+007   -1.09359E+006   -1.64842E+006    1.40543E+007   -3.22130E+006    1.37601E+007   -1.08245E+006    1.23663E+007   -1.61995E+006   -6.13500E+005   -7.65689E+004   -4.08601E+005
            3240    1.31685E+007    1.20172E+007    1.20172E+007   -6.99865E+005   -1.56061E+006    1.35778E+007   -3.25223E+006    1.31050E+007   -7.00083E+005    1.20036E+007   -1.54679E+006   -3.35785E+005   -8.12687E+004   -2.55669E+005
            3241    1.31175E+007    1.20044E+007    1.20044E+007   -6.75389E+005   -1.51104E+006    1.35154E+007   -3.27264E+006    1.30575E+007   -6.83571E+005    1.20029E+007   -1.50140E+006   -1.02842E+005   -8.55814E+004   -9.24496E+004
            3242    1.29531E+007    1.18926E+007    1.18926E+007   -5.53437E+005   -1.51409E+006    1.34067E+007   -3.27502E+006    1.28726E+007   -5.60902E+005    1.18919E+007   -1.50597E+006    5.56330E+004   -8.54062E+004    7.39522E+004
            3243    1.33145E+007    1.21091E+007    1.21091E+007   -8.04971E+005   -1.57269E+006    1.36818E+007   -3.24381E+006    1.32646E+007   -8.02809E+005    1.20934E+007   -1.55911E+006    3.95338E+005   -7.99666E+004    2.25353E+005
            3244    1.66068E+007    1.40161E+007    1.40161E+007   -1.56334E+006   -3.45591E+006    1.74721E+007   -2.99897E+006    1.63616E+007   -3.37771E+006    1.37885E+007   -1.41387E+006   -1.16122E+006    1.04422E+005   -1.51506E+006
            3245    1.56939E+007    1.34894E+007    1.34894E+007   -1.62678E+006   -2.72448E+006    1.62139E+007   -3.04606E+006    1.56072E+007   -2.65111E+006    1.33115E+007   -1.52224E+006   -1.06817E+006    3.49466E+004   -1.26630E+006
            3246    1.47081E+007    1.28034E+007    1.28034E+007   -1.59965E+006   -2.19175E+006    1.49952E+007   -3.00401E+006    1.46812E+007   -2.08096E+006    1.26489E+007   -1.55595E+006   -1.07092E+006   -6.06136E+004   -1.05887E+006
            3247    1.37435E+007    1.22400E+007    1.22400E+007   -1.36347E+006   -1.63933E+006    1.38793E+007   -3.07907E+006    1.37373E+007   -1.44789E+006    1.21479E+007   -1.46280E+006   -7.41167E+005   -9.16176E+004   -8.48881E+005
            3248    1.32394E+007    1.19453E+007    1.19453E+007   -1.09222E+006   -1.48720E+006    1.34325E+007   -3.12195E+006    1.32261E+007   -1.14990E+006    1.18932E+007   -1.37741E+006   -5.78276E+005   -1.34842E+005   -6.00869E+005
            3249    1.26813E+007    1.16069E+007    1.16069E+007   -7.63513E+005   -1.36384E+006    1.29708E+007   -3.15986E+006    1.26492E+007   -7.99140E+005    1.15883E+007   -1.30959E+006   -3.16307E+005   -1.46561E+005   -3.72986E+005
            3250    1.26427E+007    1.16135E+007    1.16135E+007   -7.19557E+005   -1.31776E+006    1.29312E+007   -3.19205E+006    1.26108E+007   -7.62549E+005    1.16118E+007   -1.27315E+006   -8.73216E+004   -1.54715E+005   -1.14872E+005
            3251    1.25198E+007    1.15278E+007    1.15278E+007   -6.36351E+005   -1.31969E+006    1.28475E+007   -3.19057E+006    1.24777E+007   -6.72093E+005    1.15261E+007   -1.28226E+006    8.15141E+004   -1.52426E+005    1.21855E+005
            3252    1.28972E+007    1.17522E+007    1.17522E+007   -8.68031E+005   -1.40510E+006    1.31573E+007   -3.15969E+006    1.28720E+007   -9.04515E+005    1.17290E+007   -1.34537E+006    4.00292E+005   -1.43079E+005    3.76859E+005
            3253    1.54325E+007    1.28741E+007    1.28741E+007   -1.51370E+006   -3.42514E+006    1.62992E+007   -2.64508E+006    1.51628E+007   -3.34910E+006    1.25846E+007   -1.30027E+006   -1.10206E+006    1.01486E+005   -1.73713E+006
            3254    1.46969E+007    1.25601E+007    1.25601E+007   -1.47612E+006   -2.71859E+006    1.52787E+007   -2.78848E+006    1.45781E+007   -2.64943E+006    1.23310E+007   -1.31610E+006   -9.89357E+005    2.74606E+004   -1.51056E+006
            3255    1.38439E+007    1.20348E+007    1.20348E+007   -1.35680E+006   -2.22095E+006    1.42558E+007   -2.81902E+006    1.37831E+007   -2.11703E+006    1.18463E+007   -1.27219E+006   -9.84595E+005   -8.20379E+004   -1.26952E+006
            3256    1.29924E+007    1.15828E+007    1.15828E+007   -1.16397E+006   -1.64200E+006    1.32248E+007   -2.92560E+006    1.29726E+007   -1.52815E+006    1.14668E+007   -1.16186E+006   -6.95396E+005   -1.22353E+005   -1.01036E+006
            3257    1.25170E+007    1.13397E+007    1.13397E+007   -9.52260E+005   -1.39081E+006    1.27305E+007   -2.99888E+006    1.24997E+007   -1.22610E+006    1.12772E+007   -1.05444E+006   -5.29694E+005   -1.75672E+005   -7.13187E+005
            3258    1.20429E+007    1.10754E+007    1.10754E+007   -7.55279E+005   -1.16898E+006    1.22444E+007   -3.05039E+006    1.20269E+007   -9.14826E+005    1.10541E+007   -9.88067E+005   -2.89101E+005   -1.92892E+005   -4.21309E+005
            3259    1.20010E+007    1.10860E+007    1.10860E+007   -6.97407E+005   -1.12127E+006    1.22073E+007   -3.08911E+006    1.19841E+007   -8.60693E+005    1.10846E+007   -9.56547E+005   -6.71850E+004   -2.05732E+005   -1.13995E+005
            3260    1.19513E+007    1.10499E+007    1.10499E+007   -6.76466E+005   -1.11434E+006    1.21643E+007   -3.08637E+006    1.19333E+007   -8.06099E+005    1.10460E+007   -9.80758E+005    1.10613E+005   -1.98621E+005    1.89104E+005
            3261    1.23145E+007    1.12594E+007    1.12594E+007   -8.47696E+005   -1.25252E+006    1.25120E+007   -3.05307E+006    1.22996E+007   -1.02527E+006    1.12279E+007   -1.04339E+006    4.01574E+005   -1.86545E+005    4.82293E+005
            3262    1.42932E+007    1.17906E+007    1.17906E+007   -1.40755E+006   -3.39045E+006    1.51811E+007   -2.33088E+006    1.39787E+007   -3.31699E+006    1.14705E+007   -1.16089E+006   -1.04253E+006    9.99018E+004   -1.78590E+006
            3263    1.36390E+007    1.15781E+007    1.15781E+007   -1.23827E+006   -2.75643E+006    1.43346E+007   -2.52781E+006    1.34469E+007   -2.69250E+006    1.13222E+007   -1.04631E+006   -9.13626E+005    1.80493E+004   -1.57746E+006
            3264    1.29681E+007    1.12400E+007    1.12400E+007   -1.06225E+006   -2.30464E+006    1.35446E+007   -2.62437E+006    1.28332E+007   -2.20875E+006    1.10350E+007   -9.53108E+005   -9.03941E+005   -1.15005E+005   -1.33401E+006
            3265    1.21832E+007    1.08535E+007    1.08535E+007   -8.39724E+005   -1.76674E+006    1.26202E+007   -2.74901E+006    1.21035E+007   -1.67277E+006    1.07227E+007   -8.02846E+005   -6.58574E+005   -1.71044E+005   -1.06793E+006
            3266    1.17539E+007    1.06755E+007    1.06755E+007   -6.36294E+005   -1.47564E+006    1.21511E+007   -2.85451E+006    1.16862E+007   -1.36354E+006    1.06090E+007   -6.81896E+005   -4.88733E+005   -2.33120E+005   -7.37259E+005
            3267    1.13498E+007    1.04676E+007    1.04676E+007   -5.10972E+005   -1.22009E+006    1.16877E+007   -2.91219E+006    1.12998E+007   -1.09268E+006    1.04458E+007   -6.16525E+005   -2.65177E+005   -2.57556E+005   -4.23975E+005
            3268    1.13032E+007    1.04861E+007    1.04861E+007   -4.51314E+005   -1.15047E+006    1.16366E+007   -2.96144E+006    1.12544E+007   -1.01929E+006    1.04852E+007   -5.81633E+005   -4.60454E+004   -2.72468E+005   -8.72576E+004
            3269    1.13063E+007    1.04734E+007    1.04734E+007   -4.90854E+005   -1.14646E+006    1.16199E+007   -2.94537E+006    1.12635E+007   -1.00773E+006    1.04663E+007   -6.22423E+005    1.43940E+005   -2.63483E+005    2.47086E+005
            3270    1.16890E+007    1.06954E+007    1.06954E+007   -6.12073E+005   -1.34104E+006    1.20364E+007   -2.91409E+006    1.16377E+007   -1.21326E+006    1.06535E+007   -6.97961E+005    4.09283E+005   -2.45253E+005    5.71289E+005
            3271    1.32380E+007    1.08176E+007    1.08176E+007   -1.25327E+006   -3.33973E+006    1.41573E+007   -2.07486E+006    1.28602E+007   -3.27103E+006    1.05076E+007   -1.01202E+006   -9.71318E+005    8.40489E+004   -1.68953E+006
            3272    1.27356E+007    1.07458E+007    1.07458E+007   -1.05109E+006   -2.75675E+006    1.35025E+007   -2.31265E+006    1.24748E+007   -2.70352E+006    1.04878E+007   -8.46337E+005   -8.23143E+005    3.65098E+004   -1.54904E+006
            3273    1.21087E+007    1.04771E+007    1.04771E+007   -7.35820E+005   -2.36290E+006    1.28400E+007   -2.45946E+006    1.18590E+007   -2.29258E+006    1.02735E+007   -6.02535E+005   -8.09286E+005   -8.98106E+004   -1.30473E+006
            3274    1.14338E+007    1.01845E+007    1.01845E+007   -4.86560E+005   -1.88366E+006    1.20682E+007   -2.60477E+006    1.12394E+007   -1.81749E+006    1.00574E+007   -4.25548E+005   -6.17010E+005   -1.64456E+005   -1.01477E+006
            3275    1.10156E+007    1.00370E+007    1.00370E+007   -2.66933E+005   -1.57366E+006    1.16106E+007   -2.73213E+006    1.08391E+007   -1.50281E+006    9.97207E+006   -2.72883E+005   -4.46827E+005   -2.32046E+005   -7.09400E+005
            3276    1.06570E+007    9.86946E+006    9.86946E+006   -1.29356E+005   -1.34194E+006    1.12114E+007   -2.79939E+006    1.05001E+007   -1.27063E+006    9.85009E+006   -1.81301E+005   -2.39566E+005   -2.67374E+005   -3.83625E+005
            3277    1.06030E+007    9.88078E+006    9.88078E+006   -8.18960E+004   -1.26349E+006    1.11443E+007   -2.84513E+006    1.04533E+007   -1.18919E+006    9.88043E+006   -1.55839E+005   -2.76968E+004   -2.86565E+005   -5.38006E+004
            3278    1.06391E+007    9.88905E+006    9.88905E+006   -1.18399E+005   -1.28553E+006    1.11746E+007   -2.82837E+006    1.04937E+007   -1.21268E+006    9.87882E+006   -1.81023E+005    1.69959E+005   -2.73407E+005    2.81230E+005
            3279    1.10075E+007    1.00783E+007    1.00783E+007   -2.67065E+005   -1.48929E+006    1.15676E+007   -2.77399E+006    1.08533E+007   -1.41356E+006    1.00280E+007   -2.92439E+005    4.05599E+005   -2.45555E+005    6.19899E+005
            3280    1.26592E+007    1.02347E+007    1.02347E+007   -1.16621E+006   -3.38847E+006    1.36232E+007   -1.89335E+006    1.22087E+007   -3.31858E+006    9.95749E+006   -9.58874E+005   -9.52262E+005    4.29448E+004   -1.53135E+006
            3281    1.19934E+007    9.99786E+006    9.99786E+006   -8.52917E+005   -2.87993E+006    1.28778E+007   -2.08834E+006    1.15986E+007   -2.82291E+006    9.74872E+006   -6.60805E+005   -8.20673E+005    7.00749E+003   -1.44713E+006
            3282    1.14875E+007    9.86883E+006    9.86883E+006   -5.34526E+005   -2.45952E+006    1.23284E+007   -2.29159E+006    1.11159E+007   -2.40074E+006    9.68130E+006   -4.05775E+005   -7.51570E+005   -7.89741E+004   -1.21054E+006
            3283    1.08357E+007    9.59673E+006    9.59673E+006   -1.91467E+005   -2.04685E+006    1.16436E+007   -2.45280E+006    1.04693E+007   -1.99261E+006    9.46936E+006   -1.18333E+005   -6.01040E+005   -1.54591E+005   -9.74651E+005
            3284    1.03532E+007    9.41637E+006    9.41637E+006    8.38292E+004   -1.72040E+006    1.11368E+007   -2.59327E+006    9.99033E+006   -1.66983E+006    9.35701E+006    9.26234E+004   -4.26431E+005   -2.21600E+005   -6.41283E+005
            3285    1.00683E+007    9.31561E+006    9.31561E+006    2.24755E+005   -1.50573E+006    1.08213E+007   -2.67821E+006    9.72520E+006   -1.45927E+006    9.29978E+006    1.94127E+005   -2.24853E+005   -2.59000E+005   -3.24101E+005
            3286    9.99252E+006    9.31863E+006    9.31863E+006    2.88364E+005   -1.41673E+006    1.07354E+007   -2.73009E+006    9.65706E+006   -1.37082E+006    9.31859E+006    2.42495E+005   -1.17513E+004   -2.75938E+005   -1.59615E+004
            3287    1.00648E+007    9.32859E+006    9.32859E+006    2.23858E+005   -1.47903E+006    1.08076E+007   -2.69114E+006    9.73275E+006   -1.43202E+006    9.31637E+006    1.89070E+005    1.96532E+005   -2.63332E+005    2.85480E+005
            3288    1.03584E+007    9.45819E+006    9.45819E+006    1.02054E+005   -1.67311E+006    1.11313E+007   -2.62905E+006    1.00076E+007   -1.62155E+006    9.40380E+006    1.04898E+005    4.09214E+005   -2.29371E+005    6.14478E+005
            3289    9.81522E+006    8.92859E+006    8.92859E+006    4.81521E+005   -1.83894E+006    1.07675E+007   -2.52372E+006    9.16709E+006   -1.81119E+006    8.88207E+006    5.00280E+005    4.20441E+005   -1.41568E+005    5.08800E+005
            3290    9.59614E+006    8.90775E+006    8.90775E+006    6.11028E+005   -1.60137E+006    1.05091E+007   -2.63914E+006    8.99507E+006   -1.58211E+006    8.89790E+006    6.01622E+005    2.18829E+005   -1.75304E+005    2.13111E+005
            3291    9.55269E+006    8.91524E+006    8.91524E+006    6.05603E+005   -1.52181E+006    1.04370E+007   -2.66634E+006    8.99624E+006   -1.50545E+006    8.91524E+006    5.89246E+005   -1.45175E+003   -1.85828E+005   -2.85447E+003
            3292    9.60407E+006    8.90980E+006    8.90980E+006    6.02610E+005   -1.60628E+006    1.05161E+007   -2.63538E+006    9.00555E+006   -1.58716E+006    8.89998E+006    5.93318E+005   -2.20579E+005   -1.73876E+005   -2.11307E+005
            3293    9.82315E+006    8.92902E+006    8.92902E+006    4.72926E+005   -1.84617E+006    1.07752E+007   -2.51859E+006    9.17639E+006   -1.81832E+006    8.88187E+006    4.92225E+005   -4.23602E+005   -1.40211E+005   -5.12353E+005
            3294    1.02775E+007    9.04486E+006    9.04486E+006    1.68777E+005   -2.21507E+006    1.12599E+007   -2.33285E+006    9.62552E+006   -2.17711E+006    8.93150E+006    2.44168E+005   -5.88882E+005   -8.28308E+004   -8.56155E+005
            3295    1.10358E+007    9.40032E+006    9.40032E+006   -2.86566E+005   -2.61340E+006    1.20137E+007   -2.16678E+006    1.04624E+007   -2.56676E+006    9.19852E+006   -1.31404E+005   -7.14378E+005   -1.54379E+004   -1.23263E+006
            3296    1.19201E+007    9.83673E+006    9.83673E+006   -8.27388E+005   -3.03169E+006    1.28684E+007   -1.99255E+006    1.14480E+007   -2.98171E+006    9.62177E+006   -6.62414E+005   -7.91729E+005    5.09360E+004   -1.31724E+006
            3297    1.21651E+007    9.76404E+006    9.76404E+006   -1.06338E+006   -3.39975E+006    1.31638E+007   -1.76697E+006    1.16441E+007   -3.35095E+006    9.58719E+006   -9.35333E+005   -7.78071E+005    1.42184E+005   -1.17399E+006
            3298    1.94944E+007    1.69599E+007    1.69599E+007   -8.16621E+005   -3.88793E+006    2.08478E+007   -4.08510E+006    1.89386E+007   -3.85564E+006    1.69162E+007   -8.05294E+005   -8.16083E+005    4.70340E+004   -4.52580E+005
            3299    1.87252E+007    1.60845E+007    1.60845E+007   -9.60816E+005   -3.95880E+006    2.00433E+007   -3.72163E+006    1.81734E+007   -3.92137E+006    1.59607E+007   -8.74490E+005   -8.36800E+005    1.34101E+005   -1.22122E+006
            3300    1.74637E+007    1.47064E+007    1.47064E+007   -1.14452E+006   -4.01454E+006    1.87209E+007   -3.18245E+006    1.69209E+007   -3.96895E+006    1.44848E+007   -9.68554E+005   -8.64985E+005    2.00446E+005   -1.67727E+006
            3301    1.60605E+007    1.32511E+007    1.32511E+007   -1.27668E+006   -3.99504E+006    1.72462E+007   -2.65980E+006    1.55302E+007   -3.94233E+006    1.29610E+007   -1.03924E+006   -8.82505E+005    2.33319E+005   -1.85840E+006
            3302    1.46766E+007    1.19010E+007    1.19010E+007   -1.30759E+006   -3.89852E+006    1.57995E+007   -2.23164E+006    1.41483E+007   -3.84217E+006    1.15914E+007   -1.05432E+006   -8.73568E+005    2.39445E+005   -1.82582E+006
            3303    1.35627E+007    1.08683E+007    1.08683E+007   -1.27397E+006   -3.76847E+006    1.46367E+007   -1.94195E+006    1.30315E+007   -3.71376E+006    1.05790E+007   -1.03944E+006   -8.42668E+005    2.13576E+005   -1.67985E+006
            3304    1.26254E+007    1.00930E+007    1.00930E+007   -1.05949E+006   -3.61453E+006    1.37075E+007   -1.80631E+006    1.20229E+007   -3.56218E+006    9.86676E+006   -8.85638E+005   -7.79535E+005    2.18005E+005   -1.39969E+006
            3305    1.78164E+007    1.52293E+007    1.52293E+007   -1.70190E+006   -3.35693E+006    1.85862E+007   -3.39014E+006    1.76422E+007   -3.22518E+006    1.50911E+007   -1.69553E+006    1.55875E+006   -1.91221E+004   -3.28999E+005
            3306    1.58719E+007    1.38081E+007    1.38081E+007   -1.90683E+006   -2.21614E+006    1.60242E+007   -3.22838E+006    1.58651E+007   -2.06354E+006    1.36555E+007   -1.90683E+006    1.53596E+006    1.05051E+004   -2.50713E+005
            3307    1.46285E+007    1.31510E+007    1.31510E+007   -1.14003E+006   -1.79315E+006    1.49441E+007   -3.40594E+006    1.45957E+007   -1.08269E+006    1.30889E+007   -1.78841E+006    9.18156E+005    2.18263E+004   -2.07875E+005
            3308    1.39185E+007    1.26655E+007    1.26655E+007   -7.52357E+005   -1.70474E+006    1.43702E+007   -3.40281E+006    1.38449E+007   -7.15417E+005    1.26259E+007   -1.70209E+006    7.16525E+005    2.97996E+004   -1.33697E+005
            3309    1.73610E+007    1.47950E+007    1.47950E+007   -1.65707E+006   -3.35074E+006    1.81458E+007   -3.26240E+006    1.71736E+007   -3.22254E+006    1.46166E+007   -1.60682E+006    1.51739E+006   -6.69909E+004   -9.05868E+005
            3310    1.55963E+007    1.35331E+007    1.35331E+007   -1.84009E+006   -2.27722E+006    1.58103E+007   -3.13859E+006    1.55825E+007   -2.11422E+006    1.33525E+007   -1.82252E+006    1.50644E+006    1.51065E+004   -7.40207E+005
            3311    1.43889E+007    1.29241E+007    1.29241E+007   -1.19298E+006   -1.72197E+006    1.46461E+007   -3.33640E+006    1.43670E+007   -1.14867E+006    1.28416E+007   -1.68373E+006    9.21019E+005    5.34078E+004   -5.73926E+005
            3312    1.36877E+007    1.24591E+007    1.24591E+007   -7.99767E+005   -1.62049E+006    1.40796E+007   -3.34629E+006    1.36322E+007   -7.73406E+005    1.24083E+007   -1.59605E+006    7.17665E+005    7.86730E+004   -4.12914E+005
            3313    1.65433E+007    1.39884E+007    1.39884E+007   -1.62278E+006   -3.35133E+006    1.73398E+007   -3.00477E+006    1.63383E+007   -3.22965E+006    1.37491E+007   -1.50515E+006    1.44049E+006   -8.93439E+004   -1.34918E+006
            3314    1.50640E+007    1.30200E+007    1.30200E+007   -1.70568E+006   -2.36090E+006    1.53809E+007   -2.98448E+006    1.50319E+007   -2.18583E+006    1.27950E+007   -1.65577E+006    1.44860E+006    4.23260E+004   -1.13388E+006
            3315    1.39210E+007    1.24724E+007    1.24724E+007   -1.24400E+006   -1.64451E+006    1.41169E+007   -3.19464E+006    1.39080E+007   -1.25795E+006    1.23527E+007   -1.51087E+006    9.17684E+005    9.63093E+004   -9.09713E+005
            3316    1.32475E+007    1.20749E+007    1.20749E+007   -8.46086E+005   -1.47656E+006    1.35514E+007   -3.25074E+006    1.32136E+007   -8.58162E+005    1.20067E+007   -1.39627E+006    7.16748E+005    1.38884E+005   -6.27219E+005
            3317    1.55293E+007    1.30029E+007    1.30029E+007   -1.55065E+006   -3.34616E+006    1.63490E+007   -2.70202E+006    1.52932E+007   -3.23429E+006    1.27160E+007   -1.37561E+006    1.33856E+006   -1.07868E+005   -1.58440E+006
            3318    1.42915E+007    1.22630E+007    1.22630E+007   -1.51525E+006   -2.49167E+006    1.47546E+007   -2.75201E+006    1.42161E+007   -2.32090E+006    1.19903E+007   -1.41341E+006    1.37158E+006    6.28741E+004   -1.40745E+006
            3319    1.32839E+007    1.18707E+007    1.18707E+007   -1.17547E+006   -1.63870E+006    1.35094E+007   -3.01886E+006    1.32657E+007   -1.43842E+006    1.17148E+007   -1.21985E+006    9.12046E+005    1.35855E+005   -1.11495E+006
            3320    1.26814E+007    1.15482E+007    1.15482E+007   -8.73457E+005   -1.37797E+006    1.29262E+007   -3.09892E+006    1.26588E+007   -1.04175E+006    1.14566E+007   -1.11807E+006    7.24743E+005    2.03020E+005   -8.06480E+005
            3321    1.43769E+007    1.18635E+007    1.18635E+007   -1.49831E+006   -3.34932E+006    1.52128E+007   -2.33862E+006    1.41051E+007   -3.24938E+006    1.15466E+007   -1.28140E+006    1.21592E+006   -1.01842E+005   -1.68856E+006
            3322    1.34643E+007    1.14938E+007    1.14938E+007   -1.26408E+006   -2.58026E+006    1.40740E+007   -2.54982E+006    1.33184E+007   -2.42264E+006    1.11960E+007   -1.12396E+006    1.28494E+006    7.98904E+004   -1.51060E+006
            3323    1.25425E+007    1.11610E+007    1.11610E+007   -9.65519E+005   -1.75968E+006    1.29207E+007   -2.81195E+006    1.24858E+007   -1.62001E+006    1.09748E+007   -9.18958E+005    8.93516E+005    1.49113E+005   -1.23305E+006
            3324    1.20172E+007    1.09418E+007    1.09418E+007   -7.08007E+005   -1.41179E+006    1.23536E+007   -2.94068E+006    1.19707E+007   -1.22235E+006    1.08345E+007   -7.90107E+005    7.14629E+005    2.34997E+005   -8.89300E+005
            3325    1.35294E+007    1.10787E+007    1.10787E+007   -1.35281E+006   -3.33080E+006    1.44095E+007   -2.13171E+006    1.31982E+007   -3.24298E+006    1.07692E+007   -1.13114E+006    1.10985E+006   -9.89795E+004   -1.64416E+006
            3326    1.26479E+007    1.06907E+007    1.06907E+007   -9.41745E+005   -2.77299E+006    1.34637E+007   -2.32533E+006    1.23444E+007   -2.63040E+006    1.03983E+007   -7.91890E+005    1.21465E+006    1.01895E+005   -1.45365E+006
            3327    1.19236E+007    1.04962E+007    1.04962E+007   -7.21828E+005   -2.02580E+006    1.25220E+007   -2.58286E+006    1.17616E+007   -1.89600E+006    1.03009E+007   -6.56327E+005    9.06246E+005    1.91807E+005   -1.21346E+006
            3328    1.14068E+007    1.03192E+007    1.03192E+007   -4.40811E+005   -1.63966E+006    1.19588E+007   -2.74624E+006    1.12637E+007   -1.49066E+006    1.01965E+007   -4.67118E+005    7.20069E+005    2.82753E+005   -9.38815E+005
            3329    1.24659E+007    1.02073E+007    1.02073E+007   -8.88602E+005   -3.28163E+006    1.34889E+007   -2.01236E+006    1.19326E+007   -3.20654E+006    9.91858E+006   -6.74965E+005    9.91800E+005   -1.51589E+005   -1.51970E+006
            3330    1.23146E+007    1.03262E+007    1.03262E+007   -8.37287E+005   -2.88336E+006    1.32095E+007   -2.20183E+006    1.19232E+007   -2.78450E+006    1.00911E+007   -7.01099E+005    1.08888E+006    1.79957E+004   -1.26432E+006
            3331    1.14725E+007    1.00015E+007    1.00015E+007   -4.45053E+005   -2.27654E+006    1.22781E+007   -2.42665E+006    1.11365E+007   -2.18416E+006    9.79111E+006   -3.27005E+005    9.00876E+005    1.22464E+005   -1.22780E+006
            3332    1.07767E+007    9.66767E+006    9.66767E+006   -1.34569E+005   -1.87236E+006    1.15400E+007   -2.55358E+006    1.04545E+007   -1.77999E+006    9.53705E+006   -9.63137E+004    7.03232E+005    2.30797E+005   -9.37874E+005
            3333    1.01807E+007    8.98708E+006    8.98708E+006    1.57307E+005   -2.14894E+006    1.11360E+007   -2.33182E+006    9.56615E+006   -2.08781E+006    8.85326E+006    2.29993E+005    7.16091E+005    1.25574E+005   -8.83471E+005
            3334    1.09730E+007    9.29906E+006    9.29906E+006   -3.67581E+005   -2.62819E+006    1.19272E+007   -2.10110E+006    1.04296E+007   -2.55363E+006    9.05835E+006   -2.01430E+005    8.91728E+005    2.38756E+004   -1.28611E+006
            3335    1.21408E+007    1.01049E+007    1.01049E+007   -7.62207E+005   -2.99865E+006    1.31036E+007   -2.11469E+006    1.16638E+007   -2.91662E+006    9.76517E+006   -5.04490E+005    1.02031E+006   -9.95347E+004   -1.65235E+006
            3336    1.34354E+007    1.09004E+007    1.09004E+007   -1.47974E+006   -3.38646E+006    1.42869E+007   -2.01140E+006    1.31258E+007   -3.29524E+006    1.06175E+007   -1.28802E+006    1.12980E+006   -1.34436E+005   -1.52303E+006
            3337    1.93775E+007    1.63667E+007    1.63667E+007   -1.00376E+006   -4.53274E+006    2.08995E+007   -3.61008E+006    1.86338E+007   -4.46097E+006    1.62850E+007   -9.93746E+005    1.21967E+006   -5.73955E+004   -4.20532E+005
            3338    1.86279E+007    1.55549E+007    1.55549E+007   -1.11611E+006   -4.55163E+006    2.01066E+007   -3.29573E+006    1.78942E+007   -4.47246E+006    1.53960E+007   -1.03632E+006    1.23511E+006   -1.68226E+005   -1.16152E+006
            3339    1.74404E+007    1.43156E+007    1.43156E+007   -1.26013E+006   -4.52731E+006    1.88429E+007   -2.84272E+006    1.67309E+007   -4.43760E+006    1.40648E+007   -1.09903E+006    1.24966E+006   -2.44091E+005   -1.59059E+006
            3340    1.60063E+007    1.28573E+007    1.28573E+007   -1.42766E+006   -4.44189E+006    1.72992E+007   -2.32923E+006    1.53482E+007   -4.34229E+006    1.25391E+007   -1.20906E+006    1.25148E+006   -2.80174E+005   -1.76682E+006
            3341    1.46364E+007    1.15134E+007    1.15134E+007   -1.56319E+006   -4.29717E+006    1.58106E+007   -1.88435E+006    1.40446E+007   -4.19394E+006    1.11850E+007   -1.33801E+006    1.22294E+006   -2.70626E+005   -1.70978E+006
            3342    1.33483E+007    1.02018E+007    1.02018E+007   -1.73538E+006   -4.21099E+006    1.44128E+007   -1.41847E+006    1.28164E+007   -4.10990E+006    9.91459E+006   -1.54928E+006    1.17120E+006   -2.22646E+005   -1.48105E+006
            3343    1.32272E+007    1.00282E+007    1.00282E+007   -2.14862E+006   -4.04485E+006    1.40730E+007   -1.27823E+006    1.29161E+007   -3.94605E+006    9.80799E+006   -2.02725E+006    1.16711E+006   -1.31493E+005   -1.20517E+006
            3344    9.74463E+006    8.87693E+006    8.87693E+006    4.22255E+005   -1.78054E+006    1.06575E+007   -2.50621E+006    9.15897E+006   -1.73388E+006    8.82308E+006    4.29431E+005    5.07340E+005    1.96852E+005   -5.09207E+005
            3345    9.52319E+006    8.87190E+006    8.87190E+006    5.68975E+005   -1.52355E+006    1.03954E+007   -2.63911E+006    8.98383E+006   -1.48821E+006    8.85962E+006    5.45920E+005    2.63623E+005    2.37565E+005   -2.21369E+005
            3346    9.48949E+006    8.88511E+006    8.88511E+006    5.61847E+005   -1.44847E+006    1.03336E+007   -2.66616E+006    8.99147E+006   -1.41740E+006    8.88511E+006    5.30772E+005    3.56927E+003    2.48003E+005    4.68976E+002
            3347    9.52366E+006    8.86695E+006    8.86695E+006    5.60255E+005   -1.52733E+006    1.03943E+007   -2.63329E+006    8.98699E+006   -1.49224E+006    8.85527E+006    5.36842E+005   -2.60353E+005    2.37240E+005    2.12811E+005
            3348    9.75146E+006    8.87813E+006    8.87813E+006    4.17040E+005   -1.78658E+006    1.06647E+007   -2.50286E+006    9.16579E+006   -1.74046E+006    8.82364E+006    4.25402E+005   -5.05409E+005    1.94988E+005    5.16333E+005
            3349    1.02012E+007    8.97547E+006    8.97547E+006    1.03164E+005   -2.17079E+006    1.11463E+007   -2.30261E+006    9.60577E+006   -2.10986E+006    8.84674E+006    1.70960E+005   -7.15665E+005    1.25362E+005    8.60426E+005
            3350    1.09869E+007    9.32175E+006    9.32175E+006   -3.63305E+005   -2.61743E+006    1.19392E+007   -2.11367E+006    1.04475E+007   -2.54445E+006    9.09865E+006   -2.13184E+005   -8.85007E+005    2.54467E+004    1.22575E+006
            3351    1.18736E+007    9.71895E+006    9.71895E+006   -9.62836E+005   -3.06560E+006    1.27846E+007   -1.89684E+006    1.14434E+007   -2.98549E+006    9.47126E+006   -7.95267E+005   -9.94615E+005   -5.48882E+004    1.33193E+006
            3352    1.21121E+007    9.49293E+006    9.49293E+006   -1.31029E+006   -3.60087E+006    1.30938E+007   -1.52726E+006    1.16097E+007   -3.51173E+006    9.26253E+006   -1.16902E+006   -1.07068E+006   -1.08344E+005    1.22256E+006
            3353    1.02193E+007    9.43572E+006    9.43572E+006    1.64389E+005   -1.52183E+006    1.09575E+007   -2.69276E+006    9.89904E+006   -1.43598E+006    9.37852E+006    1.35737E+005    4.70053E+005    3.00613E+005   -5.98323E+005
            3354    1.08428E+007    1.00421E+007    1.00421E+007   -2.25123E+005   -1.29665E+006    1.13388E+007   -2.84012E+006    1.07227E+007   -1.13957E+006    9.98798E+006   -3.28055E+005    4.39964E+005    3.36782E+005   -6.31062E+005
            3355    1.14794E+007    1.06914E+007    1.06914E+007   -4.74439E+005   -1.07772E+006    1.17692E+007   -3.04642E+006    1.14437E+007   -8.39720E+005    1.06493E+007   -6.70273E+005    3.89114E+005    2.72498E+005   -5.83436E+005
            3356    1.21211E+007    1.12720E+007    1.12720E+007   -5.32300E+005   -1.14283E+006    1.24148E+007   -3.19896E+006    1.20864E+007   -6.42725E+005    1.12425E+007   -1.00289E+006    3.45125E+005    2.28862E+005   -4.96008E+005
            3357    1.26971E+007    1.17895E+007    1.17895E+007   -4.34941E+005   -1.33271E+006    1.31222E+007   -3.34060E+006    1.26254E+007   -4.57485E+005    1.17713E+007   -1.29204E+006    2.92166E+005    1.51004E+005   -3.85704E+005
            3358    1.31264E+007    1.21646E+007    1.21646E+007   -3.65199E+005   -1.48652E+006    1.36511E+007   -3.43762E+006    1.30180E+007   -3.67247E+005    1.21553E+007   -1.47521E+006    2.60226E+005    8.63396E+004   -2.31482E+005
            3359    1.33607E+007    1.23644E+007    1.23644E+007   -3.13864E+005   -1.58751E+006    1.39519E+007   -3.48766E+006    1.32230E+007   -3.10147E+005    1.23592E+007   -1.58611E+006    2.40180E+005    3.09024E+004   -8.92229E+004
            3360    9.99404E+006    9.37565E+006    9.37565E+006    2.89201E+005   -1.32860E+006    1.07042E+007   -2.77875E+006    9.69286E+006   -1.24323E+006    9.36251E+006    2.16968E+005    2.29939E+005    3.45690E+005   -2.80703E+005
            3361    1.06265E+007    9.98548E+006    9.98548E+006   -6.43508E+004   -1.13638E+006    1.11219E+007   -2.92825E+006    1.05038E+007   -9.80136E+005    9.97406E+006   -2.09168E+005    2.03477E+005    3.69316E+005   -2.85877E+005
            3362    1.13305E+007    1.06475E+007    1.06475E+007   -3.60645E+005   -9.79883E+005    1.16274E+007   -3.10232E+006    1.12923E+007   -7.38911E+005    1.06398E+007   -5.93900E+005    1.72248E+005    2.97716E+005   -2.44121E+005
            3363    1.20569E+007    1.12746E+007    1.12746E+007   -4.68865E+005   -1.07303E+006    1.23476E+007   -3.24423E+006    1.20228E+007   -5.90099E+005    1.12699E+007   -9.47142E+005    1.50154E+005    2.41062E+005   -1.86473E+005
            3364    1.26789E+007    1.18106E+007    1.18106E+007   -4.30130E+005   -1.26534E+006    1.30759E+007   -3.37170E+006    1.26168E+007   -4.59132E+005    1.18081E+007   -1.23385E+006    1.30693E+005    1.55127E+005   -1.21251E+005
            3365    1.31624E+007    1.22090E+007    1.22090E+007   -4.02802E+005   -1.44242E+006    1.36514E+007   -3.45459E+006    1.30696E+007   -4.09286E+005    1.22074E+007   -1.43433E+006    1.23113E+005    8.83243E+004   -7.54012E+004
            3366    1.34125E+007    1.24168E+007    1.24168E+007   -3.73445E+005   -1.54160E+006    1.39584E+007   -3.50058E+006    1.32973E+007   -3.73124E+005    1.24157E+007   -1.54080E+006    1.18180E+005    2.98245E+004   -1.96136E+004
            3367    9.89250E+006    9.32826E+006    9.32826E+006    3.43517E+005   -1.27290E+006    1.06012E+007   -2.79963E+006    9.58862E+006   -1.19128E+006    9.32822E+006    2.61942E+005   -1.29079E+004    3.53881E+005    1.62186E+004
            3368    1.05052E+007    9.89341E+006    9.89341E+006   -4.17052E+004   -1.10151E+006    1.09949E+007   -2.91673E+006    1.03839E+007   -9.45658E+005    9.89295E+006   -1.97097E+005   -3.96901E+004    3.74997E+005    5.77765E+004
            3369    1.11885E+007    1.05419E+007    1.05419E+007   -3.27194E+005   -9.40727E+005    1.14826E+007   -3.09132E+006    1.11505E+007   -6.92696E+005    1.05405E+007   -5.73904E+005   -6.90926E+004    3.00401E+005    1.01599E+005
            3370    1.18962E+007    1.11475E+007    1.11475E+007   -4.17602E+005   -1.05414E+006    1.22017E+007   -3.22526E+006    1.18578E+007   -5.28878E+005    1.11453E+007   -9.40638E+005   -9.70864E+004    2.41369E+005    1.33100E+005
            3371    1.25183E+007    1.16838E+007    1.16838E+007   -3.48090E+005   -1.26998E+006    1.29538E+007   -3.35525E+006    1.24416E+007   -3.74536E+005    1.16813E+007   -1.24106E+006   -1.20531E+005    1.55963E+005    1.30052E+005
            3372    1.29753E+007    1.20652E+007    1.20652E+007   -2.95034E+005   -1.44809E+006    1.35133E+007   -3.44070E+006    1.28592E+007   -3.00734E+005    1.20630E+007   -1.44017E+006   -1.35952E+005    8.97023E+004    1.00139E+005
            3373    1.32210E+007    1.22696E+007    1.22696E+007   -2.51740E+005   -1.55471E+006    1.38243E+007   -3.48770E+006    1.30754E+007   -2.50776E+005    1.22678E+007   -1.55391E+006   -1.45950E+005    3.06116E+004    3.11042E+004
            3374    9.99252E+006    9.35959E+006    9.35959E+006    2.89726E+005   -1.35219E+006    1.07118E+007   -2.76571E+006    9.68203E+006   -1.26831E+006    9.34265E+006    2.22794E+005   -2.60220E+005    3.40665E+005    3.19039E+005
            3375    1.06422E+007    9.96389E+006    9.96389E+006   -8.24263E+004   -1.18785E+006    1.11517E+007   -2.89787E+006    1.05118E+007   -1.03523E+006    9.94198E+006   -2.13127E+005   -2.78016E+005    3.64100E+005    3.98186E+005
            3376    1.13789E+007    1.06457E+007    1.06457E+007   -3.99926E+005   -1.03960E+006    1.16853E+007   -3.06872E+006    1.13384E+007   -8.15152E+005    1.06215E+007   -6.00161E+005   -2.95741E+005    2.91756E+005    4.39149E+005
            3377    1.21506E+007    1.13045E+007    1.13045E+007   -5.49285E+005   -1.12252E+006    1.24270E+007   -3.21090E+006    1.21201E+007   -6.83560E+005    1.12809E+007   -9.64602E+005   -3.19724E+005    2.36510E+005    4.36816E+005
            3378    1.28308E+007    1.18865E+007    1.18865E+007   -5.35484E+005   -1.31738E+006    1.32039E+007   -3.34456E+006    1.27771E+007   -5.61808E+005    1.18670E+007   -1.27147E+006   -3.35230E+005    1.52444E+005    3.76758E+005
            3379    1.33491E+007    1.23186E+007    1.23186E+007   -5.15954E+005   -1.49155E+006    1.38101E+007   -3.43703E+006    1.32686E+007   -5.15489E+005    1.23047E+007   -1.47813E+006   -3.48309E+005    8.65009E+004    2.49400E+005
            3380    1.36227E+007    1.25467E+007    1.25467E+007   -4.91906E+005   -1.59335E+006    1.41400E+007   -3.48713E+006    1.35220E+007   -4.83124E+005    1.25364E+007   -1.59189E+006   -3.55569E+005    2.94752E+004    8.77378E+004
            3381    1.02417E+007    9.40445E+006    9.40445E+006    1.36386E+005   -1.59118E+006    1.09956E+007   -2.64989E+006    9.90592E+006   -1.50785E+006    9.34045E+006    1.17051E+005   -5.00113E+005    2.89059E+005    6.30646E+005
            3382    1.09002E+007    1.00167E+007    1.00167E+007   -2.55275E+005   -1.41845E+006    1.14351E+007   -2.78099E+006    1.07592E+007   -1.27105E+006    9.94191E+006   -3.27905E+005   -5.25946E+005    3.24166E+005    7.35909E+005
            3383    1.16020E+007    1.06897E+007    1.06897E+007   -5.67304E+005   -1.22903E+006    1.19187E+007   -2.96446E+006    1.15595E+007   -1.02535E+006    1.06140E+007   -6.95293E+005   -5.40835E+005    2.58917E+005    7.71633E+005
            3384    1.23528E+007    1.13475E+007    1.13475E+007   -7.28265E+005   -1.26482E+006    1.26123E+007   -3.11815E+006    1.23266E+007   -8.67331E+005    1.12770E+007   -1.05523E+006   -5.68539E+005    2.13587E+005    7.49090E+005
            3385    1.30148E+007    1.19368E+007    1.19368E+007   -6.90278E+005   -1.43372E+006    1.33706E+007   -3.27095E+006    1.29669E+007   -7.03950E+005    1.18814E+007   -1.36458E+006   -5.80827E+005    1.40154E+005    6.25117E+005
            3386    1.35021E+007    1.23625E+007    1.23625E+007   -6.40727E+005   -1.58863E+006    1.39511E+007   -3.37771E+006    1.34270E+007   -6.23831E+005    1.23234E+007   -1.56647E+006   -5.90814E+005    7.81076E+004    4.15511E+005
            3387    1.37639E+007    1.25911E+007    1.25911E+007   -5.96845E+005   -1.68414E+006    1.42753E+007   -3.43671E+006    1.36667E+007   -5.70874E+005    1.25627E+007   -1.68169E+006   -5.96659E+005    2.78743E+004    1.41468E+005
            3388    1.07635E+007    9.61298E+006    9.61298E+006   -1.31672E+005   -1.94030E+006    1.15533E+007   -2.51367E+006    1.04134E+007   -1.85217E+006    9.47628E+006   -8.31037E+004   -7.23780E+005    2.13639E+005    9.52653E+005
            3389    1.14311E+007    1.02402E+007    1.02402E+007   -4.80158E+005   -1.78897E+006    1.20292E+007   -2.65704E+006    1.12607E+007   -1.65095E+006    1.00951E+007   -4.73023E+005   -7.71265E+005    2.61984E+005    1.02629E+006
            3390    1.22028E+007    1.09737E+007    1.09737E+007   -8.01790E+005   -1.61558E+006    1.25893E+007   -2.85212E+006    1.21415E+007   -1.45182E+006    1.08254E+007   -8.17260E+005   -8.16498E+005    2.08738E+005    1.06989E+006
            3391    1.30395E+007    1.17119E+007    1.17119E+007   -1.05960E+006   -1.57991E+006    1.32918E+007   -3.02414E+006    1.30161E+007   -1.34124E+006    1.15750E+007   -1.16136E+006   -8.89531E+005    1.79279E+005    1.00314E+006
            3392    1.37600E+007    1.23572E+007    1.23572E+007   -1.18599E+006   -1.60987E+006    1.39671E+007   -3.18712E+006    1.37453E+007   -1.21927E+006    1.22424E+007   -1.46178E+006   -9.46227E+005    1.22318E+005    8.30204E+005
            3393    1.43122E+007    1.28454E+007    1.28454E+007   -1.21285E+006   -1.70797E+006    1.45534E+007   -3.30820E+006    1.42930E+007   -1.16618E+006    1.27548E+007   -1.66398E+006   -9.94585E+005    6.80583E+004    5.44287E+005
            3394    1.46073E+007    1.31036E+007    1.31036E+007   -1.20597E+006   -1.78419E+006    1.48878E+007   -3.37114E+006    1.45815E+007   -1.13535E+006    1.30280E+007   -1.77927E+006   -1.02170E+006    2.62772E+004    1.84333E+005
            3395    1.13738E+007    9.80720E+006    9.80720E+006   -4.80934E+005   -2.40649E+006    1.22137E+007   -2.30659E+006    1.09981E+007   -2.31764E+006    9.60555E+006   -3.68130E+005   -9.06854E+005    1.09293E+005    1.17504E+006
            3396    1.19655E+007    1.03970E+007    1.03970E+007   -7.70118E+005   -2.23243E+006    1.26294E+007   -2.46481E+006    1.17619E+007   -2.10609E+006    1.01663E+007   -6.65780E+005   -9.67842E+005    1.65562E+005    1.32535E+006
            3397    1.27812E+007    1.12021E+007    1.12021E+007   -1.07880E+006   -2.02654E+006    1.32287E+007   -2.69893E+006    1.27017E+007   -1.89577E+006    1.09768E+007   -9.84290E+005   -1.00367E+006    1.14738E+005    1.35339E+006
            3398    1.36391E+007    1.19991E+007    1.19991E+007   -1.31689E+006   -1.94162E+006    1.39408E+007   -2.91355E+006    1.36069E+007   -1.79309E+006    1.17966E+007   -1.26282E+006   -1.07231E+006    9.22358E+004    1.26456E+006
            3399    1.44307E+007    1.27422E+007    1.27422E+007   -1.52600E+006   -1.84566E+006    1.45878E+007   -3.12350E+006    1.44227E+007   -1.67261E+006    1.25784E+007   -1.53523E+006   -1.12657E+006    5.97111E+004    1.04477E+006
            3400    1.50240E+007    1.32960E+007    1.32960E+007   -1.64626E+006   -1.80851E+006    1.51045E+007   -3.28041E+006    1.50221E+007   -1.61880E+006    1.31728E+007   -1.71282E+006   -1.17034E+006    2.56811E+004    6.87514E+005
            3401    1.53696E+007    1.36132E+007    1.36132E+007   -1.68412E+006   -1.82759E+006    1.54408E+007   -3.36717E+006    1.53681E+007   -1.59581E+006    1.35148E+007   -1.81750E+006   -1.20037E+006    1.09691E+004    2.38826E+005
            3402    1.19993E+007    9.99973E+006    9.99973E+006   -7.76877E+005   -2.93066E+006    1.29304E+007   -2.09740E+006    1.15524E+007   -2.84342E+006    9.74207E+006   -6.06452E+005   -1.02826E+006   -1.95584E+004    1.36210E+006
            3403    1.27991E+007    1.07222E+007    1.07222E+007   -1.03614E+006   -2.91092E+006    1.36331E+007   -2.25838E+006    1.24846E+007   -2.78278E+006    1.04280E+007   -8.70105E+005   -1.19302E+006    6.76849E+004    1.48529E+006
            3404    1.36186E+007    1.15123E+007    1.15123E+007   -1.28088E+006   -2.80360E+006    1.43159E+007   -2.47595E+006    1.34250E+007   -2.65917E+006    1.12037E+007   -1.11665E+006   -1.29968E+006    4.61413E+004    1.55110E+006
            3405    1.46098E+007    1.24276E+007    1.24276E+007   -1.48744E+006   -2.78986E+006    1.52174E+007   -2.71676E+006    1.44784E+007   -2.63196E+006    1.21348E+007   -1.35254E+006   -1.42953E+006    2.34590E+004    1.47359E+006
            3406    1.55127E+007    1.32661E+007    1.32661E+007   -1.67560E+006   -2.76050E+006    1.60266E+007   -2.94335E+006    1.54270E+007   -2.59239E+006    1.30138E+007   -1.59133E+006   -1.54018E+006    1.70581E+004    1.23754E+006
            3407    1.62323E+007    1.39399E+007    1.39399E+007   -1.79093E+006   -2.75124E+006    1.66911E+007   -3.13256E+006    1.61682E+007   -2.58429E+006    1.37355E+007   -1.75350E+006   -1.62874E+006   -5.88003E+003    8.28856E+005
            3408    1.66605E+007    1.43306E+007    1.43306E+007   -1.85434E+006   -2.76794E+006    1.70985E+007   -3.23609E+006    1.66040E+007   -2.59917E+006    1.41581E+007   -1.85067E+006   -1.68252E+006    8.25472E+003    2.91516E+005
            3409    1.25360E+007    1.01700E+007    1.01700E+007   -1.16161E+006   -3.29630E+006    1.34663E+007   -1.90402E+006    1.21169E+007   -3.22032E+006    9.88955E+006   -9.57164E+005   -9.89596E+005   -1.73996E+005    1.50573E+006
            3410    1.32516E+007    1.08375E+007    1.08375E+007   -1.16496E+006   -3.38330E+006    1.42208E+007   -2.09640E+006    1.28238E+007   -3.29498E+006    1.05343E+007   -9.50106E+005   -1.10771E+006   -1.45119E+005    1.58549E+006
            3411    1.43549E+007    1.18480E+007    1.18480E+007   -1.35306E+006   -3.43367E+006    1.52816E+007   -2.35374E+006    1.40096E+007   -3.33418E+006    1.15299E+007   -1.13450E+006   -1.22014E+006   -1.36074E+005    1.67895E+006
            3412    1.55327E+007    1.29479E+007    1.29479E+007   -1.42853E+006   -3.52770E+006    1.64756E+007   -2.66388E+006    1.52087E+007   -3.41678E+006    1.26491E+007   -1.24066E+006   -1.33883E+006   -1.50010E+005    1.62632E+006
            3413    1.67499E+007    1.40972E+007    1.40972E+007   -1.51263E+006   -3.59769E+006    1.76949E+007   -2.99562E+006    1.64542E+007   -3.48028E+006    1.38492E+007   -1.38207E+006   -1.43122E+006   -1.19378E+005    1.41665E+006
            3414    1.77425E+007    1.50508E+007    1.50508E+007   -1.54487E+006   -3.65058E+006    1.87014E+007   -3.28512E+006    1.74580E+007   -3.52875E+006    1.48710E+007   -1.48691E+006   -1.50134E+006   -9.57659E+004    9.75556E+005
            3415    1.83320E+007    1.56136E+007    1.56136E+007   -1.56898E+006   -3.68421E+006    1.92978E+007   -3.45348E+006    1.80544E+007   -3.56175E+006    1.54839E+007   -1.56167E+006   -1.53205E+006   -2.62275E+004    3.53389E+005
            3416    1.94948E+007    1.64457E+007    1.64457E+007   -9.61403E+005   -4.61878E+006    2.10644E+007   -3.62183E+006    1.86994E+007   -4.55305E+006    1.63687E+007   -9.50136E+005   -1.17029E+006   -6.62104E+004    4.48722E+005
            3417    1.87260E+007    1.56088E+007    1.56088E+007   -1.10784E+006   -4.62705E+006    2.02359E+007   -3.29131E+006    1.79592E+007   -4.55262E+006    1.54480E+007   -1.02148E+006   -1.19338E+006   -1.83211E+005    1.21351E+006
            3418    1.74546E+007    1.42800E+007    1.42800E+007   -1.28483E+006   -4.59137E+006    1.88714E+007   -2.80127E+006    1.67281E+007   -4.50409E+006    1.40168E+007   -1.10889E+006   -1.21976E+006   -2.65517E+005    1.66538E+006
            3419    1.60409E+007    1.28845E+007    1.28845E+007   -1.42241E+006   -4.45699E+006    1.73415E+007   -2.33503E+006    1.53751E+007   -4.35968E+006    1.25474E+007   -1.18259E+006   -1.22544E+006   -2.99880E+005    1.85381E+006
            3420    1.46425E+007    1.15801E+007    1.15801E+007   -1.44636E+006   -4.26779E+006    1.58479E+007   -1.95532E+006    1.40112E+007   -4.16696E+006    1.12193E+007   -1.18638E+006   -1.20262E+006   -2.88152E+005    1.83062E+006
            3421    1.34907E+007    1.05605E+007    1.05605E+007   -1.43028E+006   -4.04686E+006    1.46073E+007   -1.69445E+006    1.29012E+007   -3.94748E+006    1.02111E+007   -1.18024E+006   -1.15997E+006   -2.54940E+005    1.71524E+006
            3422    1.25404E+007    9.73313E+006    9.73313E+006   -1.31426E+006   -3.89792E+006    1.36310E+007   -1.50698E+006    1.19194E+007   -3.80139E+006    9.43716E+006   -1.11482E+006   -1.12698E+006   -1.81945E+005    1.46543E+006
            3423    1.34173E+007    1.08713E+007    1.08713E+007   -1.49289E+006   -3.39588E+006    1.42672E+007   -1.99418E+006    1.31085E+007   -3.30481E+006    1.05912E+007   -1.30388E+006    1.12810E+006    1.34075E+005    1.51140E+006
            3424    1.21837E+007    1.01390E+007    1.01390E+007   -7.78933E+005   -3.00381E+006    1.31428E+007   -2.11875E+006    1.17135E+007   -2.92139E+006    9.79776E+006   -5.20127E+005    1.02434E+006    1.00577E+005    1.65963E+006
            3425    1.09962E+007    9.31743E+006    9.31743E+006   -3.72723E+005   -2.63338E+006    1.19508E+007   -2.10378E+006    1.04540E+007   -2.55862E+006    9.07358E+006   -2.03620E+005    8.94814E+005   -2.13884E+004    1.29771E+006
            3426    1.01898E+007    8.99609E+006    8.99609E+006    1.55847E+005   -2.14862E+006    1.11447E+007   -2.33444E+006    9.57684E+006   -2.08737E+006    8.86076E+006    2.29928E+005    7.17655E+005   -1.24653E+005    8.90626E+005
            3427    1.07927E+007    9.68326E+006    9.68326E+006   -1.39382E+005   -1.87031E+006    1.15536E+007   -2.55785E+006    1.04736E+007   -1.77737E+006    9.55176E+006   -1.00826E+005    7.05380E+005   -2.30841E+005    9.42332E+005
            3428    1.14345E+007    1.03441E+007    1.03441E+007   -4.52584E+005   -1.63621E+006    1.19803E+007   -2.75177E+006    1.12955E+007   -1.48606E+006    1.02207E+007   -4.79369E+005    7.23129E+005   -2.81240E+005    9.42541E+005
            3429    1.20421E+007    1.09649E+007    1.09649E+007   -7.17172E+005   -1.40751E+006    1.23724E+007   -2.94673E+006    1.19974E+007   -1.21618E+006    1.08578E+007   -8.01376E+005    7.15722E+005   -2.32807E+005    8.88523E+005
            3430    1.27021E+007    1.15690E+007    1.15690E+007   -8.73137E+005   -1.37789E+006    1.29469E+007   -3.10600E+006    1.26795E+007   -1.03376E+006    1.14784E+007   -1.12667E+006    7.23078E+005   -2.02097E+005    8.01177E+005
            3431    1.32672E+007    1.20909E+007    1.20909E+007   -8.46042E+005   -1.48358E+006    1.35745E+007   -3.25375E+006    1.32326E+007   -8.56791E+005    1.20229E+007   -1.40489E+006    7.19127E+005   -1.38420E+005    6.22374E+005
            3432    1.37019E+007    1.24704E+007    1.24704E+007   -8.02395E+005   -1.62362E+006    1.40940E+007   -3.34813E+006    1.36464E+007   -7.75279E+005    1.24195E+007   -1.59978E+006    7.21787E+005   -7.74480E+004    4.08733E+005
            3433    1.39201E+007    1.26662E+007    1.26662E+007   -7.53525E+005   -1.70548E+006    1.43717E+007   -3.40240E+006    1.38466E+007   -7.16347E+005    1.26265E+007   -1.70301E+006    7.17670E+005   -2.83539E+004    1.30827E+005
            3434    1.15000E+007    1.00225E+007    1.00225E+007   -4.55318E+005   -2.28125E+006    1.23038E+007   -2.42864E+006    1.11669E+007   -2.18837E+006    9.81099E+006   -3.36683E+005    9.05289E+005   -1.21462E+005    1.23198E+006
            3435    1.19548E+007    1.05200E+007    1.05200E+007   -7.33362E+005   -2.03052E+006    1.25505E+007   -2.58537E+006    1.17949E+007   -1.90019E+006    1.03223E+007   -6.65982E+005    9.12147E+005   -1.89527E+005    1.22299E+006
            3436    1.25936E+007    1.12031E+007    1.12031E+007   -9.82190E+005   -1.76254E+006    1.29656E+007   -2.81946E+006    1.25390E+007   -1.62190E+006    1.10162E+007   -9.35926E+005    9.00168E+005   -1.46638E+005    1.23569E+006
            3437    1.33152E+007    1.18979E+007    1.18979E+007   -1.18335E+006   -1.63950E+006    1.35374E+007   -3.02501E+006    1.32976E+007   -1.43643E+006    1.17427E+007   -1.23130E+006    9.15711E+005   -1.34772E+005    1.10969E+006
            3438    1.39368E+007    1.24891E+007    1.24891E+007   -1.24239E+006   -1.64430E+006    1.41334E+007   -3.20082E+006    1.39238E+007   -1.25383E+006    1.23707E+007   -1.51438E+006    9.17180E+005   -9.51041E+004    9.01882E+005
            3439    1.44003E+007    1.29330E+007    1.29330E+007   -1.19534E+006   -1.72457E+006    1.46576E+007   -3.33770E+006    1.43784E+007   -1.15065E+006    1.28508E+007   -1.68701E+006    9.22829E+005   -5.32572E+004    5.67915E+005
            3440    1.46360E+007    1.31569E+007    1.31569E+007   -1.14211E+006   -1.79424E+006    1.49512E+007   -3.40686E+006    1.46033E+007   -1.08461E+006    1.30948E+007   -1.78958E+006    9.19996E+005   -2.24582E+004    2.03482E+005
            3441    1.23094E+007    1.03178E+007    1.03178E+007   -8.35929E+005   -2.88902E+006    1.32069E+007   -2.19763E+006    1.19150E+007   -2.79015E+006    1.00817E+007   -6.98617E+005    1.08958E+006   -1.66670E+004    1.26793E+006
            3442    1.26947E+007    1.07278E+007    1.07278E+007   -9.57103E+005   -2.77965E+006    1.35075E+007   -2.33036E+006    1.23952E+007   -2.63680E+006    1.04333E+007   -8.05426E+005    1.21902E+006   -9.96584E+004    1.46316E+006
            3443    1.35125E+007    1.15332E+007    1.15332E+007   -1.27775E+006   -2.58580E+006    1.41190E+007   -2.55655E+006    1.33690E+007   -2.42848E+006    1.12345E+007   -1.13637E+006    1.29044E+006   -7.59716E+004    1.51475E+006
            3444    1.43300E+007    1.22975E+007    1.22975E+007   -1.52225E+006   -2.49333E+006    1.47909E+007   -2.76065E+006    1.42557E+007   -2.32241E+006    1.20256E+007   -1.42121E+006    1.37756E+006   -6.10454E+004    1.40227E+006
            3445    1.50680E+007    1.30229E+007    1.30229E+007   -1.70767E+006   -2.36125E+006    1.53842E+007   -2.98466E+006    1.50361E+007   -2.18595E+006    1.27983E+007   -1.65835E+006    1.45095E+006   -4.20951E+004    1.12895E+006
            3446    1.56080E+007    1.35432E+007    1.35432E+007   -1.84063E+006   -2.27966E+006    1.58229E+007   -3.14098E+006    1.55941E+007   -2.11634E+006    1.33622E+007   -1.82292E+006    1.50901E+006   -1.49687E+004    7.41309E+005
            3447    1.58822E+007    1.38156E+007    1.38156E+007   -1.90937E+006   -2.21915E+006    1.60348E+007   -3.22903E+006    1.58754E+007   -2.06668E+006    1.36630E+007   -1.90919E+006    1.53748E+006   -9.53397E+003    2.46268E+005
            3448    1.24870E+007    1.02257E+007    1.02257E+007   -8.98605E+005   -3.28081E+006    1.35065E+007   -2.01541E+006    1.19596E+007   -3.20577E+006    9.93448E+006   -6.82466E+005    9.91677E+005    1.53617E+005    1.53045E+006
            3449    1.35453E+007    1.10896E+007    1.10896E+007   -1.35587E+006   -3.33731E+006    1.44269E+007   -2.13213E+006    1.32133E+007   -3.24916E+006    1.07810E+007   -1.13550E+006    1.11301E+006    1.00500E+005    1.64003E+006
            3450    1.44160E+007    1.18984E+007    1.18984E+007   -1.50021E+006   -3.35536E+006    1.52538E+007   -2.34762E+006    1.41437E+007   -3.25518E+006    1.15826E+007   -1.28453E+006    1.21946E+006    1.03325E+005    1.68581E+006
            3451    1.55496E+007    1.30226E+007    1.30226E+007   -1.54540E+006   -3.35105E+006    1.63736E+007   -2.70871E+006    1.53111E+007   -3.23901E+006    1.27361E+007   -1.37095E+006    1.34057E+006    1.07660E+005    1.58258E+006
            3452    1.65666E+007    1.40133E+007    1.40133E+007   -1.61780E+006   -3.35240E+006    1.73657E+007   -3.01436E+006    1.63605E+007   -3.23087E+006    1.37748E+007   -1.50080E+006    1.44076E+006    8.91625E+004    1.34646E+006
            3453    1.73733E+007    1.48079E+007    1.48079E+007   -1.65623E+006   -3.35033E+006    1.81583E+007   -3.26712E+006    1.71860E+007   -3.22226E+006    1.46297E+007   -1.60608E+006    1.51720E+006    6.75977E+004    9.05224E+005
            3454    1.78183E+007    1.52330E+007    1.52330E+007   -1.69885E+006   -3.35597E+006    1.85889E+007   -3.39272E+006    1.76437E+007   -3.22436E+006    1.50949E+007   -1.69238E+006    1.55796E+006    1.90349E+004    3.31961E+005
            3455    1.93665E+007    1.63532E+007    1.63532E+007   -1.00501E+006   -4.53577E+006    2.08890E+007   -3.60415E+006    1.86216E+007   -4.46396E+006    1.62705E+007   -9.94076E+005    1.21967E+006    5.91861E+004    4.39082E+005
            3456    1.86291E+007    1.55523E+007    1.55523E+007   -1.11688E+006   -4.55712E+006    2.01094E+007   -3.29276E+006    1.78933E+007   -4.47794E+006    1.53933E+007   -1.03704E+006    1.23491E+006    1.69203E+005    1.16213E+006
            3457    1.74556E+007    1.43269E+007    1.43269E+007   -1.26803E+006   -4.52938E+006    1.88563E+007   -2.84317E+006    1.67495E+007   -4.43955E+006    1.40769E+007   -1.10782E+006    1.25172E+006    2.42608E+005    1.58694E+006
            3458    1.60328E+007    1.28793E+007    1.28793E+007   -1.43336E+006   -4.44623E+006    1.73255E+007   -2.33324E+006    1.53765E+007   -4.34642E+006    1.25611E+007   -1.21498E+006    1.25377E+006    2.80274E+005    1.76774E+006
            3459    1.46786E+007    1.15592E+007    1.15592E+007   -1.55247E+006   -4.29837E+006    1.58576E+007   -1.90280E+006    1.40832E+007   -4.19521E+006    1.12303E+007   -1.32671E+006    1.22399E+006    2.71520E+005    1.71441E+006
            3460    1.33816E+007    1.02453E+007    1.02453E+007   -1.71605E+006   -4.20651E+006    1.44518E+007   -1.44092E+006    1.28445E+007   -4.10550E+006    9.95365E+006   -1.52537E+006    1.17137E+006    2.25910E+005    1.50049E+006
            3461    1.32185E+007    1.00303E+007    1.00303E+007   -2.12495E+006   -4.04218E+006    1.40724E+007   -1.28771E+006    1.29001E+007   -3.94333E+006    9.81069E+006   -2.00424E+006    1.16701E+006    1.33502E+005    1.20096E+006
            3462    1.83411E+007    1.56198E+007    1.56198E+007   -1.56834E+006   -3.68972E+006    1.93095E+007   -3.45392E+006    1.80620E+007   -3.56760E+006    1.54899E+007   -1.56057E+006   -1.53044E+006    2.71699E+004   -3.64306E+005
            3463    1.66688E+007    1.43361E+007    1.43361E+007   -1.85130E+006   -2.77562E+006    1.71117E+007   -3.23640E+006    1.66110E+007   -2.60698E+006    1.41632E+007   -1.84706E+006   -1.68272E+006   -6.43512E+003   -3.05872E+005
            3464    1.53729E+007    1.36136E+007    1.36136E+007   -1.68883E+006   -1.82876E+006    1.54424E+007   -3.36534E+006    1.53715E+007   -1.60165E+006    1.35143E+007   -1.81666E+006   -1.20288E+006   -1.22872E+004   -2.55178E+005
            3465    1.46012E+007    1.30973E+007    1.30973E+007   -1.20748E+006   -1.78340E+006    1.48807E+007   -3.36880E+006    1.45757E+007   -1.13724E+006    1.30213E+007   -1.77762E+006   -1.02163E+006   -2.77431E+004   -2.02121E+005
            3466    1.37576E+007    1.25857E+007    1.25857E+007   -5.97698E+005   -1.68206E+006    1.42677E+007   -3.43530E+006    1.36610E+007   -5.71864E+005    1.25570E+007   -1.67923E+006   -5.96452E+005   -2.92384E+004   -1.53592E+005
            3467    1.36177E+007    1.25422E+007    1.25422E+007   -4.92576E+005   -1.59183E+006    1.41340E+007   -3.48593E+006    1.35174E+007   -4.83883E+005    1.25319E+007   -1.59022E+006   -3.55031E+005   -3.02979E+004   -9.49182E+004
            3468    1.32184E+007    1.22677E+007    1.22677E+007   -2.51867E+005   -1.55328E+006    1.38210E+007   -3.48752E+006    1.30731E+007   -2.50901E+005    1.22659E+007   -1.55246E+006   -1.46221E+005   -3.06666E+004   -3.38710E+004
            3469    1.34116E+007    1.24158E+007    1.24158E+007   -3.73350E+005   -1.54187E+006    1.39576E+007   -3.50018E+006    1.32963E+007   -3.73053E+005    1.24146E+007   -1.54105E+006    1.18540E+005   -3.04155E+004    1.81508E+004
            3470    1.33629E+007    1.23664E+007    1.23664E+007   -3.13785E+005   -1.58789E+006    1.39543E+007   -3.48826E+006    1.32252E+007   -3.10008E+005    1.23613E+007   -1.58655E+006    2.41103E+005   -3.04520E+004    8.66247E+004
            3471    1.77388E+007    1.50435E+007    1.50435E+007   -1.53992E+006   -3.66004E+006    1.87035E+007   -3.28118E+006    1.74503E+007   -3.53865E+006    1.48623E+007   -1.48007E+006   -1.49859E+006    9.79657E+004   -9.91005E+005
            3472    1.62307E+007    1.39339E+007    1.39339E+007   -1.78599E+006   -2.76339E+006    1.66973E+007   -3.12819E+006    1.61643E+007   -2.59675E+006    1.37280E+007   -1.74663E+006   -1.62661E+006    5.99931E+003   -8.48168E+005
            3473    1.50038E+007    1.32745E+007    1.32745E+007   -1.64563E+006   -1.81153E+006    1.50860E+007   -3.27245E+006    1.50017E+007   -1.62521E+006    1.31491E+007   -1.70652E+006   -1.17055E+006   -2.66151E+004   -7.10211E+005
            3474    1.42816E+007    1.28193E+007    1.28193E+007   -1.20877E+006   -1.70297E+006    1.45223E+007   -3.30252E+006    1.42623E+007   -1.16470E+006    1.27280E+007   -1.65570E+006   -9.89826E+005   -7.11932E+004   -5.59972E+005
            3475    1.34758E+007    1.23411E+007    1.23411E+007   -6.38258E+005   -1.58162E+006    1.39227E+007   -3.37373E+006    1.34012E+007   -6.22364E+005    1.23017E+007   -1.55819E+006   -5.85762E+005   -8.02974E+004   -4.26432E+005
            3476    1.33321E+007    1.23056E+007    1.23056E+007   -5.14780E+005   -1.48520E+006    1.37908E+007   -3.43519E+006    1.32523E+007   -5.14774E+005    1.22918E+007   -1.47145E+006   -3.44832E+005   -8.77053E+004   -2.50814E+005
            3477    1.29683E+007    1.20595E+007    1.20595E+007   -2.94598E+005   -1.44607E+006    1.35056E+007   -3.43962E+006    1.28525E+007   -3.00504E+005    1.20574E+007   -1.43798E+006   -1.33692E+005   -9.06281E+004   -1.00938E+005
            3478    1.31633E+007    1.22099E+007    1.22099E+007   -4.02870E+005   -1.44228E+006    1.36522E+007   -3.45491E+006    1.30705E+007   -4.09274E+005    1.22082E+007   -1.43420E+006    1.25222E+005   -8.80568E+004    7.78824E+004
            3479    1.31345E+007    1.21701E+007    1.21701E+007   -3.66817E+005   -1.48982E+006    1.36600E+007   -3.43784E+006    1.30259E+007   -3.68638E+005    1.21607E+007   -1.47853E+006    2.64743E+005   -8.60744E+004    2.31911E+005
            3480    1.67166E+007    1.40636E+007    1.40636E+007   -1.50680E+006   -3.60162E+006    1.76652E+007   -2.98506E+006    1.64174E+007   -3.48445E+006    1.38140E+007   -1.37439E+006   -1.42847E+006    1.21863E+005   -1.42460E+006
            3481    1.54654E+007    1.32227E+007    1.32227E+007   -1.66651E+006   -2.76073E+006    1.59834E+007   -2.93182E+006    1.53779E+007   -2.59290E+006    1.29681E+007   -1.57972E+006   -1.53253E+006   -1.91289E+004   -1.25521E+006
            3482    1.43642E+007    1.26857E+007    1.26857E+007   -1.51115E+006   -1.84026E+006    1.45260E+007   -3.11143E+006    1.43557E+007   -1.66663E+006    1.25203E+007   -1.51937E+006   -1.11749E+006   -6.25167E+004   -1.06009E+006
            3483    1.36909E+007    1.23032E+007    1.23032E+007   -1.16804E+006   -1.59734E+006    1.39005E+007   -3.17927E+006    1.36758E+007   -1.20867E+006    1.21888E+007   -1.44237E+006   -9.33059E+005   -1.27478E+005   -8.37001E+005
            3484    1.29662E+007    1.19007E+007    1.19007E+007   -6.79839E+005   -1.41945E+006    1.33202E+007   -3.26714E+006    1.29186E+007   -6.96270E+005    1.18463E+007   -1.34866E+006   -5.67633E+005   -1.43492E+005   -6.23937E+005
            3485    1.28048E+007    1.18675E+007    1.18675E+007   -5.30732E+005   -1.30840E+006    1.31759E+007   -3.34280E+006    1.27515E+007   -5.58483E+005    1.18488E+007   -1.26196E+006   -3.25942E+005   -1.54505E+005   -3.68837E+005
            3486    1.25104E+007    1.16782E+007    1.16782E+007   -3.46295E+005   -1.26706E+006    1.29453E+007   -3.35496E+006    1.24338E+007   -3.73159E+005    1.16760E+007   -1.23799E+006   -1.13370E+005   -1.56775E+005   -1.22744E+005
            3487    1.26865E+007    1.18158E+007    1.18158E+007   -4.31133E+005   -1.26873E+006    1.30845E+007   -3.37198E+006    1.26240E+007   -4.59765E+005    1.18130E+007   -1.23734E+006    1.36855E+005   -1.54632E+005    1.28437E+005
            3488    1.27128E+007    1.18023E+007    1.18023E+007   -4.34950E+005   -1.33783E+006    1.31401E+007   -3.34318E+006    1.26403E+007   -4.56246E+005    1.17837E+007   -1.29795E+006    2.96769E+005   -1.48497E+005    3.89930E+005
            3489    1.54781E+007    1.28977E+007    1.28977E+007   -1.42637E+006   -3.52106E+006    1.64188E+007   -2.65010E+006    1.51543E+007   -3.41045E+006    1.25977E+007   -1.23695E+006   -1.33463E+006    1.50246E+005   -1.62989E+006
            3490    1.45217E+007    1.23542E+007    1.23542E+007   -1.47291E+006   -2.77447E+006    1.51287E+007   -2.70229E+006    1.43896E+007   -2.61733E+006    1.20613E+007   -1.33707E+006   -1.41578E+006   -2.74873E+004   -1.47849E+006
            3491    1.35360E+007    1.19181E+007    1.19181E+007   -1.29027E+006   -1.92339E+006    1.38415E+007   -2.90148E+006    1.35027E+007   -1.77434E+006    1.17165E+007   -1.23771E+006   -1.05489E+006   -9.79105E+004   -1.26573E+006
            3492    1.29489E+007    1.16457E+007    1.16457E+007   -1.02944E+006   -1.56073E+006    1.32064E+007   -3.01850E+006    1.29244E+007   -1.32244E+006    1.15120E+007   -1.13409E+006   -8.70174E+005   -1.85592E+005   -9.93053E+005
            3493    1.22960E+007    1.13080E+007    1.13080E+007   -7.09569E+005   -1.24871E+006    1.25567E+007   -3.11657E+006    1.22694E+007   -8.54341E+005    1.12404E+007   -1.03635E+006   -5.50600E+005   -2.17710E+005   -7.35377E+005
            3494    1.21274E+007    1.12896E+007    1.12896E+007   -5.40982E+005   -1.11427E+006    1.24038E+007   -3.21144E+006    1.20968E+007   -6.77582E+005    1.12677E+007   -9.55777E+005   -3.07349E+005   -2.38346E+005   -4.20057E+005
            3495    1.18951E+007    1.11472E+007    1.11472E+007   -4.15500E+005   -1.05450E+006    1.22017E+007   -3.22574E+006    1.18564E+007   -5.26515E+005    1.11453E+007   -9.41615E+005   -8.87367E+004   -2.41775E+005   -1.21848E+005
            3496    1.20722E+007    1.12869E+007    1.12869E+007   -4.70918E+005   -1.07682E+006    1.23637E+007   -3.24639E+006    1.20379E+007   -5.89477E+005    1.12818E+007   -9.53184E+005    1.56504E+005   -2.39419E+005    1.95214E+005
            3497    1.21398E+007    1.12874E+007    1.12874E+007   -5.32028E+005   -1.14917E+006    1.24366E+007   -3.20207E+006    1.21044E+007   -6.38684E+005    1.12579E+007   -1.01300E+006    3.45675E+005   -2.27551E+005    4.96257E+005
            3498    1.42902E+007    1.17927E+007    1.17927E+007   -1.34692E+006   -3.42134E+006    1.52141E+007   -2.34149E+006    1.39454E+007   -3.32218E+006    1.14741E+007   -1.12744E+006   -1.21529E+006    1.33377E+005   -1.67869E+006
            3499    1.35158E+007    1.14321E+007    1.14321E+007   -1.25882E+006   -2.77986E+006    1.42120E+007   -2.46449E+006    1.33212E+007   -2.63587E+006    1.11256E+007   -1.09631E+006   -1.28446E+006   -5.30616E+004   -1.54454E+006
            3500    1.26734E+007    1.11249E+007    1.11249E+007   -1.04396E+006   -1.99914E+006    1.31240E+007   -2.69392E+006    1.25921E+007   -1.86857E+006    1.09043E+007   -9.54017E+005   -9.83931E+005   -1.22425E+005   -1.33720E+006
            3501    1.21201E+007    1.09181E+007    1.09181E+007   -7.69813E+005   -1.59236E+006    1.25104E+007   -2.85196E+006    1.20571E+007   -1.42863E+006    1.07752E+007   -7.90709E+005   -7.97052E+005   -2.15465E+005   -1.04814E+006
            3502    1.15580E+007    1.06632E+007    1.06632E+007   -5.48560E+005   -1.21244E+006    1.18757E+007   -2.96742E+006    1.15150E+007   -1.00861E+006    1.05917E+007   -6.80868E+005   -5.23487E+005   -2.62391E+005   -7.49775E+005
            3503    1.13696E+007    1.06426E+007    1.06426E+007   -3.94362E+005   -1.03268E+006    1.16753E+007   -3.07185E+006    1.13291E+007   -8.06638E+005    1.06202E+007   -5.98042E+005   -2.83650E+005   -2.92859E+005   -4.22353E+005
            3504    1.11972E+007    1.05507E+007    1.05507E+007   -3.29593E+005   -9.38589E+005    1.14893E+007   -3.09418E+006    1.11599E+007   -6.87569E+005    1.05497E+007   -5.79568E+005   -6.18135E+004   -2.99222E+005   -9.02287E+004
            3505    1.13529E+007    1.06663E+007    1.06663E+007   -3.68145E+005   -9.80273E+005    1.16465E+007   -3.10595E+006    1.13156E+007   -7.35388E+005    1.06581E+007   -6.04904E+005    1.77079E+005   -2.95525E+005    2.50681E+005
            3506    1.15058E+007    1.07150E+007    1.07150E+007   -4.80606E+005   -1.07778E+006    1.17927E+007   -3.05219E+006    1.14708E+007   -8.33604E+005    1.06729E+007   -6.82759E+005    3.89807E+005   -2.71649E+005    5.82569E+005
            3507    1.31963E+007    1.07937E+007    1.07937E+007   -1.15479E+006   -3.37017E+006    1.41638E+007   -2.08957E+006    1.27679E+007   -3.28220E+006    1.04915E+007   -9.40556E+005   -1.10352E+006    1.41838E+005   -1.57967E+006
            3508    1.27173E+007    1.06647E+007    1.06647E+007   -1.01110E+006   -2.88593E+006    1.35507E+007   -2.25589E+006    1.24007E+007   -2.75834E+006    1.03746E+007   -8.48567E+005   -1.18128E+006   -7.37062E+004   -1.47049E+006
            3509    1.18859E+007    1.03457E+007    1.03457E+007   -7.39878E+005   -2.20470E+006    1.25504E+007   -2.46705E+006    1.16802E+007   -2.07881E+006    1.01210E+007   -6.41094E+005   -9.51459E+005   -1.72721E+005   -1.30457E+006
            3510    1.13845E+007    1.02141E+007    1.02141E+007   -4.59027E+005   -1.76847E+006    1.19826E+007   -2.66220E+006    1.12132E+007   -1.63032E+006    1.00743E+007   -4.57362E+005   -7.56472E+005   -2.67647E+005   -1.00498E+006
            3511    1.08830E+007    1.00102E+007    1.00102E+007   -2.48298E+005   -1.40502E+006    1.14152E+007   -2.78561E+006    1.07434E+007   -1.25629E+006    9.93838E+006   -3.25248E+005   -5.14697E+005   -3.27329E+005   -7.20886E+005
            3512    1.06511E+007    9.97520E+006    9.97520E+006   -8.68398E+004   -1.18052E+006    1.11557E+007   -2.90261E+006    1.05236E+007   -1.02575E+006    9.95437E+006   -2.20774E+005   -2.71036E+005   -3.64967E+005   -3.88679E+005
            3513    1.05273E+007    9.91349E+006    9.91349E+006   -5.29797E+004   -1.09684E+006    1.10103E+007   -2.92122E+006    1.04099E+007   -9.37612E+005    9.91307E+006   -2.11793E+005   -3.74820E+004   -3.75005E+005   -5.52105E+004
            3514    1.06493E+007    1.00061E+007    1.00061E+007   -7.61270E+004   -1.13169E+006    1.11377E+007   -2.93274E+006    1.05306E+007   -9.73034E+005    9.99463E+006   -2.23367E+005    2.03906E+005   -3.68361E+005    2.86080E+005
            3515    1.08646E+007    1.00625E+007    1.00625E+007   -2.33933E+005   -1.29276E+006    1.13553E+007   -2.84528E+006    1.07476E+007   -1.13363E+006    1.00082E+007   -3.38722E+005    4.40967E+005   -3.36362E+005    6.33103E+005
            3516    1.25009E+007    1.01439E+007    1.01439E+007   -1.14831E+006   -3.28911E+006    1.34331E+007   -1.90218E+006    1.20781E+007   -3.21339E+006    9.86431E+006   -9.44400E+005   -9.87148E+005    1.72334E+005   -1.50095E+006
            3517    1.19494E+007    9.96573E+006    9.96573E+006   -7.59523E+005   -2.91456E+006    1.28803E+007   -2.09722E+006    1.15000E+007   -2.82780E+006    9.71174E+006   -5.92294E+005   -1.02169E+006    1.46759E+004   -1.34798E+006
            3518    1.13322E+007    9.78559E+006    9.78559E+006   -4.61228E+005   -2.38564E+006    1.21712E+007   -2.31291E+006    1.09555E+007   -2.29714E+006    9.58802E+006   -3.52155E+005   -8.99171E+005   -1.13697E+005   -1.15931E+006
            3519    1.07428E+007    9.60375E+006    9.60375E+006   -1.22569E+005   -1.92703E+006    1.15308E+007   -2.51805E+006    1.03936E+007   -1.83900E+006    9.46973E+006   -7.65799E+004   -7.16693E+005   -2.16703E+005   -9.42264E+005
            3520    1.02411E+007    9.40865E+006    9.40865E+006    1.35294E+005   -1.58292E+006    1.09916E+007   -2.65367E+006    9.90905E+006   -1.49905E+006    9.34581E+006    1.14267E+005   -4.96131E+005   -2.90891E+005   -6.24804E+005
            3521    1.00046E+007    9.37196E+006    9.37196E+006    2.82241E+005   -1.34736E+006    1.07193E+007   -2.76895E+006    9.69921E+006   -1.26202E+006    9.35507E+006    2.13794E+005   -2.59223E+005   -3.42507E+005   -3.19313E+005
            3522    9.90857E+006    9.34313E+006    9.34313E+006    3.31981E+005   -1.26812E+006    1.06112E+007   -2.80233E+006    9.61144E+006   -1.18490E+006    9.34309E+006    2.48808E+005   -1.46434E+004   -3.55230E+005   -1.53876E+004
            3523    1.00076E+007    9.39051E+006    9.39051E+006    2.81742E+005   -1.32221E+006    1.07127E+007   -2.78335E+006    9.71210E+006   -1.23530E+006    9.37736E+006    2.07982E+005    2.28318E+005   -3.47403E+005    2.82304E+005
            3524    1.02344E+007    9.44984E+006    9.44984E+006    1.55789E+005   -1.51848E+006    1.09683E+007   -2.69572E+006    9.91927E+006   -1.43149E+006    9.39240E+006    1.26236E+005    4.69932E+005   -3.02094E+005    6.01279E+005
            3525    9.74259E+006    8.88108E+006    8.88108E+006    4.26326E+005   -1.77325E+006    1.06543E+007   -2.51139E+006    9.15859E+006   -1.72672E+006    8.82760E+006    4.33283E+005    5.03565E+005   -1.97936E+005    5.09208E+005
            3526    9.52233E+006    8.87227E+006    8.87227E+006    5.64230E+005   -1.51930E+006    1.03916E+007   -2.63907E+006    8.98774E+006   -1.48373E+006    8.86048E+006    5.40451E+005    2.57184E+005   -2.39549E+005    2.18013E+005
            3527    9.48863E+006    8.88529E+006    8.88529E+006    5.60979E+005   -1.44643E+006    1.03317E+007   -2.66661E+006    8.99206E+006   -1.41518E+006    8.88529E+006    5.29731E+005   -1.70889E+003   -2.48508E+005   -4.27170E+003
            3528    9.53161E+006    8.87325E+006    8.87325E+006    5.55828E+005   -1.52782E+006    1.04011E+007   -2.63375E+006    8.99753E+006   -1.49213E+006    8.86125E+006    5.32135E+005   -2.63471E+005   -2.38692E+005   -2.16217E+005
            3529    9.75553E+006    8.88213E+006    8.88213E+006    4.14184E+005   -1.78541E+006    1.06675E+007   -2.50363E+006    9.17237E+006   -1.73908E+006    8.82758E+006    4.22404E+005   -5.06370E+005   -1.95328E+005   -5.16378E+005
            3530    1.01940E+007    8.97387E+006    8.97387E+006    1.05337E+005   -2.16334E+006    1.11372E+007   -2.30529E+006    9.60104E+006   -2.10248E+006    8.84711E+006    1.71245E+005   -7.12560E+005   -1.27751E+005   -8.52174E+005
            3531    1.09602E+007    9.30712E+006    9.30712E+006   -3.52313E+005   -2.60409E+006    1.19112E+007   -2.11690E+006    1.04205E+007   -2.53156E+006    9.08822E+006   -2.05953E+005   -8.80039E+005   -2.85646E+004   -1.21045E+006
            3532    1.18373E+007    9.70126E+006    9.70126E+006   -9.37539E+005   -3.05009E+006    1.27514E+007   -1.90454E+006    1.14016E+007   -2.97030E+006    9.45726E+006   -7.73326E+005   -9.90840E+005    5.16175E+004   -1.31668E+006
            3533    1.20919E+007    9.48352E+006    9.48352E+006   -1.29701E+006   -3.59110E+006    1.30746E+007   -1.53180E+006    1.15870E+007   -3.50267E+006    9.25170E+006   -1.15363E+006   -1.06562E+006    1.08138E+005   -1.23033E+006
            3534    1.95034E+007    1.64565E+007    1.64565E+007   -9.60750E+005   -4.61584E+006    2.10723E+007   -3.62663E+006    1.87094E+007   -4.55011E+006    1.63794E+007   -9.49382E+005   -1.17068E+006    6.60460E+004   -4.50685E+005
            3535    1.87249E+007    1.56073E+007    1.56073E+007   -1.10488E+006   -4.62950E+006    2.02368E+007   -3.29096E+006    1.79557E+007   -4.55519E+006    1.54457E+007   -1.01766E+006   -1.19213E+006    1.83936E+005   -1.21932E+006
            3536    1.74386E+007    1.42660E+007    1.42660E+007   -1.27899E+006   -4.59102E+006    1.88571E+007   -2.79868E+006    1.67088E+007   -4.50383E+006    1.40012E+007   -1.10132E+006   -1.21794E+006    2.66777E+005   -1.67235E+006
            3537    1.60023E+007    1.28511E+007    1.28511E+007   -1.41598E+006   -4.45160E+006    1.73027E+007   -2.32783E+006    1.53343E+007   -4.35407E+006    1.25123E+007   -1.17477E+006   -1.22486E+006    3.01140E+005   -1.85650E+006
            3538    1.45883E+007    1.15308E+007    1.15308E+007   -1.44631E+006   -4.25916E+006    1.57899E+007   -1.94176E+006    1.39585E+007   -4.15843E+006    1.11691E+007   -1.18534E+006   -1.20064E+006    2.86808E+005   -1.82998E+006
            3539    1.34364E+007    1.05077E+007    1.05077E+007   -1.43273E+006   -4.04191E+006    1.45497E+007   -1.67770E+006    1.28478E+007   -3.94256E+006    1.01604E+007   -1.18474E+006   -1.15861E+006    2.52228E+005   -1.70429E+006
            3540    1.25261E+007    9.71619E+006    9.71619E+006   -1.31643E+006   -3.90031E+006    1.36165E+007   -1.49981E+006    1.19041E+007   -3.80367E+006    9.42089E+006   -1.11778E+006   -1.12822E+006    1.77278E+005   -1.46126E+006
            3541    1.72894E+007    1.45824E+007    1.45824E+007   -1.78928E+006   -3.49779E+006    1.80802E+007   -3.09845E+006    1.70979E+007   -3.24707E+006    1.43253E+007   -1.78292E+006    2.11326E+006   -2.26771E+004   -3.26028E+005
            3542    1.55391E+007    1.38423E+007    1.38423E+007   -1.63426E+006   -1.75854E+006    1.56008E+007   -3.48317E+006    1.55380E+007   -1.50429E+006    1.37033E+007   -1.74947E+006    1.43995E+006    1.69235E+003   -2.47676E+005
            3543    1.44073E+007    1.30952E+007    1.30952E+007   -8.55590E+005   -1.72889E+006    1.48241E+007   -3.50358E+006    1.43476E+007   -7.69157E+005    1.30046E+007   -1.72468E+006    1.10280E+006    1.71700E+004   -2.09582E+005
            3544    1.37245E+007    1.28163E+007    1.28163E+007   -1.70471E+005   -1.54285E+006    1.43592E+007   -3.70100E+006    1.35689E+007   -1.58134E+005    1.28023E+007   -1.54114E+006    4.05770E+005    1.76687E+004   -1.40341E+005
            3545    1.68644E+007    1.41787E+007    1.41787E+007   -1.74866E+006   -3.48792E+006    1.76666E+007   -2.98071E+006    1.66608E+007   -3.24145E+006    1.38830E+007   -1.69945E+006    2.05951E+006   -4.41181E+004   -9.05144E+005
            3546    1.52694E+007    1.35600E+007    1.35600E+007   -1.60800E+006   -1.80887E+006    1.53689E+007   -3.38104E+006    1.52664E+007   -1.56496E+006    1.33908E+007   -1.68269E+006    1.41965E+006    3.05661E+004   -7.43383E+005
            3547    1.41855E+007    1.28828E+007    1.28828E+007   -8.96994E+005   -1.67632E+006    1.45591E+007   -3.43650E+006    1.41372E+007   -8.27346E+005    1.27713E+007   -1.63445E+006    1.10271E+006    7.44134E+004   -5.81599E+005
            3548    1.34874E+007    1.25948E+007    1.25948E+007   -2.16910E+005   -1.47949E+006    1.40743E+007   -3.63280E+006    1.33535E+007   -2.08883E+005    1.25667E+007   -1.45936E+006    4.35520E+005    7.76962E+004   -4.35752E+005
            3549    1.60908E+007    1.34292E+007    1.34292E+007   -1.69875E+006   -3.47673E+006    1.69059E+007   -2.75124E+006    1.58675E+007   -3.24057E+006    1.30784E+007   -1.58409E+006    1.95649E+006   -6.46041E+004   -1.34127E+006
            3550    1.47454E+007    1.30345E+007    1.30345E+007   -1.53020E+006   -1.88506E+006    1.49196E+007   -3.20642E+006    1.47358E+007   -1.67989E+006    1.28183E+007   -1.51915E+006    1.37816E+006    3.97290E+004   -1.12989E+006
            3551    1.37503E+007    1.24586E+007    1.24586E+007   -9.82683E+005   -1.58122E+006    1.40398E+007   -3.29822E+006    1.37209E+007   -9.62920E+005    1.23099E+007   -1.45230E+006    1.09772E+006    1.18750E+005   -9.14908E+005
            3552    1.30357E+007    1.21828E+007    1.21828E+007   -3.26743E+005   -1.32196E+006    1.35048E+007   -3.51137E+006    1.29498E+007   -3.30649E+005    1.21315E+007   -1.26672E+006    4.90379E+005    1.24379E+005   -6.62034E+005
            3553    1.51494E+007    1.25151E+007    1.25151E+007   -1.63432E+006   -3.46753E+006    1.59826E+007   -2.47107E+006    1.48968E+007   -3.24284E+006    1.21235E+007   -1.46749E+006    1.82395E+006   -4.09663E+004   -1.58352E+006
            3554    1.39876E+007    1.22626E+007    1.22626E+007   -1.39474E+006   -2.03351E+006    1.42961E+007   -2.94477E+006    1.39548E+007   -1.82961E+006    1.19938E+007   -1.32985E+006    1.31557E+006    7.96733E+004   -1.41598E+006
            3555    1.31547E+007    1.18913E+007    1.18913E+007   -9.72506E+005   -1.53624E+006    1.34275E+007   -3.12751E+006    1.31275E+007   -1.12154E+006    1.17076E+007   -1.20352E+006    1.08523E+006    1.86658E+005   -1.12015E+006
            3556    1.24519E+007    1.16243E+007    1.16243E+007   -4.25068E+005   -1.19434E+006    1.28187E+007   -3.33497E+006    1.23982E+007   -4.82041E+005    1.15417E+007   -1.05471E+006    5.61047E+005    1.99715E+005   -8.56674E+005
            3557    1.40573E+007    1.14355E+007    1.14355E+007   -1.54660E+006   -3.49395E+006    1.49295E+007   -2.13165E+006    1.37489E+007   -3.28371E+006    1.10242E+007   -1.34554E+006    1.68014E+006   -1.78119E+004   -1.67295E+006
            3558    1.31782E+007    1.14630E+007    1.14630E+007   -1.15431E+006   -2.21231E+006    1.36753E+007   -2.69879E+006    1.30821E+007   -2.03789E+006    1.11677E+007   -1.03341E+006    1.25058E+006    1.00121E+005   -1.50683E+006
            3559    1.24827E+007    1.12092E+007    1.12092E+007   -8.26499E+005   -1.67703E+006    1.28862E+007   -2.90188E+006    1.24172E+007   -1.41227E+006    1.10004E+007   -8.82466E+005    1.07019E+006    2.41349E+005   -1.21499E+006
            3560    1.18122E+007    1.09768E+007    1.09768E+007   -4.77377E+005   -1.16353E+006    1.21403E+007   -3.11197E+006    1.17672E+007   -7.84337E+005    1.08685E+007   -7.48237E+005    6.49110E+005    2.92578E+005   -9.37884E+005
            3561    1.33097E+007    1.07171E+007    1.07171E+007   -1.42106E+006   -3.51566E+006    1.42328E+007   -1.92679E+006    1.29310E+007   -3.30982E+006    1.03110E+007   -1.22077E+006    1.58730E+006    3.34163E+004   -1.64818E+006
            3562    1.23043E+007    1.06031E+007    1.06031E+007   -9.13171E+005   -2.36112E+006    1.29642E+007   -2.44293E+006    1.21104E+007   -2.21291E+006    1.02966E+007   -7.54872E+005    1.19278E+006    8.50517E+004   -1.49800E+006
            3563    1.18608E+007    1.05738E+007    1.05738E+007   -6.41427E+005   -1.84138E+006    1.24152E+007   -2.69701E+006    1.17231E+007   -1.65972E+006    1.03667E+007   -6.15957E+005    1.02263E+006    2.27164E+005   -1.18543E+006
            3564    1.11966E+007    1.03479E+007    1.03479E+007   -3.37499E+005   -1.29801E+006    1.16459E+007   -2.90412E+006    1.11033E+007   -1.08704E+006    1.02209E+007   -4.21492E+005    7.07762E+005    3.05755E+005   -9.64935E+005
            3565    1.24477E+007    9.95098E+006    9.95098E+006   -9.36196E+005   -3.61962E+006    1.35706E+007   -1.79839E+006    1.17703E+007   -3.42773E+006    9.59719E+006   -7.74291E+005    1.52051E+006    5.29292E+004   -1.39924E+006
            3566    1.20886E+007    1.01588E+007    1.01588E+007   -8.81769E+005   -2.75842E+006    1.29172E+007   -2.17286E+006    1.17542E+007   -2.59479E+006    9.88422E+006   -7.70864E+005    1.25074E+006    1.43083E+005   -1.30233E+006
            3567    1.14283E+007    9.99653E+006    9.99653E+006   -4.76847E+005   -2.19258E+006    1.21891E+007   -2.44237E+006    1.11330E+007   -2.02979E+006    9.76544E+006   -4.08539E+005    1.03628E+006    2.40664E+005   -1.23514E+006
            3568    1.06762E+007    9.65316E+006    9.65316E+006   -1.54720E+005   -1.71887E+006    1.13720E+007   -2.59319E+006    1.04138E+007   -1.55268E+006    9.50915E+006   -1.76894E+005    7.73447E+005    3.39240E+005   -9.66804E+005
            3569    1.01429E+007    9.00210E+006    9.00210E+006    2.46967E+005   -2.11269E+006    1.11148E+007   -2.37879E+006    9.49547E+006   -2.02376E+006    8.86492E+006    2.95225E+005    8.01865E+005    2.05081E+005   -8.43403E+005
            3570    1.09064E+007    9.27786E+006    9.27786E+006   -2.44267E+005   -2.62087E+006    1.18987E+007   -2.13757E+006    1.02993E+007   -2.51760E+006    9.03582E+006   -1.05509E+005    1.00838E+006    9.05042E+004   -1.21692E+006
            3571    1.20510E+007    9.99362E+006    9.99362E+006   -5.87669E+005   -3.12344E+006    1.31171E+007   -2.09417E+006    1.14273E+007   -3.00164E+006    9.64717E+006   -3.63015E+005    1.22317E+006   -3.85146E+004   -1.54420E+006
            3572    1.35319E+007    1.09560E+007    1.09560E+007   -1.21706E+006   -3.61437E+006    1.45703E+007   -2.04152E+006    1.30412E+007   -3.49173E+006    1.06879E+007   -1.07164E+006    1.32043E+006   -8.01125E+004   -1.32403E+006
            3573    2.00141E+007    1.65183E+007    1.65183E+007   -9.93637E+005   -5.29766E+006    2.18159E+007   -3.40899E+006    1.89304E+007   -5.17024E+006    1.63822E+007   -9.84964E+005    1.65986E+006   -6.85583E+004   -3.93129E+005
            3574    1.92096E+007    1.57011E+007    1.57011E+007   -1.08926E+006   -5.24686E+006    2.09479E+007   -3.12165E+006    1.81554E+007   -5.11251E+006    1.54983E+007   -1.02088E+006    1.65352E+006   -1.88958E+005   -1.07731E+006
            3575    1.79346E+007    1.44622E+007    1.44622E+007   -1.19743E+006   -5.10341E+006    1.95656E+007   -2.72046E+006    1.69374E+007   -4.95957E+006    1.41826E+007   -1.06166E+006    1.63048E+006   -2.77332E+005   -1.46505E+006
            3576    1.63951E+007    1.30024E+007    1.30024E+007   -1.32311E+006   -4.87881E+006    1.78812E+007   -2.26683E+006    1.54916E+007   -4.73040E+006    1.26776E+007   -1.14667E+006    1.57159E+006   -3.09120E+005   -1.59269E+006
            3577    1.49635E+007    1.16989E+007    1.16989E+007   -1.41335E+006   -4.60188E+006    1.63008E+007   -1.89456E+006    1.41686E+007   -4.45829E+006    1.13798E+007   -1.23787E+006    1.47285E+006   -2.99048E+005   -1.51867E+006
            3578    1.36852E+007    1.04787E+007    1.04787E+007   -1.53977E+006   -4.41615E+006    1.48948E+007   -1.50758E+006    1.29787E+007   -4.29070E+006    1.02269E+007   -1.41347E+006    1.32251E+006   -2.43653E+005   -1.23716E+006
            3579    1.35555E+007    1.03842E+007    1.03842E+007   -1.84900E+006   -4.18899E+006    1.45731E+007   -1.44872E+006    1.30895E+007   -4.07813E+006    1.01993E+007   -1.77505E+006    1.25214E+006   -1.49328E+005   -9.50800E+005
            3580    9.72064E+006    8.92304E+006    8.92304E+006    4.90906E+005   -1.70905E+006    1.06321E+007   -2.56830E+006    9.13499E+006   -1.63684E+006    8.86649E+006    4.75240E+005    5.50795E+005    2.80667E+005   -4.99169E+005
            3581    9.52937E+006    8.93818E+006    8.93818E+006    6.22968E+005   -1.46057E+006    1.03987E+007   -2.70019E+006    8.99521E+006   -1.40114E+006    8.92496E+006    5.76766E+005    2.85738E+005    3.17699E+005   -2.19653E+005
            3582    9.49339E+006    8.95361E+006    8.95361E+006    6.15054E+005   -1.37812E+006    1.03317E+007   -2.73018E+006    9.00439E+006   -1.32175E+006    8.95361E+006    5.58686E+005    2.44562E+003    3.30414E+005   -7.21632E+002
            3583    9.53005E+006    8.93321E+006    8.93321E+006    6.14620E+005   -1.46488E+006    1.03981E+007   -2.69432E+006    8.99809E+006   -1.40621E+006    8.92066E+006    5.68507E+005   -2.80427E+005    3.16274E+005    2.11988E+005
            3584    9.73099E+006    8.92409E+006    8.92409E+006    4.90679E+005   -1.72304E+006    1.06471E+007   -2.56391E+006    9.13832E+006   -1.65095E+006    8.86679E+006    4.75892E+005   -5.54444E+005    2.79720E+005    5.02860E+005
            3585    1.01705E+007    8.99932E+006    8.99932E+006    2.00900E+005   -2.13634E+006    1.11357E+007   -2.35463E+006    9.53776E+006   -2.05015E+006    8.86811E+006    2.45922E+005   -7.94721E+005    1.99353E+005    8.19254E+005
            3586    1.09197E+007    9.29574E+006    9.29574E+006   -2.23379E+005   -2.62486E+006    1.19206E+007   -2.14917E+006    1.03002E+007   -2.52111E+006    9.06941E+006   -1.00793E+005   -1.01071E+006    9.89742E+004    1.15492E+006
            3587    1.18391E+007    9.69194E+006    9.69194E+006   -7.30371E+005   -3.18052E+006    1.28725E+007   -1.92702E+006    1.12472E+007   -3.06833E+006    9.44738E+006   -5.98006E+005   -1.16600E+006   -4.16767E+003    1.19133E+006
            3588    1.21466E+007    9.63426E+006    9.63426E+006   -9.37816E+005   -3.63390E+006    1.32682E+007   -1.68752E+006    1.14440E+007   -3.52760E+006    9.43247E+006   -8.42321E+005   -1.17570E+006   -1.26834E+005    9.95519E+005
            3589    1.02364E+007    9.54720E+006    9.54720E+006    1.52550E+005   -1.36214E+006    1.09093E+007   -2.77921E+006    9.97959E+006   -1.20181E+006    9.48558E+006    5.38481E+004    4.92448E+005    4.07836E+005   -6.27172E+005
            3590    1.08860E+007    1.02811E+007    1.02811E+007   -1.20372E+005   -1.03207E+006    1.13131E+007   -3.04288E+006    1.07996E+007   -8.10090E+005    1.02276E+007   -2.88835E+005    4.21318E+005    3.57643E+005   -6.42911E+005
            3591    1.16321E+007    1.09904E+007    1.09904E+007   -2.90296E+005   -9.63902E+005    1.19543E+007   -3.24539E+006    1.15881E+007   -5.73526E+005    1.09479E+007   -6.38178E+005    3.78053E+005    3.15157E+005   -6.02056E+005
            3592    1.23392E+007    1.16540E+007    1.16540E+007   -2.97936E+005   -1.03911E+006    1.26931E+007   -3.43897E+006    1.22890E+007   -3.62934E+005    1.16247E+007   -9.44882E+005    3.24155E+005    2.08263E+005   -5.13539E+005
            3593    1.29953E+007    1.22254E+007    1.22254E+007   -2.81199E+005   -1.20877E+006    1.34342E+007   -3.57849E+006    1.29205E+007   -2.95321E+005    1.22071E+007   -1.17631E+006    2.95722E+005    1.29144E+005   -3.93205E+005
            3594    1.34784E+007    1.26407E+007    1.26407E+007   -2.31081E+005   -1.37185E+006    1.40125E+007   -3.67925E+006    1.33692E+007   -2.30620E+005    1.26306E+007   -1.36219E+006    2.82080E+005    7.54372E+004   -2.36728E+005
            3595    1.37403E+007    1.28596E+007    1.28596E+007   -2.22644E+005   -1.45550E+006    1.43151E+007   -3.72717E+006    1.36150E+007   -2.17028E+005    1.28531E+007   -1.45462E+006    2.78066E+005    1.72192E+004   -9.13269E+004
            3596    1.00216E+007    9.47545E+006    9.47545E+006    2.63244E+005   -1.19554E+006    1.06710E+007   -2.84772E+006    9.77839E+006   -1.03835E+006    9.46102E+006    1.20474E+005    2.42427E+005    4.38610E+005   -2.97368E+005
            3597    1.06249E+007    1.01606E+007    1.01606E+007    1.50188E+004   -8.86157E+005    1.10467E+007   -3.09648E+006    1.05384E+007   -6.64715E+005    1.01491E+007   -1.94940E+005    1.92188E+005    3.80886E+005   -2.95694E+005
            3598    1.13670E+007    1.08410E+007    1.08410E+007   -1.74258E+005   -8.47899E+005    1.16889E+007   -3.27294E+006    1.13220E+007   -4.31269E+005    1.08334E+007   -5.83278E+005    1.49658E+005    3.24395E+005   -2.57646E+005
            3599    1.20774E+007    1.14985E+007    1.14985E+007   -1.55958E+005   -9.61582E+005    1.24601E+007   -3.46032E+006    1.20168E+007   -2.15048E+005    1.14946E+007   -8.98574E+005    1.04225E+005    2.09846E+005   -1.94389E+005
            3600    1.26946E+007    1.20326E+007    1.20326E+007   -1.10784E+005   -1.14944E+006    1.31821E+007   -3.59080E+006    1.25985E+007   -1.27564E+005    1.20310E+007   -1.13108E+006    7.32324E+004    1.31898E+005   -1.23108E+005
            3601    1.31610E+007    1.24280E+007    1.24280E+007   -3.66278E+004   -1.33341E+006    1.37614E+007   -3.68598E+006    1.30161E+007   -4.11877E+004    1.24273E+007   -1.32822E+006    5.17806E+004    7.82283E+004   -7.66595E+004
            3602    1.33986E+007    1.26295E+007    1.26295E+007   -1.19725E+004   -1.41583E+006    1.40453E+007   -3.73389E+006    1.32317E+007   -1.20913E+004    1.26293E+007   -1.41557E+006    3.97263E+004    1.84404E+004   -1.68171E+004
            3603    9.95487E+006    9.48476E+006    9.48476E+006    3.35329E+005   -1.11618E+006    1.06009E+007   -2.90130E+006    9.71251E+006   -9.58587E+005    9.48471E+006    1.77787E+005   -1.53382E+004    4.51514E+005    1.66876E+004
            3604    1.05942E+007    1.01749E+007    1.01749E+007    6.07204E+004   -8.41556E+005    1.10164E+007   -3.13135E+006    1.05072E+007   -6.13356E+005    1.01744E+007   -1.67020E+005   -3.89206E+004    3.91920E+005    5.88426E+004
            3605    1.13779E+007    1.08872E+007    1.08872E+007   -1.39794E+005   -8.11759E+005    1.16990E+007   -3.31190E+006    1.13331E+007   -4.08036E+005    1.08860E+007   -5.42306E+005   -5.78529E+004    3.28630E+005    1.03821E+005
            3606    1.21468E+007    1.15782E+007    1.15782E+007   -1.66495E+005   -9.34351E+005    1.25125E+007   -3.49245E+006    1.20920E+007   -2.30908E+005    1.15764E+007   -8.68111E+005   -7.33354E+004    2.12742E+005    1.31960E+005
            3607    1.28422E+007    1.21692E+007    1.21692E+007   -1.58250E+005   -1.13222E+006    1.33014E+007   -3.62625E+006    1.27587E+007   -1.76261E+005    1.21674E+007   -1.11241E+006   -8.26616E+004    1.32327E+005    1.29018E+005
            3608    1.33524E+007    1.25980E+007    1.25980E+007   -1.15334E+005   -1.31291E+006    1.39109E+007   -3.72324E+006    1.32308E+007   -1.19734E+005    1.25967E+007   -1.30724E+006   -8.75025E+004    7.65727E+004    9.70370E+004
            3609    1.36282E+007    1.28268E+007    1.28268E+007   -1.09024E+005   -1.40180E+006    1.42286E+007   -3.77198E+006    1.34892E+007   -1.08660E+005    1.28261E+007   -1.40148E+006   -8.98170E+004    1.81188E+004    2.85829E+004
            3610    1.00218E+007    9.45681E+006    9.45681E+006    2.62115E+005   -1.22567E+006    1.06825E+007   -2.83108E+006    9.76866E+006   -1.07174E+006    9.43839E+006    1.26605E+005   -2.71752E+005    4.35508E+005    3.37157E+005
            3611    1.06378E+007    1.01296E+007    1.01296E+007   -9.97278E+003   -9.44679E+005    1.10743E+007   -3.05831E+006    1.05448E+007   -7.29093E+005    1.01074E+007   -2.03365E+005   -2.66813E+005    3.79749E+005    4.11043E+005
            3612    1.13987E+007    1.08181E+007    1.08181E+007   -2.27043E+005   -9.04033E+005    1.17221E+007   -3.22900E+006    1.13533E+007   -5.13644E+005    1.07932E+007   -5.92563E+005   -2.76536E+005    3.24537E+005    4.62444E+005
            3613    1.21397E+007    1.14938E+007    1.14938E+007   -2.42669E+005   -1.01261E+006    1.25064E+007   -3.41283E+006    1.20846E+007   -3.06941E+005    1.14706E+007   -9.25184E+005   -2.74489E+005    2.11771E+005    4.61159E+005
            3614    1.28004E+007    1.20627E+007    1.20627E+007   -2.08934E+005   -1.20804E+006    1.32707E+007   -3.54857E+006    1.27123E+007   -2.22855E+005    1.20446E+007   -1.17606E+006   -2.79081E+005    1.31926E+005    3.96874E+005
            3615    1.32898E+007    1.24812E+007    1.24812E+007   -1.38064E+005   -1.39038E+006    1.38716E+007   -3.65092E+006    1.31560E+007   -1.37408E+005    1.24700E+007   -1.37985E+006   -2.80066E+005    7.74420E+004    2.64250E+005
            3616    1.35431E+007    1.26963E+007    1.26963E+007   -1.15626E+005   -1.47536E+006    1.41716E+007   -3.70176E+006    1.33882E+007   -1.09685E+005    1.26894E+007   -1.47440E+006   -2.83223E+005    1.88848E+004    9.50293E+004
            3617    1.02423E+007    9.49856E+006    9.49856E+006    1.24003E+005   -1.43314E+006    1.09317E+007   -2.72981E+006    9.97076E+006   -1.27524E+006    9.42873E+006    3.59249E+004   -5.33188E+005    4.01430E+005    6.60459E+005
            3618    1.08901E+007    1.02189E+007    1.02189E+007   -1.51355E+005   -1.12554E+006    1.13444E+007   -2.98066E+006    1.07914E+007   -9.17219E+005    1.01446E+007   -2.85344E+005   -5.10210E+005    3.48858E+005    7.47226E+005
            3619    1.16693E+007    1.09339E+007    1.09339E+007   -3.74770E+005   -1.06534E+006    1.19992E+007   -3.16460E+006    1.16232E+007   -7.13580E+005    1.08588E+007   -6.51381E+005   -5.15282E+005    3.10801E+005    7.92240E+005
            3620    1.24556E+007    1.16574E+007    1.16574E+007   -4.36813E+005   -1.13054E+006    1.27880E+007   -3.36336E+006    1.24120E+007   -5.10078E+005    1.15912E+007   -9.91031E+005   -5.05864E+005    2.06569E+005    7.64727E+005
            3621    1.31762E+007    1.22908E+007    1.22908E+007   -4.33314E+005   -1.29523E+006    1.35860E+007   -3.52076E+006    1.31126E+007   -4.39866E+005    1.22414E+007   -1.23928E+006   -5.09919E+005    1.25156E+005    6.31183E+005
            3622    1.37109E+007    1.27555E+007    1.27555E+007   -3.85066E+005   -1.46221E+006    1.42177E+007   -3.63606E+006    1.36152E+007   -3.72816E+005    1.27234E+007   -1.44243E+006   -5.11712E+005    7.46632E+004    4.17126E+005
            3623    1.39990E+007    1.30050E+007    1.30050E+007   -3.77067E+005   -1.53853E+006    1.45435E+007   -3.69646E+006    1.38899E+007   -3.57444E+005    1.29837E+007   -1.53687E+006   -5.16648E+005    1.49533E+004    1.38439E+005
            3624    1.06903E+007    9.59720E+006    9.59720E+006   -1.61661E+005   -1.82862E+006    1.14258E+007   -2.53564E+006    1.03918E+007   -1.67088E+006    9.44615E+006   -1.68355E+005   -8.06209E+005    3.27199E+005    9.77841E+005
            3625    1.12416E+007    1.02505E+007    1.02505E+007   -4.07353E+005   -1.49581E+006    1.17463E+007   -2.78243E+006    1.11222E+007   -1.30164E+006    1.00971E+007   -4.48165E+005   -7.96921E+005    2.92639E+005    1.04578E+006
            3626    1.19705E+007    1.09500E+007    1.09500E+007   -6.33461E+005   -1.37322E+006    1.23232E+007   -2.98110E+006    1.19189E+007   -1.06141E+006    1.07916E+007   -7.86920E+005   -8.24411E+005    2.76887E+005    1.11159E+006
            3627    1.27097E+007    1.16674E+007    1.16674E+007   -7.09055E+005   -1.35119E+006    1.30186E+007   -3.20240E+006    1.26732E+007   -7.92990E+005    1.15279E+007   -1.12767E+006   -8.22075E+005    1.95358E+005    1.05778E+006
            3628    1.33624E+007    1.22829E+007    1.22829E+007   -6.66947E+005   -1.45693E+006    1.37398E+007   -3.38634E+006    1.33097E+007   -6.53811E+005    1.21751E+007   -1.36227E+006   -8.24872E+005    1.17223E+005    8.75311E+005
            3629    1.38570E+007    1.27467E+007    1.27467E+007   -5.71527E+005   -1.59267E+006    1.43394E+007   -3.52749E+006    1.37720E+007   -5.32167E+005    1.26730E+007   -1.55833E+006   -8.20659E+005    7.20265E+004    5.77854E+005
            3630    1.41139E+007    1.29866E+007    1.29866E+007   -5.34752E+005   -1.65317E+006    1.46398E+007   -3.59957E+006    1.40136E+007   -4.85170E+005    1.29337E+007   -1.64985E+006   -8.22701E+005    1.52986E+004    1.98209E+005
            3631    1.13047E+007    9.78467E+006    9.78467E+006   -5.10441E+005   -2.31305E+006    1.20977E+007   -2.32039E+006    1.09744E+007   -2.15484E+006    9.56011E+006   -4.44094E+005   -1.03985E+006    2.38384E+005    1.19119E+006
            3632    1.18720E+007    1.04629E+007    1.04629E+007   -6.94976E+005   -2.01325E+006    1.24762E+007   -2.58490E+006    1.17057E+007   -1.84902E+006    1.02242E+007   -6.20484E+005   -1.05276E+006    1.92171E+005    1.30006E+006
            3633    1.27172E+007    1.12516E+007    1.12516E+007   -9.44196E+005   -1.92969E+006    1.31813E+007   -2.79256E+006    1.26308E+007   -1.70520E+006    1.10075E+007   -9.24585E+005   -1.16321E+006    2.04088E+005    1.32226E+006
            3634    1.35189E+007    1.20197E+007    1.20197E+007   -1.18080E+006   -1.79648E+006    1.38162E+007   -3.01415E+006    1.34873E+007   -1.50780E+006    1.17865E+007   -1.23627E+006   -1.25737E+006    1.60230E+005    1.25669E+006
            3635    1.42722E+007    1.27212E+007    1.27212E+007   -1.34986E+006   -1.74394E+006    1.44652E+007   -3.20914E+006    1.42599E+007   -1.41559E+006    1.25180E+007   -1.47497E+006   -1.35051E+006    9.89711E+004    1.03593E+006
            3636    1.48288E+007    1.32380E+007    1.32380E+007   -1.41644E+006   -1.75926E+006    1.49973E+007   -3.35411E+006    1.48199E+007   -1.33887E+006    1.30684E+007   -1.66720E+006   -1.42124E+006    6.50259E+004    6.86714E+005
            3637    1.51559E+007    1.35354E+007    1.35354E+007   -1.46468E+006   -1.77179E+006    1.53072E+007   -3.43297E+006    1.51489E+007   -1.32372E+006    1.33866E+007   -1.76399E+006   -1.46885E+006    1.29675E+004    2.34604E+005
            3638    1.18447E+007    9.82552E+006    9.82552E+006   -8.34495E+005   -2.92546E+006    1.27510E+007   -2.02185E+006    1.14184E+007   -2.76337E+006    9.52220E+006   -6.93262E+005   -1.25396E+006    1.33324E+005    1.38312E+006
            3639    1.24500E+007    1.05640E+007    1.05640E+007   -1.06235E+006   -2.57198E+006    1.31360E+007   -2.30988E+006    1.22415E+007   -2.42005E+006    1.02434E+007   -8.93758E+005   -1.24462E+006    6.75053E+004    1.52483E+006
            3640    1.32829E+007    1.13935E+007    1.13935E+007   -1.19340E+006   -2.49022E+006    1.38837E+007   -2.56997E+006    1.31393E+007   -2.32845E+006    1.10746E+007   -1.03623E+006   -1.33717E+006    4.44564E+004    1.53557E+006
            3641    1.42540E+007    1.23264E+007    1.23264E+007   -1.41920E+006   -2.38677E+006    1.47131E+007   -2.84013E+006    1.41798E+007   -2.20738E+006    1.20264E+007   -1.29867E+006   -1.44106E+006    3.54794E+004    1.46623E+006
            3642    1.51373E+007    1.31809E+007    1.31809E+007   -1.55682E+006   -2.32668E+006    1.55076E+007   -3.09912E+006    1.50932E+007   -2.15340E+006    1.29247E+007   -1.47389E+006   -1.54266E+006   -8.82748E+003    1.21583E+006
            3643    1.58553E+007    1.38603E+007    1.38603E+007   -1.67305E+006   -2.29841E+006    1.61587E+007   -3.29627E+006    1.58275E+007   -2.12197E+006    1.36528E+007   -1.64201E+006   -1.62125E+006    1.62122E+003    8.16762E+005
            3644    1.62721E+007    1.42543E+007    1.42543E+007   -1.72154E+006   -2.29873E+006    1.65531E+007   -3.41135E+006    1.62491E+007   -2.12792E+006    1.40790E+007   -1.71699E+006   -1.67050E+006   -1.32454E+004    2.81743E+005
            3645    1.26145E+007    1.00465E+007    1.00465E+007   -1.09770E+006   -3.64844E+006    1.36950E+007   -1.76680E+006    1.20136E+007   -3.48808E+006    9.72764E+006   -9.39152E+005   -1.41879E+006    1.40575E+004    1.36878E+006
            3646    1.31415E+007    1.05769E+007    1.05769E+007   -1.25394E+006   -3.56784E+006    1.41447E+007   -1.91837E+006    1.26709E+007   -3.38572E+006    1.01976E+007   -1.05677E+006   -1.52595E+006   -4.45451E+002    1.57235E+006
            3647    1.41301E+007    1.14827E+007    1.14827E+007   -1.41296E+006   -3.62167E+006    1.51044E+007   -2.14935E+006    1.37336E+007   -3.42218E+006    1.10700E+007   -1.19981E+006   -1.67851E+006   -6.03711E+004    1.67723E+006
            3648    1.52308E+007    1.24800E+007    1.24800E+007   -1.54393E+006   -3.72308E+006    1.62030E+007   -2.40431E+006    1.48740E+007   -3.50349E+006    1.20749E+007   -1.35847E+006   -1.83234E+006   -6.50778E+004    1.63519E+006
            3649    1.63681E+007    1.35341E+007    1.35341E+007   -1.61871E+006   -3.82535E+006    1.73595E+007   -2.69669E+006    1.60283E+007   -3.59142E+006    1.31665E+007   -1.48498E+006   -1.98376E+006   -9.47584E+004    1.42799E+006
            3650    1.73089E+007    1.44013E+007    1.44013E+007   -1.67010E+006   -3.92420E+006    1.83255E+007   -2.93566E+006    1.69739E+007   -3.67930E+006    1.40970E+007   -1.61069E+006   -2.09522E+006   -6.03543E+004    9.85371E+005
            3651    1.78652E+007    1.49112E+007    1.49112E+007   -1.69210E+006   -3.99284E+006    1.89041E+007   -3.07543E+006    1.75272E+007   -3.74249E+006    1.46531E+007   -1.68431E+006   -2.16046E+006   -3.35384E+004    3.58699E+005
            3652    2.02841E+007    1.66869E+007    1.66869E+007   -9.48301E+005   -5.47952E+006    2.21665E+007   -3.41971E+006    1.90949E+007   -5.35697E+006    1.65551E+007   -9.38964E+005   -1.64041E+006   -7.44222E+004    4.10335E+005
            3653    1.94203E+007    1.58172E+007    1.58172E+007   -1.06535E+006   -5.40620E+006    2.12234E+007   -3.11522E+006    1.82803E+007   -5.27355E+006    1.56143E+007   -9.95060E+005   -1.64718E+006   -2.11043E+005    1.10108E+006
            3654    1.80071E+007    1.44529E+007    1.44529E+007   -1.20515E+006   -5.22416E+006    1.96771E+007   -2.67453E+006    1.69534E+007   -5.07897E+006    1.41652E+007   -1.06265E+006   -1.63658E+006   -2.95766E+005    1.50338E+006
            3655    1.64377E+007    1.30235E+007    1.30235E+007   -1.27968E+006   -4.93370E+006    1.79572E+007   -2.27004E+006    1.54838E+007   -4.78193E+006    1.26819E+007   -1.08982E+006   -1.58666E+006   -3.29574E+005    1.65140E+006
            3656    1.49178E+007    1.17157E+007    1.17157E+007   -1.26363E+006   -4.58177E+006    1.62975E+007   -1.95678E+006    1.40511E+007   -4.43442E+006    1.13677E+007   -1.06296E+006   -1.49250E+006   -3.11213E+005    1.60937E+006
            3657    1.37020E+007    1.07207E+007    1.07207E+007   -1.18213E+006   -4.25772E+006    1.49785E+007   -1.76030E+006    1.28906E+007   -4.12430E+006    1.04037E+007   -9.98493E+005   -1.37106E+006   -2.64644E+005    1.46913E+006
            3658    1.26763E+007    9.95013E+006    9.95013E+006   -9.46114E+005   -3.96221E+006    1.39123E+007   -1.68060E+006    1.18279E+007   -3.84515E+006    9.70298E+006   -8.16021E+005   -1.23178E+006   -2.42949E+005    1.19328E+006
            3659    1.35165E+007    1.09288E+007    1.09288E+007   -1.22986E+006   -3.62537E+006    1.45541E+007   -2.02452E+006    1.30261E+007   -3.50278E+006    1.06630E+007   -1.08665E+006    1.31969E+006    8.02911E+004    1.31307E+006
            3660    1.20926E+007    1.00264E+007    1.00264E+007   -6.03682E+005   -3.12971E+006    1.31561E+007   -2.09767E+006    1.14763E+007   -3.00719E+006    9.67837E+006   -3.78162E+005    1.22864E+006    3.94663E+004    1.55066E+006
            3661    1.09285E+007    9.29495E+006    9.29495E+006   -2.49648E+005   -2.62633E+006    1.19213E+007   -2.13966E+006    1.03227E+007   -2.52276E+006    9.04961E+006   -1.07881E+005    1.01268E+006   -8.73585E+004    1.22847E+006
            3662    1.01518E+007    9.01095E+006    9.01095E+006    2.44331E+005   -2.11168E+006    1.11226E+007   -2.38120E+006    9.50702E+006   -2.02267E+006    8.87230E+006    2.93981E+005    8.03325E+005   -2.03828E+005    8.50585E+005
            3663    1.06925E+007    9.67003E+006    9.67003E+006   -1.58620E+005   -1.71557E+006    1.13856E+007   -2.59861E+006    1.04329E+007   -1.54901E+006    9.52519E+006   -1.80331E+005    7.74988E+005   -3.38233E+005    9.71279E+005
            3664    1.12256E+007    1.03741E+007    1.03741E+007   -3.46678E+005   -1.29607E+006    1.16702E+007   -2.91045E+006    1.11348E+007   -1.08249E+006    1.02464E+007   -4.32578E+005    7.10699E+005   -3.04784E+005    9.68976E+005
            3665    1.18379E+007    1.10016E+007    1.10016E+007   -4.81123E+005   -1.16218E+006    1.21637E+007   -3.11942E+006    1.17937E+007   -7.76853E+005    1.08938E+007   -7.58709E+005    6.48883E+005   -2.90104E+005    9.35828E+005
            3666    1.24747E+007    1.16473E+007    1.16473E+007   -4.20348E+005   -1.19822E+006    1.28455E+007   -3.34289E+006    1.24200E+007   -4.74549E+005    1.15660E+007   -1.06274E+006    5.57509E+005   -1.97755E+005    8.49954E+005
            3667    1.30525E+007    1.21978E+007    1.21978E+007   -3.22859E+005   -1.32827E+006    1.35261E+007   -3.51557E+006    1.29649E+007   -3.26473E+005    1.21471E+007   -1.27391E+006    4.89422E+005   -1.24185E+005    6.57449E+005
            3668    1.34967E+007    1.26038E+007    1.26038E+007   -2.14431E+005   -1.48186E+006    1.40857E+007   -3.63584E+006    1.33618E+007   -2.06171E+005    1.25758E+007   -1.46211E+006    4.36558E+005   -7.68007E+004    4.32297E+005
            3669    1.37251E+007    1.28162E+007    1.28162E+007   -1.71045E+005   -1.54349E+006    1.43597E+007   -3.70057E+006    1.35694E+007   -1.58626E+005    1.28022E+007   -1.54187E+006    4.06553E+005   -1.66970E+004    1.36939E+005
            3670    1.14514E+007    1.00154E+007    1.00154E+007   -4.86512E+005   -2.19384E+006    1.22092E+007   -2.44501E+006    1.11597E+007   -2.03045E+006    9.78297E+006   -4.17479E+005    1.04073E+006   -2.39009E+005    1.23967E+006
            3671    1.18871E+007    1.05954E+007    1.05954E+007   -6.51061E+005   -1.84257E+006    1.24380E+007   -2.70061E+006    1.17517E+007   -1.66087E+006    1.03862E+007   -6.23482E+005    1.02775E+006   -2.23863E+005    1.19370E+006
            3672    1.25290E+007    1.12488E+007    1.12488E+007   -8.42239E+005   -1.67660E+006    1.29254E+007   -2.90997E+006    1.24663E+007   -1.40941E+006    1.10390E+007   -8.99643E+005    1.07576E+006   -2.37874E+005    1.21913E+006
            3673    1.31829E+007    1.19168E+007    1.19168E+007   -9.77656E+005   -1.53692E+006    1.34537E+007   -3.13406E+006    1.31562E+007   -1.11632E+006    1.17338E+007   -1.21527E+006    1.08678E+006   -1.83358E+005    1.11652E+006
            3674    1.37653E+007    1.24752E+007    1.24752E+007   -9.81074E+005   -1.57954E+006    1.40548E+007   -3.30488E+006    1.37360E+007   -9.59260E+005    1.23278E+007   -1.45389E+006    1.09732E+006   -1.16808E+005    9.07061E+005
            3675    1.41966E+007    1.28911E+007    1.28911E+007   -8.99446E+005   -1.67942E+006    1.45705E+007   -3.43740E+006    1.41482E+007   -8.29509E+005    1.27798E+007   -1.63813E+006    1.10456E+006   -7.47382E+004    5.75314E+005
            3676    1.44143E+007    1.31004E+007    1.31004E+007   -8.57980E+005   -1.73021E+006    1.48306E+007   -3.50408E+006    1.43548E+007   -7.71189E+005    1.30096E+007   -1.72614E+006    1.10526E+006   -1.73214E+004    2.04760E+005
            3677    1.20854E+007    1.01505E+007    1.01505E+007   -8.82723E+005   -2.76588E+006    1.29164E+007   -2.16731E+006    1.17485E+007   -2.60224E+006    9.87462E+006   -7.70449E+005    1.25232E+006   -1.41919E+005    1.30622E+006
            3678    1.23514E+007    1.06382E+007    1.06382E+007   -9.28783E+005   -2.37084E+006    1.30091E+007   -2.44621E+006    1.21598E+007   -2.22208E+006    1.03293E+007   -7.68641E+005    1.19941E+006   -8.24494E+004    1.50687E+006
            3679    1.32252E+007    1.14997E+007    1.14997E+007   -1.16688E+006   -2.22109E+006    1.37208E+007   -2.70391E+006    1.31302E+007   -2.04577E+006    1.12027E+007   -1.04525E+006    1.25980E+006   -9.78354E+004    1.51080E+006
            3680    1.40240E+007    1.22973E+007    1.22973E+007   -1.40057E+006   -2.03165E+006    1.43289E+007   -2.95502E+006    1.39920E+007   -1.82788E+006    1.20296E+007   -1.33664E+006    1.31927E+006   -7.80479E+004    1.41080E+006
            3681    1.47497E+007    1.30394E+007    1.30394E+007   -1.53117E+006   -1.88320E+006    1.49226E+007   -3.20833E+006    1.47402E+007   -1.67836E+006    1.28240E+007   -1.52065E+006    1.37809E+006   -3.92956E+004    1.12480E+006
            3682    1.52817E+007    1.35718E+007    1.35718E+007   -1.60930E+006   -1.80847E+006    1.53803E+007   -3.38469E+006    1.52788E+007   -1.56595E+006    1.34026E+007   -1.68260E+006    1.42011E+006   -2.97444E+004    7.43847E+005
            3683    1.55490E+007    1.38506E+007    1.38506E+007   -1.63716E+006   -1.75881E+006    1.56094E+007   -3.48488E+006    1.55479E+007   -1.50690E+006    1.37115E+007   -1.74993E+006    1.44156E+006   -1.53829E+003    2.44213E+005
            3684    1.24705E+007    9.96937E+006    9.96937E+006   -9.44931E+005   -3.62237E+006    1.35917E+007   -1.80069E+006    1.17975E+007   -3.43016E+006    9.61339E+006   -7.81169E+005    1.52155E+006   -5.37580E+004    1.40949E+006
            3685    1.33249E+007    1.07311E+007    1.07311E+007   -1.42380E+006   -3.51625E+006    1.42473E+007   -1.93034E+006    1.29475E+007   -3.31176E+006    1.03271E+007   -1.22429E+006    1.58581E+006   -3.05857E+004    1.64327E+006
            3686    1.40963E+007    1.14681E+007    1.14681E+007   -1.54881E+006   -3.50363E+006    1.49717E+007   -2.13855E+006    1.37864E+007   -3.29340E+006    1.10577E+007   -1.34867E+006    1.68637E+006    2.19518E+004    1.66795E+006
            3687    1.51699E+007    1.25345E+007    1.25345E+007   -1.62917E+006   -3.47303E+006    1.60075E+007   -2.47743E+006    1.49146E+007   -3.24830E+006    1.21431E+007   -1.46251E+006    1.82667E+006    4.20464E+004    1.58227E+006
            3688    1.61152E+007    1.34531E+007    1.34531E+007   -1.69420E+006   -3.48100E+006    1.69341E+007   -2.75931E+006    1.58900E+007   -3.24503E+006    1.31031E+007   -1.58016E+006    1.95787E+006    6.48320E+004    1.33806E+006
            3689    1.68740E+007    1.41889E+007    1.41889E+007   -1.74810E+006   -3.48725E+006    1.76762E+007   -2.98453E+006    1.66705E+007   -3.24111E+006    1.38936E+007   -1.69894E+006    2.05909E+006    4.51101E+004    9.04074E+005
            3690    1.72912E+007    1.45838E+007    1.45838E+007   -1.78729E+006   -3.50014E+006    1.80839E+007   -3.09878E+006    1.70988E+007   -3.24920E+006    1.43264E+007   -1.78082E+006    2.11441E+006    2.27325E+004    3.28749E+005
            3691    2.00070E+007    1.65083E+007    1.65083E+007   -9.95392E+005   -5.30105E+006    2.18093E+007   -3.40395E+006    1.89221E+007   -5.17371E+006    1.63714E+007   -9.85870E+005    1.65892E+006    7.03997E+004    4.11395E+005
            3692    1.92175E+007    1.57060E+007    1.57060E+007   -1.08727E+006   -5.25263E+006    2.09586E+007   -3.12202E+006    1.81597E+007   -5.11840E+006    1.55034E+007   -1.01889E+006    1.65302E+006    1.89584E+005    1.07754E+006
            3693    1.79515E+007    1.44748E+007    1.44748E+007   -1.20487E+006   -5.10678E+006    1.95816E+007   -2.72105E+006    1.69576E+007   -4.96256E+006    1.41961E+007   -1.07038E+006    1.63356E+006    2.76664E+005    1.45928E+006
            3694    1.64231E+007    1.30247E+007    1.30247E+007   -1.33115E+006   -4.88404E+006    1.79087E+007   -2.26984E+006    1.55227E+007   -4.73530E+006    1.26991E+007   -1.15425E+006    1.57563E+006    3.07507E+005    1.59578E+006
            3695    1.50062E+007    1.17409E+007    1.17409E+007   -1.40410E+006   -4.60872E+006    1.63496E+007   -1.90936E+006    1.42053E+007   -4.46498E+006    1.14207E+007   -1.22764E+006    1.47559E+006    3.00363E+005    1.52478E+006
            3696    1.37154E+007    1.05142E+007    1.05142E+007   -1.52585E+006   -4.41586E+006    1.49301E+007   -1.52417E+006    1.30036E+007   -4.28949E+006    1.02571E+007   -1.39511E+006    1.32859E+006    2.46958E+005    1.25898E+006
            3697    1.35420E+007    1.03808E+007    1.03808E+007   -1.82443E+006   -4.18702E+006    1.45678E+007   -1.45644E+006    1.30662E+007   -4.07630E+006    1.01967E+007   -1.75110E+006    1.25029E+006    1.51845E+005    9.46515E+005
            3698    1.78758E+007    1.49155E+007    1.49155E+007   -1.69359E+006   -4.00271E+006    1.89182E+007   -3.07305E+006    1.75356E+007   -3.75235E+006    1.46569E+007   -1.68539E+006   -2.16131E+006    3.57346E+004   -3.67640E+005
            3699    1.62798E+007    1.42568E+007    1.42568E+007   -1.71934E+006   -2.31063E+006    1.65674E+007   -3.40893E+006    1.62556E+007   -2.13919E+006    1.40803E+007   -1.71433E+006   -1.67384E+006    1.29682E+004   -2.96700E+005
            3700    1.51598E+007    1.35358E+007    1.35358E+007   -1.46990E+006   -1.77351E+006    1.53093E+007   -3.43080E+006    1.51530E+007   -1.32939E+006    1.33862E+007   -1.76442E+006   -1.47060E+006   -1.39193E+004   -2.52285E+005
            3701    1.41087E+007    1.29805E+007    1.29805E+007   -5.37883E+005   -1.65235E+006    1.46328E+007   -3.59675E+006    1.40091E+007   -4.88245E+005    1.29269E+007   -1.64840E+006   -8.24324E+005   -1.71960E+004   -2.14986E+005
            3702    1.39919E+007    1.29990E+007    1.29990E+007   -3.77189E+005   -1.53647E+006    1.45355E+007   -3.69511E+006    1.38832E+007   -3.57649E+005    1.29775E+007   -1.53449E+006   -5.16300E+005   -1.62072E+004   -1.51695E+005
            3703    1.35384E+007    1.26919E+007    1.26919E+007   -1.16102E+005   -1.47441E+006    1.41663E+007   -3.70047E+006    1.33838E+007   -1.10172E+005    1.26849E+007   -1.47335E+006   -2.83207E+005   -1.90964E+004   -1.01831E+005
            3704    1.36254E+007    1.28250E+007    1.28250E+007   -1.08970E+005   -1.40000E+006    1.42249E+007   -3.77199E+006    1.34867E+007   -1.08604E+005    1.28242E+007   -1.39966E+006   -9.03733E+004   -1.83080E+004   -3.16464E+004
            3705    1.33994E+007    1.26294E+007    1.26294E+007   -1.27161E+004   -1.41667E+006    1.40461E+007   -3.73334E+006    1.32324E+007   -1.28471E+004    1.26293E+007   -1.41639E+006    4.00151E+004   -1.89674E+004    1.50997E+004
            3706    1.37420E+007    1.28618E+007    1.28618E+007   -2.22560E+005   -1.45473E+006    1.43166E+007   -3.72819E+006    1.36169E+007   -2.16915E+005    1.28554E+007   -1.45389E+006    2.78454E+005   -1.68189E+004    8.93835E+004
            3707    1.73088E+007    1.43928E+007    1.43928E+007   -1.66720E+006   -3.94031E+006    1.83331E+007   -2.92842E+006    1.69682E+007   -3.69509E+006    1.40860E+007   -1.60568E+006   -2.09678E+006    6.14529E+004   -1.00222E+006
            3708    1.58521E+007    1.38493E+007    1.38493E+007   -1.66900E+006   -2.31677E+006    1.61661E+007   -3.28784E+006    1.58223E+007   -2.13996E+006    1.36393E+007   -1.63576E+006   -1.62456E+006   -2.69292E+002   -8.34726E+005
            3709    1.48082E+007    1.32174E+007    1.32174E+007   -1.41559E+006   -1.76000E+006    1.49774E+007   -3.34726E+006    1.47992E+007   -1.34367E+006    1.30459E+007   -1.66042E+006   -1.41919E+006   -6.76323E+004   -7.09194E+005
            3710    1.38323E+007    1.27245E+007    1.27245E+007   -5.71854E+005   -1.58766E+006    1.43122E+007   -3.52166E+006    1.37480E+007   -5.33624E+005    1.26496E+007   -1.55100E+006   -8.17308E+005   -7.43671E+004   -5.95957E+005
            3711    1.36850E+007    1.27345E+007    1.27345E+007   -3.83717E+005   -1.45439E+006    1.41889E+007   -3.63213E+006    1.35903E+007   -3.72138E+005    1.27023E+007   -1.43375E+006   -5.07182E+005   -7.62175E+004   -4.25328E+005
            3712    1.32739E+007    1.24687E+007    1.24687E+007   -1.37371E+005   -1.38493E+006    1.38536E+007   -3.64880E+006    1.31410E+007   -1.37068E+005    1.24575E+007   -1.37405E+006   -2.76500E+005   -7.87672E+004   -2.67906E+005
            3713    1.33461E+007    1.25929E+007    1.25929E+007   -1.15529E+005   -1.31039E+006    1.39033E+007   -3.72234E+006    1.32249E+007   -1.20028E+005    1.25917E+007   -1.30467E+006   -8.53539E+004   -7.70435E+004   -9.54971E+004
            3714    1.31633E+007    1.24299E+007    1.24299E+007   -3.76154E+004   -1.33336E+006    1.37633E+007   -3.68630E+006    1.30187E+007   -4.21749E+004    1.24292E+007   -1.32813E+006    5.46905E+004   -7.83730E+004    7.79085E+004
            3715    1.34871E+007    1.26465E+007    1.26465E+007   -2.32798E+005   -1.37568E+006    1.40221E+007   -3.67933E+006    1.33775E+007   -2.32073E+005    1.26361E+007   -1.36607E+006    2.85799E+005   -7.46855E+004    2.38176E+005
            3716    1.63396E+007    1.35033E+007    1.35033E+007   -1.61504E+006   -3.83130E+006    1.73346E+007   -2.68565E+006    1.59962E+007   -3.59758E+006    1.31338E+007   -1.47930E+006   -1.98113E+006    9.51418E+004   -1.43697E+006
            3717    1.50918E+007    1.31357E+007    1.31357E+007   -1.55048E+006   -2.33142E+006    1.54671E+007   -3.08460E+006    1.50462E+007   -2.15780E+006    1.28768E+007   -1.46522E+006   -1.53833E+006    7.16655E+003   -1.23237E+006
            3718    1.42057E+007    1.26665E+007    1.26665E+007   -1.33195E+006   -1.73772E+006    1.44042E+007   -3.19893E+006    1.41926E+007   -1.40674E+006    1.24628E+007   -1.45928E+006   -1.33633E+006   -1.04001E+005   -1.05113E+006
            3719    1.33048E+007    1.22379E+007    1.22379E+007   -6.55502E+005   -1.44338E+006    1.36812E+007   -3.37966E+006    1.32522E+007   -6.46149E+005    1.21302E+007   -1.34511E+006   -8.09867E+005   -1.21400E+005   -8.85262E+005
            3720    1.31330E+007    1.22586E+007    1.22586E+007   -4.26507E+005   -1.28061E+006    1.35392E+007   -3.51715E+006    1.30703E+007   -4.34821E+005    1.22102E+007   -1.22394E+006   -4.98771E+005   -1.27547E+005   -6.27635E+005
            3721    1.27766E+007    1.20449E+007    1.20449E+007   -2.05214E+005   -1.19988E+006    1.32448E+007   -3.54662E+006    1.26890E+007   -2.20112E+005    1.20276E+007   -1.16760E+006   -2.70935E+005   -1.34077E+005   -3.91119E+005
            3722    1.28362E+007    1.21655E+007    1.21655E+007   -1.57215E+005   -1.12910E+006    1.32946E+007   -3.62638E+006    1.27531E+007   -1.75310E+005    1.21639E+007   -1.10944E+006   -7.76507E+004   -1.32353E+005   -1.20426E+005
            3723    1.27018E+007    1.20376E+007    1.20376E+007   -1.12011E+005   -1.15246E+006    1.31901E+007   -3.59104E+006    1.26054E+007   -1.28754E+005    1.20358E+007   -1.13395E+006    7.86750E+004   -1.32032E+005    1.29759E+005
            3724    1.30140E+007    1.22405E+007    1.22405E+007   -2.83594E+005   -1.21363E+006    1.34541E+007   -3.58108E+006    1.29389E+007   -2.96687E+005    1.22217E+007   -1.18180E+006    3.00194E+005   -1.26448E+005    3.96736E+005
            3725    1.51807E+007    1.24359E+007    1.24359E+007   -1.54076E+006   -3.71447E+006    1.61504E+007   -2.39356E+006    1.48245E+007   -3.49559E+006    1.20300E+007   -1.35379E+006   -1.82475E+006    6.28204E+004   -1.64039E+006
            3726    1.41709E+007    1.22557E+007    1.22557E+007   -1.40441E+006   -2.37588E+006    1.46316E+007   -2.82515E+006    1.40957E+007   -2.19654E+006    1.19555E+007   -1.28349E+006   -1.42875E+006   -3.97222E+004   -1.47122E+006
            3727    1.34177E+007    1.19420E+007    1.19420E+007   -1.15073E+006   -1.77860E+006    1.37206E+007   -3.00421E+006    1.33845E+007   -1.48782E+006    1.17110E+007   -1.21059E+006   -1.23509E+006   -1.67875E+005   -1.25759E+006
            3728    1.26315E+007    1.16114E+007    1.16114E+007   -6.85502E+005   -1.33003E+006    1.29414E+007   -3.19861E+006    1.25944E+007   -7.76917E+005    1.14752E+007   -1.10247E+006   -7.99480E+005   -2.01322E+005   -1.04963E+006
            3729    1.24072E+007    1.16240E+007    1.16240E+007   -4.23860E+005   -1.11374E+006    1.27377E+007   -3.36214E+006    1.23639E+007   -5.01134E+005    1.15608E+007   -9.73228E+005   -4.89388E+005   -2.10221E+005   -7.48472E+005
            3730    1.21187E+007    1.14800E+007    1.14800E+007   -2.36079E+005   -1.00467E+006    1.24847E+007   -3.41308E+006    1.20637E+007   -3.01704E+005    1.14585E+007   -9.17572E+005   -2.62974E+005   -2.13524E+005   -4.44559E+005
            3731    1.21481E+007    1.15803E+007    1.15803E+007   -1.64608E+005   -9.34405E+005    1.25147E+007   -3.49376E+006    1.20931E+007   -2.28800E+005    1.15788E+007   -8.68729E+005   -6.57582E+004   -2.12725E+005   -1.19149E+005
            3732    1.20916E+007    1.15099E+007    1.15099E+007   -1.56510E+005   -9.66017E+005    1.24760E+007   -3.46247E+006    1.20304E+007   -2.13984E+005    1.15056E+007   -9.04244E+005    1.10019E+005   -2.07744E+005    2.03316E+005
            3733    1.23623E+007    1.16737E+007    1.16737E+007   -2.98313E+005   -1.04496E+006    1.27187E+007   -3.44347E+006    1.23114E+007   -3.60897E+005    1.16444E+007   -9.53059E+005    3.25839E+005   -2.05923E+005    5.14259E+005
            3734    1.40655E+007    1.14332E+007    1.14332E+007   -1.40449E+006   -3.60149E+006    1.50347E+007   -2.14242E+006    1.36715E+007   -3.40310E+006    1.10215E+007   -1.19118E+006   -1.66769E+006    5.62848E+004   -1.67623E+006
            3735    1.31878E+007    1.13204E+007    1.13204E+007   -1.17317E+006   -2.46627E+006    1.37867E+007   -2.56032E+006    1.30440E+007   -2.30527E+006    1.10043E+007   -1.01804E+006   -1.31938E+006   -5.14245E+004   -1.52953E+006
            3736    1.26127E+007    1.11783E+007    1.11783E+007   -9.08518E+005   -1.90151E+006    1.30798E+007   -2.78944E+006    1.25243E+007   -1.67704E+006    1.09401E+007   -8.94750E+005   -1.13882E+006   -2.12630E+005   -1.30639E+006
            3737    1.18957E+007    1.09014E+007    1.09014E+007   -6.03176E+005   -1.35025E+006    1.22517E+007   -2.98266E+006    1.18428E+007   -1.03919E+006    1.07491E+007   -7.61916E+005   -8.00019E+005   -2.83420E+005   -1.09170E+006
            3738    1.16344E+007    1.09143E+007    1.09143E+007   -3.58083E+005   -1.05125E+006    1.19655E+007   -3.16831E+006    1.15878E+007   -7.00799E+005    1.08435E+007   -6.37721E+005   -4.97440E+005   -3.14105E+005   -7.69465E+005
            3739    1.13916E+007    1.08161E+007    1.08161E+007   -2.21250E+005   -8.99519E+005    1.17156E+007   -3.23177E+006    1.13460E+007   -5.06489E+005    1.07930E+007   -5.91191E+005   -2.65479E+005   -3.25637E+005   -4.46066E+005
            3740    1.13893E+007    1.08985E+007    1.08985E+007   -1.40270E+005   -8.11601E+005    1.17101E+007   -3.31556E+006    1.13447E+007   -4.03472E+005    1.08976E+007   -5.47451E+005   -5.10817E+004   -3.27399E+005   -9.20307E+004
            3741    1.13895E+007    1.08597E+007    1.08597E+007   -1.78549E+005   -8.51206E+005    1.17109E+007   -3.27666E+006    1.13447E+007   -4.27312E+005    1.08518E+007   -5.94490E+005    1.53033E+005   -3.21819E+005    2.63746E+005
            3742    1.16610E+007    1.10160E+007    1.10160E+007   -2.93081E+005   -9.67617E+005    1.19836E+007   -3.25176E+006    1.16170E+007   -5.68080E+005    1.09736E+007   -6.50185E+005    3.78564E+005   -3.14440E+005    6.02273E+005
            3743    1.30872E+007    1.05368E+007    1.05368E+007   -1.24279E+006   -3.55095E+006    1.40877E+007   -1.91435E+006    1.26170E+007   -3.36938E+006    1.01593E+007   -1.04687E+006   -1.51684E+006   -5.38677E+003   -1.56784E+006
            3744    1.23720E+007    1.05121E+007    1.05121E+007   -1.03701E+006   -2.54478E+006    1.30568E+007   -2.31009E+006    1.21628E+007   -2.39351E+006    1.01961E+007   -8.72373E+005   -1.22924E+006   -7.50107E+004   -1.51159E+006
            3745    1.17990E+007    1.04177E+007    1.04177E+007   -6.65497E+005   -1.98601E+006    1.24038E+007   -2.58874E+006    1.16311E+007   -1.82206E+006    1.01853E+007   -5.97008E+005   -1.03467E+006   -1.99906E+005   -1.28041E+006
            3746    1.11954E+007    1.02271E+007    1.02271E+007   -3.85621E+005   -1.47192E+006    1.16990E+007   -2.78985E+006    1.10759E+007   -1.27790E+006    1.00793E+007   -4.31880E+005   -7.80238E+005   -2.96965E+005   -1.02522E+006
            3747    1.08780E+007    1.02179E+007    1.02179E+007   -1.43515E+005   -1.11193E+006    1.13299E+007   -2.98750E+006    1.07804E+007   -9.02314E+005    1.01467E+007   -2.81919E+005   -4.97246E+005   -3.50819E+005   -7.32455E+005
            3748    1.06470E+007    1.01422E+007    1.01422E+007   -1.27439E+004   -9.36642E+005    1.10789E+007   -3.06428E+006    1.05563E+007   -7.18537E+005    1.01212E+007   -2.09791E+005   -2.60096E+005   -3.79171E+005   -4.00644E+005
            3749    1.06181E+007    1.01985E+007    1.01985E+007    5.27906E+004   -8.35952E+005    1.10345E+007   -3.13846E+006    1.05339E+007   -6.03389E+005    1.01981E+007   -1.79363E+005   -3.57853E+004   -3.90401E+005   -5.62729E+004
            3750    1.06487E+007    1.01830E+007    1.01830E+007    5.92182E+003   -8.81704E+005    1.10647E+007   -3.10242E+006    1.05650E+007   -6.56591E+005    1.01715E+007   -2.07687E+005    1.92128E+005   -3.79180E+005    2.96631E+005
            3751    1.09070E+007    1.03018E+007    1.03018E+007   -1.26772E+005   -1.02771E+006    1.13295E+007   -3.04911E+006    1.08228E+007   -8.02862E+005    1.02481E+007   -2.97898E+005    4.22594E+005   -3.56398E+005    6.44884E+005
            3752    1.25822E+007    1.00240E+007    1.00240E+007   -1.08366E+006   -3.64018E+006    1.36642E+007   -1.76672E+006    1.19768E+007   -3.48038E+006    9.70658E+006   -9.26042E+005   -1.41409E+006   -1.58314E+004   -1.36339E+006
            3753    1.17935E+007    9.79398E+006    9.79398E+006   -8.15842E+005   -2.90424E+006    1.26982E+007   -2.02463E+006    1.13663E+007   -2.74278E+006    9.49522E+006   -6.78542E+005   -1.24410E+006   -1.38378E+005   -1.36858E+006
            3754    1.12685E+007    9.76733E+006    9.76733E+006   -4.92226E+005   -2.29315E+006    1.20605E+007   -2.32732E+006    1.09377E+007   -2.13532E+006    9.54770E+006   -4.30439E+005   -1.02825E+006   -2.43852E+005   -1.17570E+006
            3755    1.06702E+007    9.58927E+006    9.58927E+006   -1.53184E+005   -1.81399E+006    1.14033E+007   -2.54070E+006    1.03735E+007   -1.65587E+006    9.44134E+006   -1.63370E+005   -7.97617E+005   -3.30545E+005   -9.66878E+005
            3756    1.02437E+007    9.50530E+006    9.50530E+006    1.23153E+005   -1.42391E+006    1.09292E+007   -2.73485E+006    9.97576E+006   -1.26488E+006    9.43683E+006    3.25925E+004   -5.27148E+005   -4.03061E+005   -6.55007E+005
            3757    1.00345E+007    9.47109E+006    9.47109E+006    2.55856E+005   -1.21931E+006    1.06904E+007   -2.83588E+006    9.78605E+006   -1.06305E+006    9.45271E+006    1.17979E+005   -2.71024E+005   -4.36579E+005   -3.37512E+005
            3758    9.97172E+006    9.50213E+006    9.50213E+006    3.25277E+005   -1.10911E+006    1.06112E+007   -2.90610E+006    9.73556E+006   -9.49136E+005    9.50207E+006    1.65357E+005   -1.69291E+004   -4.51463E+005   -1.66310E+004
            3759    1.00363E+007    9.49313E+006    9.49313E+006    2.57007E+005   -1.18695E+006    1.06801E+007   -2.85439E+006    9.79852E+006   -1.02756E+006    9.47878E+006    1.11964E+005    2.39299E+005   -4.39141E+005    2.98806E+005
            3760    1.02509E+007    9.56187E+006    9.56187E+006    1.44698E+005   -1.35708E+006    1.09189E+007   -2.78317E+006    9.99891E+006   -1.19456E+006    9.50011E+006    4.39452E+004    4.91940E+005   -4.08900E+005    6.29514E+005
            3761    9.71875E+006    8.92759E+006    8.92759E+006    4.94075E+005   -1.70096E+006    1.06285E+007   -2.57357E+006    9.13571E+006   -1.62871E+006    8.87127E+006    4.78139E+005    5.47044E+005   -2.81858E+005    5.00475E+005
            3762    9.52852E+006    8.93886E+006    8.93886E+006    6.17199E+005   -1.45537E+006    1.03942E+007   -2.70023E+006    9.00017E+006   -1.39544E+006    8.92615E+006    5.69973E+005    2.78631E+005   -3.19738E+005    2.16872E+005
            3763    9.49267E+006    8.95460E+006    8.95460E+006    6.13530E+005   -1.37473E+006    1.03293E+007   -2.73113E+006    9.00613E+006   -1.31797E+006    8.95460E+006    5.56776E+005   -2.95324E+003   -3.31092E+005   -2.58014E+003
            3764    9.53811E+006    8.93964E+006    8.93964E+006    6.09561E+005   -1.46502E+006    1.04047E+007   -2.69473E+006    9.00927E+006   -1.40547E+006    8.92675E+006    5.62911E+005   -2.83910E+005   -3.17838E+005   -2.15392E+005
            3765    9.73488E+006    8.92856E+006    8.92856E+006    4.88020E+005   -1.72100E+006    1.06496E+007   -2.56519E+006    9.14510E+006   -1.64851E+006    8.87115E+006    4.72940E+005   -5.55403E+005   -2.80398E+005   -5.03257E+005
            3766    1.01633E+007    8.99776E+006    8.99776E+006    2.03613E+005   -2.12908E+006    1.11268E+007   -2.35743E+006    9.53265E+006   -2.04276E+006    8.86821E+006    2.46851E+005   -7.91683E+005   -2.02100E+005   -8.12384E+005
            3767    1.08930E+007    9.28158E+006    9.28158E+006   -2.13411E+005   -2.61031E+006    1.18919E+007   -2.15262E+006    1.02743E+007   -2.50694E+006    9.05896E+006   -9.41695E+004   -1.00442E+006   -1.03366E+005   -1.14224E+006
            3768    1.18018E+007    9.67326E+006    9.67326E+006   -7.08359E+005   -3.16272E+006    1.28360E+007   -1.93406E+006    1.12058E+007   -3.05075E+006    9.43163E+006   -5.78701E+005   -1.16167E+006   -4.92499E+002   -1.17898E+006
            3769    1.21307E+007    9.62385E+006    9.62385E+006   -9.29320E+005   -3.62944E+006    1.32533E+007   -1.68837E+006    1.14249E+007   -3.52301E+006    9.42055E+006   -8.32436E+005   -1.17631E+006    1.22967E+005   -1.00153E+006
            3770    2.02935E+007    1.66980E+007    1.66980E+007   -9.48554E+005   -5.47727E+006    2.21752E+007   -3.42405E+006    1.91063E+007   -5.35464E+006    1.65659E+007   -9.39107E+005   -1.64135E+006    7.41557E+004   -4.12661E+005
            3771    1.94216E+007    1.58177E+007    1.58177E+007   -1.06114E+006   -5.40943E+006    2.12271E+007   -3.11571E+006    1.82776E+007   -5.27709E+006    1.56143E+007   -9.90082E+005   -1.64525E+006    2.11727E+005   -1.10675E+006
            3772    1.79904E+007    1.44380E+007    1.44380E+007   -1.19696E+006   -5.22497E+006    1.96629E+007   -2.67201E+006    1.69306E+007   -5.07996E+006    1.41496E+007   -1.05363E+006   -1.63401E+006    2.98044E+005   -1.50705E+006
            3773    1.63952E+007    1.29896E+007    1.29896E+007   -1.27039E+006   -4.92420E+006    1.79138E+007   -2.26501E+006    1.54387E+007   -4.77240E+006    1.26472E+007   -1.07979E+006   -1.58363E+006    3.31907E+005   -1.65254E+006
            3774    1.48593E+007    1.16655E+007    1.16655E+007   -1.26089E+006   -4.56901E+006    1.62346E+007   -1.94522E+006    1.39943E+007   -4.42188E+006    1.13175E+007   -1.05996E+006   -1.48843E+006    3.10819E+005   -1.60692E+006
            3775    1.36467E+007    1.06713E+007    1.06713E+007   -1.18117E+006   -4.24778E+006    1.49191E+007   -1.74747E+006    1.28367E+007   -4.11496E+006    1.03571E+007   -9.99786E+005   -1.36563E+006    2.62353E+005   -1.45704E+006
            3776    1.26625E+007    9.94312E+006    9.94312E+006   -9.40996E+005   -3.95415E+006    1.38973E+007   -1.68266E+006    1.18148E+007   -3.83758E+006    9.69779E+006   -8.12233E+005   -1.22708E+006    2.44800E+005   -1.18768E+006
            3777    1.70956E+007    1.47443E+007    1.47443E+007   -1.56612E+006   -3.04100E+006    1.77853E+007   -3.37905E+006    1.69516E+007   -2.76895E+006    1.44667E+007   -1.56062E+006    2.17999E+006   -9.54999E+003   -3.16249E+005
            3778    1.48764E+007    1.34451E+007    1.34451E+007   -1.16102E+006   -1.68758E+006    1.51327E+007   -3.53218E+006    1.48554E+007   -9.82227E+005    1.32561E+007   -1.67731E+006    1.63229E+006    2.64898E+004   -2.60548E+005
            3779    1.40889E+007    1.33304E+007    1.33304E+007    4.22053E+004   -1.44175E+006    1.47721E+007   -3.97695E+006    1.39114E+007    5.71978E+004    1.33114E+007   -1.43776E+006    4.53609E+005    1.98519E+004   -2.27234E+005
            3780    1.43043E+007    1.35251E+007    1.35251E+007   -1.47183E+005   -1.33694E+006    1.48620E+007   -4.01366E+006    1.41924E+007   -1.41525E+005    1.35177E+007   -1.33516E+006    2.88167E+005    1.93236E+004   -1.42390E+005
            3781    1.66653E+007    1.43393E+007    1.43393E+007   -1.52157E+006   -3.02816E+006    1.73675E+007   -3.26319E+006    1.65111E+007   -2.76550E+006    1.40320E+007   -1.47696E+006    2.10429E+006   -3.89052E+004   -8.70129E+005
            3782    1.46659E+007    1.32113E+007    1.32113E+007   -1.20883E+006   -1.68866E+006    1.49000E+007   -3.43794E+006    1.46483E+007   -1.06924E+006    1.29890E+007   -1.60599E+006    1.61764E+006    5.27305E+004   -7.66292E+005
            3783    1.38435E+007    1.30860E+007    1.30860E+007   -2.73143E+004   -1.38735E+006    1.44733E+007   -3.89044E+006    1.36920E+007   -1.07176E+004    1.30390E+007   -1.35698E+006    5.05620E+005    3.91269E+004   -6.31066E+005
            3784    1.40206E+007    1.32788E+007    1.32788E+007   -1.57237E+005   -1.26108E+006    1.45399E+007   -3.95350E+006    1.39223E+007   -1.51993E+005    1.32592E+007   -1.24669E+006    2.95209E+005    2.75376E+004   -4.37546E+005
            3785    1.59049E+007    1.35853E+007    1.35853E+007   -1.48683E+006   -3.03867E+006    1.66239E+007   -3.01992E+006    1.57332E+007   -2.79001E+006    1.32345E+007   -1.38468E+006    1.97092E+006   -3.32186E+004   -1.30000E+006
            3786    1.42565E+007    1.27684E+007    1.27684E+007   -1.22031E+006   -1.74157E+006    1.45100E+007   -3.26885E+006    1.42351E+007   -1.22389E+006    1.24945E+007   -1.46407E+006    1.58644E+006    1.18168E+005   -1.17039E+006
            3787    1.33887E+007    1.26103E+007    1.26103E+007   -1.56373E+005   -1.32397E+006    1.39343E+007   -3.70999E+006    1.32735E+007   -1.47417E+005    1.25113E+007   -1.23390E+006    5.92328E+005    1.00468E+005   -9.99776E+005
            3788    1.34939E+007    1.28177E+007    1.28177E+007   -1.66600E+005   -1.13378E+006    1.39514E+007   -3.83909E+006    1.34156E+007   -1.69683E+005    1.27775E+007   -1.09053E+006    3.17162E+005    8.55178E+004   -6.73670E+005
            3789    1.49589E+007    1.26642E+007    1.26642E+007   -1.41288E+006   -3.04302E+006    1.57072E+007   -2.73610E+006    1.47571E+007   -2.81879E+006    1.22862E+007   -1.25908E+006    1.79874E+006   -3.30443E+004   -1.53038E+006
            3790    1.36356E+007    1.21060E+007    1.21060E+007   -1.17486E+006   -1.85864E+006    1.39647E+007   -3.02417E+006    1.35970E+007   -1.45835E+006    1.17818E+007   -1.25089E+006    1.53107E+006    1.60960E+005   -1.44033E+006
            3791    1.27726E+007    1.19868E+007    1.19868E+007   -3.46059E+005   -1.18430E+006    1.31711E+007   -3.48549E+006    1.27105E+007   -3.67387E+005    1.18311E+007   -1.00728E+006    7.09411E+005    1.50166E+005   -1.23069E+006
            3792    1.27996E+007    1.21868E+007    1.21868E+007   -2.35239E+005   -9.59589E+005    1.31464E+007   -3.66399E+006    1.27534E+007   -2.58847E+005    1.21176E+007   -8.66827E+005    3.66982E+005    1.28698E+005   -8.76361E+005
            3793    1.39028E+007    1.15932E+007    1.15932E+007   -1.36184E+006   -3.09488E+006    1.46881E+007   -2.37884E+006    1.36567E+007   -2.89533E+006    1.12078E+007   -1.17592E+006    1.60118E+006    4.79120E+003   -1.63226E+006
            3794    1.29915E+007    1.14185E+007    1.14185E+007   -9.90741E+005   -2.08592E+006    1.35045E+007   -2.78063E+006    1.28871E+007   -1.72377E+006    1.10713E+007   -1.00563E+006    1.47961E+006    2.48899E+005   -1.52600E+006
            3795    1.21075E+007    1.12550E+007    1.12550E+007   -4.59641E+005   -1.21052E+006    1.24655E+007   -3.19495E+006    1.20550E+007   -6.48907E+005    1.10465E+007   -8.12775E+005    8.42557E+005    2.59513E+005   -1.35826E+006
            3796    1.20212E+007    1.14454E+007    1.14454E+007   -2.28683E+005   -8.95124E+005    1.23405E+007   -3.44053E+006    1.19795E+007   -3.59019E+005    1.13484E+007   -6.67771E+005    4.50635E+005    2.39778E+005   -9.92215E+005
            3797    1.31062E+007    1.08297E+007    1.08297E+007   -1.22551E+006   -3.12101E+006    1.39507E+007   -2.16107E+006    1.27923E+007   -2.95633E+006    1.04670E+007   -1.02748E+006    1.43001E+006   -3.31890E+003   -1.59395E+006
            3798    1.23278E+007    1.06767E+007    1.06767E+007   -7.07979E+005   -2.41605E+006    1.30928E+007   -2.51757E+006    1.20573E+007   -2.16025E+006    1.03556E+007   -6.42672E+005    1.39588E+006    2.54334E+005   -1.41181E+006
            3799    1.16042E+007    1.05757E+007    1.05757E+007   -4.29111E+005   -1.54696E+006    1.21227E+007   -2.86654E+006    1.14821E+007   -1.19989E+006    1.03491E+007   -5.49596E+005    9.97226E+005    3.67470E+005   -1.28796E+006
            3800    1.13328E+007    1.06810E+007    1.06810E+007   -1.59808E+005   -1.08678E+006    1.17678E+007   -3.14482E+006    1.12470E+007   -7.40984E+005    1.05586E+007   -3.83155E+005    5.91312E+005    3.87780E+005   -1.02750E+006
            3801    1.21301E+007    9.96568E+006    9.96568E+006   -8.55071E+005   -3.14685E+006    1.31125E+007   -1.98792E+006    1.16280E+007   -3.00144E+006    9.60179E+006   -6.36590E+005    1.33244E+006   -4.21901E+004   -1.54693E+006
            3802    1.20186E+007    1.02703E+007    1.02703E+007   -7.01955E+005   -2.57478E+006    1.28451E+007   -2.33119E+006    1.16836E+007   -2.41055E+006    1.00040E+007   -5.99863E+005    1.26580E+006    1.35736E+005   -1.24698E+006
            3803    1.12355E+007    1.00611E+007    1.00611E+007   -2.93177E+005   -1.88565E+006    1.19468E+007   -2.62743E+006    1.09773E+007   -1.69908E+006    9.82376E+006   -2.42381E+005    1.04098E+006    2.66070E+005   -1.24644E+006
            3804    1.06679E+007    9.91019E+006    9.91019E+006    7.91265E+003   -1.38623E+006    1.12964E+007   -2.84396E+006    1.04600E+007   -1.19664E+006    9.77309E+006   -4.45715E+004    6.89534E+005    3.68009E+005   -9.91090E+005
            3805    1.01881E+007    9.06278E+006    9.06278E+006    1.42365E+005   -2.03945E+006    1.11022E+007   -2.38857E+006    9.64118E+006   -1.91862E+006    8.91367E+006    1.70652E+005    8.15124E+005    2.90734E+005   -9.08830E+005
            3806    1.09063E+007    9.25434E+006    9.25434E+006   -3.54327E+005   -2.60001E+006    1.18543E+007   -2.10000E+006    1.03668E+007   -2.45919E+006    8.98848E+006   -2.29282E+005    1.08218E+006    1.79204E+005   -1.27064E+006
            3807    1.20185E+007    9.91320E+006    9.91320E+006   -7.60721E+005   -3.10458E+006    1.30178E+007   -2.01597E+006    1.14873E+007   -2.94460E+006    9.52786E+006   -5.35364E+005    1.33883E+006    3.65265E+004   -1.60680E+006
            3808    1.32915E+007    1.05201E+007    1.05201E+007   -1.51375E+006   -3.74631E+006    1.42664E+007   -1.75336E+006    1.28595E+007   -3.54079E+006    1.01505E+007   -1.34967E+006    1.60683E+006    3.77918E+004   -1.49010E+006
            3809    1.96942E+007    1.54309E+007    1.54309E+007   -1.24597E+006   -6.29689E+006    2.17278E+007   -2.62934E+006    1.81492E+007   -6.05682E+006    1.51814E+007   -1.23661E+006    2.26963E+006   -7.63227E+004   -3.94208E+005
            3810    1.88739E+007    1.46680E+007    1.46680E+007   -1.33414E+006   -6.14604E+006    2.08141E+007   -2.39595E+006    1.74118E+007   -5.89935E+006    1.43465E+007   -1.25933E+006    2.24013E+006   -2.12669E+005   -1.08794E+006
            3811    1.75752E+007    1.35082E+007    1.35082E+007   -1.43771E+006   -5.85390E+006    1.93621E+007   -2.07221E+006    1.62551E+007   -5.60228E+006    1.31056E+007   -1.28668E+006    2.17052E+006   -2.88389E+005   -1.48689E+006
            3812    1.60190E+007    1.21579E+007    1.21579E+007   -1.55601E+006   -5.44865E+006    1.76066E+007   -1.71775E+006    1.48981E+007   -5.20046E+006    1.17028E+007   -1.34909E+006    2.05302E+006   -2.96498E+005   -1.65795E+006
            3813    1.45529E+007    1.09132E+007    1.09132E+007   -1.64196E+006   -5.03727E+006    1.59504E+007   -1.41131E+006    1.36183E+007   -4.80624E+006    1.04679E+007   -1.42776E+006    1.88958E+006   -2.46991E+005   -1.61062E+006
            3814    1.32373E+007    9.69605E+006    9.69605E+006   -1.78803E+006   -4.78164E+006    1.44777E+007   -1.04213E+006    1.24410E+007   -4.56921E+006    9.30283E+006   -1.60725E+006    1.72873E+006   -1.47031E+005   -1.42317E+006
            3815    1.31139E+007    9.56611E+006    9.56611E+006   -2.20478E+006   -4.56909E+006    1.41352E+007   -9.30749E+005    1.26209E+007   -4.34970E+006    9.24274E+006   -2.10079E+006    1.68776E+006    3.21901E+004   -1.18059E+006
            3816    9.85862E+006    9.05824E+006    9.05824E+006    3.80896E+005   -1.66167E+006    1.07199E+007   -2.59249E+006    9.36463E+006   -1.55872E+006    8.99754E+006    3.38655E+005    5.45375E+005    3.56421E+005   -5.51822E+005
            3817    9.70402E+006    9.10924E+006    9.10924E+006    5.15403E+005   -1.41484E+006    1.05241E+007   -2.73660E+006    9.25720E+006   -1.32286E+006    9.09490E+006    4.37759E+005    2.79096E+005    3.88415E+005   -2.54327E+005
            3818    9.69143E+006    9.13940E+006    9.13940E+006    5.07276E+005   -1.34421E+006    1.04836E+007   -2.76749E+006    9.28093E+006   -1.25690E+006    9.13940E+006    4.19970E+005    3.04395E+003    3.92457E+005    6.29658E+002
            3819    9.70419E+006    9.10138E+006    9.10138E+006    5.06674E+005   -1.42249E+006    1.05239E+007   -2.72852E+006    9.25789E+006   -1.33079E+006    9.08767E+006    4.28679E+005   -2.76778E+005    3.88245E+005    2.45097E+005
            3820    9.86730E+006    9.05359E+006    9.05359E+006    3.75212E+005   -1.67918E+006    1.07328E+007   -2.58321E+006    9.36782E+006   -1.57649E+006    8.99125E+006    3.34850E+005   -5.51406E+005    3.54795E+005    5.60362E+005
            3821    1.02295E+007    9.05220E+006    9.05220E+006    8.82121E+004   -2.09145E+006    1.11437E+007   -2.34966E+006    9.68613E+006   -1.96968E+006    8.90708E+006    1.11561E+005   -8.20173E+005    2.93153E+005    8.88506E+005
            3822    1.09390E+007    9.27855E+006    9.27855E+006   -3.55761E+005   -2.61304E+006    1.18916E+007   -2.10325E+006    1.03955E+007   -2.47364E+006    9.02786E+006   -2.44480E+005   -1.07669E+006    1.85843E+005    1.22012E+006
            3823    1.17771E+007    9.52751E+006    9.52751E+006   -9.74282E+005   -3.20565E+006    1.27332E+007   -1.78252E+006    1.12867E+007   -3.04017E+006    9.22660E+006   -8.38862E+005   -1.29903E+006    1.18688E+005    1.32649E+006
            3824    1.20566E+007    9.19130E+006    9.19130E+006   -1.37552E+006   -3.94185E+006    1.31332E+007   -1.29131E+006    1.14176E+007   -3.76409E+006    8.88981E+006   -1.25179E+006   -1.45557E+006    4.38108E+004    1.20519E+006
            3825    1.03167E+007    9.82875E+006    9.82875E+006    2.57158E+005   -1.09890E+006    1.09276E+007   -2.99567E+006    1.01133E+007   -9.18561E+005    9.76867E+006    1.36893E+005    4.46110E+005    4.13614E+005   -6.51278E+005
            3826    1.10468E+007    1.05868E+007    1.05868E+007   -2.50261E+003   -8.66789E+005    1.14536E+007   -3.23917E+006    1.09704E+007   -5.22414E+005    1.05311E+007   -2.91121E+005    3.68164E+005    3.98143E+005   -7.01070E+005
            3827    1.17798E+007    1.13747E+007    1.13747E+007   -6.52766E+004   -7.17662E+005    1.20924E+007   -3.53060E+006    1.17390E+007   -1.70195E+005    1.13340E+007   -5.71960E+005    2.62853E+005    2.30663E+005   -6.49895E+005
            3828    1.25112E+007    1.20549E+007    1.20549E+007   -5.23362E+004   -8.24583E+005    1.28794E+007   -3.72598E+006    1.24574E+007   -7.59795E+004    1.20293E+007   -7.75380E+005    2.03095E+005    1.33146E+005   -5.35408E+005
            3829    1.31583E+007    1.26264E+007    1.26264E+007    4.31528E+004   -1.03991E+006    1.36664E+007   -3.87656E+006    1.30574E+007    3.69914E+004    1.26123E+007   -1.01958E+006    1.58851E+005    8.85907E+004   -4.08619E+005
            3830    1.36175E+007    1.30318E+007    1.30318E+007    8.52509E+004   -1.16973E+006    1.42016E+007   -3.98245E+006    1.34865E+007    8.56801E+004    1.30263E+007   -1.16458E+006    1.36148E+005    3.29171E+004   -2.43052E+005
            3831    1.38660E+007    1.32411E+007    1.32411E+007    1.16028E+005   -1.26271E+006    1.45038E+007   -4.03149E+006    1.37105E+007    1.16919E+005    1.32394E+007   -1.26185E+006    1.23657E+005    1.85616E+004   -9.18799E+004
            3832    1.01795E+007    9.84872E+006    9.84872E+006    3.72403E+005   -9.12095E+005    1.07608E+007   -3.10301E+006    9.99476E+006   -7.21135E+005    9.83546E+006    1.94705E+005    1.99632E+005    4.47621E+005   -3.10874E+005
            3833    1.09138E+007    1.06220E+007    1.06220E+007    1.43740E+005   -6.80633E+005    1.13026E+007   -3.36170E+006    1.08434E+007   -3.42905E+005    1.06111E+007   -1.83073E+005    1.38831E+005    4.01233E+005   -3.19408E+005
            3834    1.17204E+007    1.14309E+007    1.14309E+007    4.01075E+004   -5.93239E+005    1.20242E+007   -3.62594E+006    1.16818E+007   -6.15015E+004    1.14243E+007   -4.84957E+005    7.64940E+004    2.31165E+005   -2.72507E+005
            3835    1.25357E+007    1.21612E+007    1.21612E+007    1.54098E+004   -7.31151E+005    1.28923E+007   -3.81514E+006    1.24856E+007   -9.62812E+003    1.21579E+007   -7.02884E+005    4.29275E+004    1.34114E+005   -1.99455E+005
            3836    1.32316E+007    1.27616E+007    1.27616E+007    6.71457E+004   -9.48653E+005    1.37103E+007   -3.96003E+006    1.31435E+007    5.93151E+004    1.27604E+007   -9.39574E+005    2.18404E+004    8.88361E+004   -1.28949E+005
            3837    1.37544E+007    1.32037E+007    1.32037E+007    7.20013E+004   -1.09871E+006    1.43024E+007   -4.05898E+006    1.36417E+007    7.11150E+004    1.32032E+007   -1.09738E+006    1.15224E+004    3.23149E+004   -7.83562E+004
            3838    1.40276E+007    1.34317E+007    1.34317E+007    8.35902E+004   -1.18869E+006    1.46204E+007   -4.10886E+006    1.38969E+007    8.32761E+004    1.34316E+007   -1.18834E+006    6.28197E+003    2.00712E+004   -2.08817E+004
            3839    1.01363E+007    9.82764E+006    9.82764E+006    4.04584E+005   -8.96240E+005    1.07239E+007   -3.11199E+006    9.94587E+006   -7.14458E+005    9.82760E+006    2.22839E+005   -8.47751E+003    4.51002E+005    1.73566E+004
            3840    1.08703E+007    1.05608E+007    1.05608E+007    1.29536E+005   -7.00809E+005    1.12616E+007   -3.32985E+006    1.07986E+007   -3.82136E+005    1.05604E+007   -1.88736E+005   -2.34408E+004    4.03664E+005    6.22343E+004
            3841    1.16563E+007    1.13470E+007    1.13470E+007   -2.95551E+002   -5.95389E+005    1.19424E+007   -3.58379E+006    1.16220E+007   -1.11519E+005    1.13460E+007   -4.83088E+005   -3.40311E+004    2.31757E+005    1.08176E+005
            3842    1.24490E+007    1.20427E+007    1.20427E+007   -3.42951E+004   -7.47579E+005    1.27903E+007   -3.75362E+006    1.24029E+007   -6.08773E+004    1.20411E+007   -7.19337E+005   -3.96148E+004    1.34974E+005    1.40175E+005
            3843    1.31369E+007    1.26282E+007    1.26282E+007    2.38980E+004   -9.83233E+005    1.36115E+007   -3.88963E+006    1.30496E+007    1.61910E+004    1.26267E+007   -9.74038E+005   -4.28337E+004    8.81280E+004    1.35390E+005
            3844    1.36275E+007    1.30409E+007    1.30409E+007    3.97547E+004   -1.13670E+006    1.41776E+007   -3.98132E+006    1.35125E+007    3.89035E+004    1.30400E+007   -1.13495E+006   -4.49235E+004    3.40409E+004    1.03131E+005
            3845    1.38910E+007    1.32563E+007    1.32563E+007    5.78078E+004   -1.23646E+006    1.44928E+007   -4.02590E+006    1.37543E+007    5.76763E+004    1.32561E+007   -1.23609E+006   -4.63520E+004    1.94031E+004    3.23090E+004
            3846    1.01652E+007    9.81673E+006    9.81673E+006    3.70140E+005   -9.40092E+005    1.07568E+007   -3.08226E+006    9.97261E+006   -7.52412E+005    9.79926E+006    1.99929E+005   -2.34866E+005    4.46143E+005    3.52818E+005
            3847    1.08902E+007    1.05661E+007    1.05661E+007    1.25359E+005   -7.23901E+005    1.12900E+007   -3.32251E+006    1.08153E+007   -3.89870E+005    1.05443E+007   -1.86883E+005   -2.10606E+005    4.05804E+005    4.44250E+005
            3848    1.16964E+007    1.13728E+007    1.13728E+007    8.00260E+003   -6.29160E+005    1.20019E+007   -3.58387E+006    1.16572E+007   -1.02987E+005    1.13505E+007   -4.95923E+005   -1.71244E+005    2.36794E+005    4.86887E+005
            3849    1.25248E+007    1.21163E+007    1.21163E+007   -1.50674E+004   -7.67987E+005    1.28843E+007   -3.77776E+006    1.24738E+007   -4.02363E+004    1.20972E+007   -7.23732E+005   -1.50970E+005    1.34359E+005    4.71734E+005
            3850    1.32530E+007    1.27474E+007    1.27474E+007    4.47495E+004   -9.94700E+005    1.37421E+007   -3.93249E+006    1.31608E+007    3.82565E+004    1.27343E+007   -9.75103E+005   -1.34477E+005    8.61672E+004    4.01278E+005
            3851    1.37941E+007    1.32135E+007    1.32135E+007    6.01513E+004   -1.14251E+006    1.43560E+007   -4.04373E+006    1.36754E+007    6.04696E+004    1.32075E+007   -1.13679E+006   -1.25645E+005    3.00525E+004    2.63599E+005
            3852    1.40790E+007    1.34549E+007    1.34549E+007    7.66991E+004   -1.23336E+006    1.46882E+007   -4.09940E+006    1.39409E+007    7.75323E+004    1.34532E+007   -1.23251E+006   -1.21348E+005    1.78861E+004    9.22450E+004
            3853    1.03159E+007    9.76835E+006    9.76835E+006    2.27503E+005   -1.17833E+006    1.09467E+007   -2.93918E+006    1.00970E+007   -1.00211E+006    9.70093E+006    1.18713E+005   -4.80863E+005    4.10612E+005    6.83735E+005
            3854    1.10332E+007    1.05000E+007    1.05000E+007   -3.91476E+004   -9.68406E+005    1.14684E+007   -3.16416E+006    1.09446E+007   -6.43071E+005    1.04235E+007   -2.87966E+005   -4.47517E+005    4.05955E+005    8.10473E+005
            3855    1.17792E+007    1.12752E+007    1.12752E+007   -1.64295E+005   -8.16538E+005    1.20917E+007   -3.43146E+006    1.17384E+007   -3.03853E+005    1.12027E+007   -6.04459E+005   -3.79679E+005    2.48553E+005    8.52725E+005
            3856    1.25706E+007    1.20032E+007    1.20032E+007   -1.79214E+005   -9.22627E+005    1.29258E+007   -3.63379E+006    1.25210E+007   -2.06280E+005    1.19430E+007   -8.35305E+005   -3.49099E+005    1.39075E+005    8.07327E+005
            3857    1.32728E+007    1.26272E+007    1.26272E+007   -9.33361E+004   -1.13644E+006    1.37636E+007   -3.79912E+006    1.31801E+007   -9.65006E+004    1.25865E+007   -1.09265E+006   -3.30080E+005    9.29429E+004    6.65684E+005
            3858    1.37752E+007    1.30745E+007    1.30745E+007   -5.41929E+004   -1.26703E+006    1.43415E+007   -3.91775E+006    1.36543E+007   -4.78849E+004    1.30532E+007   -1.25206E+006   -3.21935E+005    3.32606E+004    4.38619E+005
            3859    1.40458E+007    1.33086E+007    1.33086E+007   -2.56281E+004   -1.35426E+006    1.46629E+007   -3.97625E+006    1.39034E+007   -1.83740E+004    1.32994E+007   -1.35228E+006   -3.20771E+005    2.13304E+004    1.49331E+005
            3860    1.06538E+007    9.82687E+006    9.82687E+006   -2.06232E+002   -1.49562E+006    1.13225E+007   -2.77701E+006    1.04137E+007   -1.31422E+006    9.68018E+006   -3.49175E+004   -7.44303E+005    3.58453E+005    1.00126E+006
            3861    1.12830E+007    1.05190E+007    1.05190E+007   -2.16751E+005   -1.24147E+006    1.17604E+007   -3.02025E+006    1.11776E+007   -9.18984E+005    1.03671E+007   -3.87401E+005   -7.01357E+005    3.90330E+005    1.11275E+006
            3862    1.20206E+007    1.13151E+007    1.13151E+007   -3.52487E+005   -1.02990E+006    1.23450E+007   -3.31091E+006    1.19776E+007   -5.30613E+005    1.11700E+007   -7.06631E+005   -6.12136E+005    2.53640E+005    1.18100E+006
            3863    1.28448E+007    1.21085E+007    1.21085E+007   -3.74385E+005   -1.06991E+006    1.31784E+007   -3.55474E+006    1.28023E+007   -4.00995E+005    1.19925E+007   -9.27312E+005   -5.62113E+005    1.34372E+005    1.09351E+006
            3864    1.35846E+007    1.27907E+007    1.27907E+007   -3.01358E+005   -1.23796E+006    1.40287E+007   -3.75046E+006    1.35117E+007   -2.95883E+005    1.27124E+007   -1.16512E+006   -5.28991E+005    8.54084E+004    8.94836E+005
            3865    1.41480E+007    1.33095E+007    1.33095E+007   -2.72931E+005   -1.34320E+006    1.46527E+007   -3.89779E+006    1.40564E+007   -2.55329E+005    1.32668E+007   -1.31811E+006   -5.16375E+005    2.51453E+004    5.81421E+005
            3866    1.44478E+007    1.35791E+007    1.35791E+007   -2.55184E+005   -1.41252E+006    1.49917E+007   -3.97047E+006    1.43429E+007   -2.36865E+005    1.35578E+007   -1.40952E+006   -5.09587E+005    1.63571E+004    1.95304E+005
            3867    1.11716E+007    9.86660E+006    9.86660E+006   -3.48934E+005   -2.06302E+006    1.19296E+007   -2.48488E+006    1.08699E+007   -1.89114E+006    9.64038E+006   -2.94605E+005   -1.03985E+006    2.56120E+005    1.19029E+006
            3868    1.16737E+007    1.04528E+007    1.04528E+007   -5.15400E+005   -1.81710E+006    1.22699E+007   -2.70678E+006    1.15087E+007   -1.51117E+006    1.01892E+007   -5.57706E+005   -1.10128E+006    3.50023E+005    1.36820E+006
            3869    1.23074E+007    1.12002E+007    1.12002E+007   -6.90773E+005   -1.48530E+006    1.26855E+007   -3.00803E+006    1.22495E+007   -1.01728E+006    1.09368E+007   -8.95388E+005   -1.06699E+006    2.71724E+005    1.45825E+006
            3870    1.29775E+007    1.19293E+007    1.19293E+007   -7.03445E+005   -1.36741E+006    1.32967E+007   -3.28616E+006    1.29392E+007   -7.53114E+005    1.17027E+007   -1.09113E+006   -1.03360E+006    1.56269E+005    1.37415E+006
            3871    1.36145E+007    1.25891E+007    1.25891E+007   -5.62475E+005   -1.44547E+006    1.40345E+007   -3.52704E+006    1.35499E+007   -5.30147E+005    1.24199E+007   -1.30861E+006   -1.00412E+006    1.07638E+005    1.14101E+006
            3872    1.40786E+007    1.30762E+007    1.30762E+007   -4.56587E+005   -1.49113E+006    1.45673E+007   -3.70950E+006    1.39927E+007   -3.93176E+005    1.29661E+007   -1.44438E+006   -9.80879E+005    3.72835E+004    7.52624E+005
            3873    1.43459E+007    1.33425E+007    1.33425E+007   -4.06539E+005   -1.53367E+006    1.48762E+007   -3.80076E+006    1.42457E+007   -3.36493E+005    1.32666E+007   -1.52778E+006   -9.87643E+005    1.91194E+004    2.63830E+005
            3874    1.17179E+007    9.93117E+006    9.93117E+006   -6.77933E+005   -2.64622E+006    1.25774E+007   -2.20234E+006    1.13370E+007   -2.50199E+006    9.64299E+006   -5.33994E+005   -1.20401E+006    9.50008E+004    1.34916E+006
            3875    1.24648E+007    1.06702E+007    1.06702E+007   -8.15072E+005   -2.58486E+006    1.32551E+007   -2.42343E+006    1.21773E+007   -2.36661E+006    1.03487E+007   -7.11760E+005   -1.38238E+006    1.94652E+005    1.43172E+006
            3876    1.31690E+007    1.13956E+007    1.13956E+007   -1.05491E+006   -2.39032E+006    1.37859E+007   -2.65011E+006    1.30154E+007   -2.08311E+006    1.10333E+007   -9.99816E+005   -1.54814E+006    2.18022E+005    1.53702E+006
            3877    1.39808E+007    1.22102E+007    1.22102E+007   -1.25508E+006   -2.23461E+006    1.44448E+007   -2.90685E+006    1.39033E+007   -1.91439E+006    1.18450E+007   -1.21006E+006   -1.70907E+006    1.34271E+005    1.47437E+006
            3878    1.47395E+007    1.29330E+007    1.29330E+007   -1.42204E+006   -2.16292E+006    1.50960E+007   -3.11603E+006    1.46975E+007   -1.81059E+006    1.25927E+007   -1.43400E+006   -1.86118E+006    1.13797E+005    1.24500E+006
            3879    1.53312E+007    1.35114E+007    1.35114E+007   -1.57383E+006   -2.05448E+006    1.55659E+007   -3.29437E+006    1.53143E+007   -1.73665E+006    1.32079E+007   -1.58813E+006   -1.98399E+006    5.03308E+004    8.34369E+005
            3880    1.57033E+007    1.38431E+007    1.38431E+007   -1.67740E+006   -2.03678E+006    1.58799E+007   -3.37630E+006    1.56940E+007   -1.74721E+006    1.35617E+007   -1.68556E+006   -2.07435E+006    2.97978E+004    2.93643E+005
            3881    1.22712E+007    9.90201E+006    9.90201E+006   -1.17662E+006   -3.28777E+006    1.31898E+007   -1.81254E+006    1.18522E+007   -3.13690E+006    9.55117E+006   -9.76661E+005   -1.35493E+006   -2.94922E+004    1.50854E+006
            3882    1.28748E+007    1.05757E+007    1.05757E+007   -1.07058E+006   -3.24950E+006    1.38252E+007   -2.08520E+006    1.24498E+007   -3.08680E+006    1.02113E+007   -8.68931E+005   -1.46238E+006   -7.47972E+004    1.53416E+006
            3883    1.39276E+007    1.15362E+007    1.15362E+007   -1.24564E+006   -3.30723E+006    1.48435E+007   -2.32779E+006    1.35779E+007   -3.11061E+006    1.11464E+007   -1.05238E+006   -1.64264E+006   -3.87171E+004    1.60465E+006
            3884    1.50355E+007    1.25735E+007    1.25735E+007   -1.32374E+006   -3.38710E+006    1.59606E+007   -2.62088E+006    1.47119E+007   -3.16271E+006    1.21784E+007   -1.15302E+006   -1.85244E+006   -9.37630E+004    1.54783E+006
            3885    1.62218E+007    1.36467E+007    1.36467E+007   -1.41243E+006   -3.52974E+006    1.71764E+007   -2.90151E+006    1.59064E+007   -3.27890E+006    1.32788E+007   -1.29540E+006   -2.03975E+006   -7.87750E+004    1.34098E+006
            3886    1.71989E+007    1.45456E+007    1.45456E+007   -1.45669E+006   -3.64115E+006    1.81868E+007   -3.14926E+006    1.68826E+007   -3.37101E+006    1.42228E+007   -1.40400E+006   -2.19473E+006   -7.98789E+004    9.18074E+005
            3887    1.77939E+007    1.50772E+007    1.50772E+007   -1.48777E+006   -3.73262E+006    1.88098E+007   -3.28561E+006    1.74711E+007   -3.45305E+006    1.47912E+007   -1.48133E+006   -2.27493E+006   -2.01124E+004    3.31407E+005
            3888    1.98935E+007    1.54550E+007    1.54550E+007   -1.24366E+006   -6.55524E+006    2.20102E+007   -2.55203E+006    1.81928E+007   -6.32191E+006    1.52109E+007   -1.23295E+006   -2.25168E+006   -8.92357E+004    4.23265E+005
            3889    1.90365E+007    1.46784E+007    1.46784E+007   -1.36076E+006   -6.35829E+006    2.10367E+007   -2.31979E+006    1.74668E+007   -6.11689E+006    1.43548E+007   -1.27854E+006   -2.22468E+006   -2.33795E+005    1.14372E+006
            3890    1.76241E+007    1.34476E+007    1.34476E+007   -1.48797E+006   -5.99127E+006    1.94389E+007   -1.98945E+006    1.62523E+007   -5.74284E+006    1.30316E+007   -1.32044E+006   -2.15479E+006   -3.17991E+005    1.56707E+006
            3891    1.60726E+007    1.21707E+007    1.21707E+007   -1.57377E+006   -5.50187E+006    1.76725E+007   -1.69834E+006    1.49342E+007   -5.25875E+006    1.16980E+007   -1.34422E+006   -2.03188E+006   -3.17168E+005    1.74775E+006
            3892    1.45767E+007    1.09874E+007    1.09874E+007   -1.54269E+006   -5.01045E+006    1.59979E+007   -1.47809E+006    1.36014E+007   -4.78488E+006    1.05122E+007   -1.29301E+006   -1.86696E+006   -2.68668E+005    1.73492E+006
            3893    1.33924E+007    1.00728E+007    1.00728E+007   -1.51236E+006   -4.59088E+006    1.46636E+007   -1.32317E+006    1.25588E+007   -4.38654E+006    9.62695E+006   -1.27088E+006   -1.70422E+006   -1.83277E+005    1.64516E+006
            3894    1.24860E+007    9.33307E+006    9.33307E+006   -1.39452E+006   -4.37277E+006    1.37058E+007   -1.18859E+006    1.16459E+007   -4.18350E+006    8.95655E+006   -1.20726E+006   -1.57578E+006   -7.28526E+004    1.41706E+006
            3895    1.32744E+007    1.04912E+007    1.04912E+007   -1.52847E+006   -3.75601E+006    1.42472E+007   -1.73557E+006    1.28437E+007   -3.55073E+006    1.01244E+007   -1.36693E+006    1.60486E+006   -3.87985E+004    1.47914E+006
            3896    1.20597E+007    9.94407E+006    9.94407E+006   -7.76566E+005   -3.11287E+006    1.30569E+007   -2.01821E+006    1.15340E+007   -2.95140E+006    9.55630E+006   -5.50276E+005    1.34629E+006   -3.67261E+004    1.61451E+006
            3897    1.09274E+007    9.27103E+006    9.27103E+006   -3.58410E+005   -2.60503E+006    1.18761E+007   -2.10253E+006    1.03885E+007   -2.46428E+006    9.00189E+006   -2.30016E+005    1.08700E+006   -1.74968E+005    1.28114E+006
            3898    1.01961E+007    9.07200E+006    9.07200E+006    1.42290E+005   -2.03779E+006    1.11098E+007   -2.39217E+006    9.65056E+006   -1.91678E+006    8.92128E+006    1.71996E+005    8.17049E+005   -2.89758E+005    9.15979E+005
            3899    1.06819E+007    9.92577E+006    9.92577E+006    4.64239E+003   -1.38162E+006    1.13074E+007   -2.84960E+006    1.04767E+007   -1.19070E+006    9.78770E+006   -4.82132E+004    6.92024E+005   -3.67575E+005    9.95624E+005
            3900    1.13581E+007    1.07057E+007    1.07057E+007   -1.67050E+005   -1.08231E+006    1.17880E+007   -3.15212E+006    1.12747E+007   -7.31999E+005    1.05825E+007   -3.94189E+005    5.93005E+005   -3.84636E+005    1.03223E+006
            3901    1.20471E+007    1.14708E+007    1.14708E+007   -2.28652E+005   -8.96174E+005    1.23670E+007   -3.44867E+006    1.20054E+007   -3.52298E+005    1.13743E+007   -6.75969E+005    4.48990E+005   -2.35547E+005    9.91489E+005
            3902    1.28261E+007    1.22127E+007    1.22127E+007   -2.32051E+005   -9.63356E+005    1.31761E+007   -3.67243E+006    1.27790E+007   -2.54659E+005    1.21446E+007   -8.72690E+005    3.64012E+005   -1.27306E+005    8.70568E+005
            3903    1.35161E+007    1.28363E+007    1.28363E+007   -1.66756E+005   -1.14022E+006    1.39765E+007   -3.84310E+006    1.34369E+007   -1.69779E+005    1.27967E+007   -1.09759E+006    3.17078E+005   -8.56525E+004    6.68476E+005
            3904    1.40339E+007    1.32904E+007    1.32904E+007   -1.58444E+005   -1.26328E+006    1.45537E+007   -3.95623E+006    1.39356E+007   -1.53099E+005    1.32710E+007   -1.24924E+006    2.96134E+005   -2.66426E+004    4.32958E+005
            3905    1.43050E+007    1.35254E+007    1.35254E+007   -1.47564E+005   -1.33737E+006    1.48628E+007   -4.01349E+006    1.41931E+007   -1.41875E+005    1.35180E+007   -1.33567E+006    2.88185E+005   -1.85421E+004    1.39702E+005
            3906    1.12605E+007    1.00812E+007    1.00812E+007   -3.01786E+005   -1.88851E+006    1.19697E+007   -2.63030E+006    1.10048E+007   -1.70090E+006    9.84265E+006   -2.50839E+005    1.04514E+006   -2.65598E+005    1.25075E+006
            3907    1.16306E+007    1.05972E+007    1.05972E+007   -4.38778E+005   -1.54852E+006    1.21457E+007   -2.86997E+006    1.15106E+007   -1.19950E+006    1.03681E+007   -5.58725E+005    1.00228E+006   -3.64820E+005    1.29745E+006
            3908    1.21515E+007    1.12938E+007    1.12938E+007   -4.66998E+005   -1.21390E+006    1.25077E+007   -3.20430E+006    1.20997E+007   -6.45795E+005    1.10852E+007   -8.26512E+005    8.46530E+005   -2.54090E+005    1.35961E+006
            3909    1.28008E+007    1.20132E+007    1.20132E+007   -3.45424E+005   -1.18819E+006    1.32014E+007   -3.49319E+006    1.27382E+007   -3.64359E+005    1.18592E+007   -1.01524E+006    7.09879E+005   -1.47304E+005    1.22333E+006
            3910    1.34053E+007    1.26278E+007    1.26278E+007   -1.53141E+005   -1.32485E+006    1.39527E+007   -3.71661E+006    1.32893E+007   -1.43842E+005    1.25304E+007   -1.23669E+006    5.90233E+005   -9.91161E+004    9.91020E+005
            3911    1.38515E+007    1.30922E+007    1.30922E+007   -2.83076E+004   -1.38972E+006    1.44819E+007   -3.89138E+006    1.36997E+007   -1.14942E+004    1.30455E+007   -1.35991E+006    5.08432E+005   -3.91672E+004    6.24979E+005
            3912    1.40927E+007    1.33333E+007    1.33333E+007    4.09719E+004   -1.44239E+006    1.47757E+007   -3.97730E+006    1.39154E+007    5.61306E+004    1.33143E+007   -1.43850E+006    4.56899E+005   -2.13891E+004    2.22460E+005
            3913    1.20106E+007    1.02612E+007    1.02612E+007   -7.00360E+005   -2.57743E+006    1.28387E+007   -2.32781E+006    1.16738E+007   -2.41375E+006    9.99388E+006   -5.96686E+005    1.26604E+006   -1.33261E+005    1.25009E+006
            3914    1.23677E+007    1.07076E+007    1.07076E+007   -7.22642E+005   -2.42190E+006    1.31295E+007   -2.52102E+006    1.21009E+007   -2.16539E+006    1.03836E+007   -6.55174E+005    1.40356E+006   -2.50736E+005    1.42074E+006
            3915    1.30329E+007    1.14518E+007    1.14518E+007   -1.00531E+006   -2.08919E+006    1.35410E+007   -2.78576E+006    1.29309E+007   -1.72646E+006    1.11027E+007   -1.01890E+006    1.48803E+006   -2.44509E+005    1.53019E+006
            3916    1.36689E+007    1.21360E+007    1.21360E+007   -1.18269E+006   -1.85807E+006    1.39940E+007   -3.03173E+006    1.36312E+007   -1.45845E+006    1.18119E+007   -1.25821E+006    1.53893E+006   -1.57410E+005    1.43461E+006
            3917    1.42583E+007    1.27697E+007    1.27697E+007   -1.22188E+006   -1.74113E+006    1.45109E+007   -3.26891E+006    1.42370E+007   -1.22363E+006    1.24962E+007   -1.46587E+006    1.58835E+006   -1.17417E+005    1.16528E+006
            3918    1.46769E+007    1.32198E+007    1.32198E+007   -1.21351E+006   -1.68924E+006    1.49090E+007   -3.43901E+006    1.46596E+007   -1.07290E+006    1.29964E+007   -1.60644E+006    1.62298E+006   -5.17952E+004    7.67360E+005
            3919    1.48868E+007    1.34509E+007    1.34509E+007   -1.16745E+006   -1.69046E+006    1.51414E+007   -3.53101E+006    1.48661E+007   -9.87579E+005    1.32611E+007   -1.68051E+006    1.63688E+006   -2.58450E+004    2.56517E+005
            3920    1.21525E+007    9.98318E+006    9.98318E+006   -8.65451E+005   -3.14910E+006    1.31323E+007   -1.98954E+006    1.16550E+007   -3.00352E+006    9.61635E+006   -6.44196E+005    1.33533E+006    4.60925E+004    1.55706E+006
            3921    1.31238E+007    1.08395E+007    1.08395E+007   -1.22872E+006   -3.13201E+006    1.39715E+007   -2.15959E+006    1.28077E+007   -2.96645E+006    1.04772E+007   -1.03200E+006    1.43590E+006    3.63846E+003    1.58958E+006
            3922    1.39408E+007    1.16244E+007    1.16244E+007   -1.36542E+006   -3.10427E+006    1.47287E+007   -2.38490E+006    1.36936E+007   -2.90401E+006    1.12391E+007   -1.18043E+006    1.60875E+006   -2.97941E+003    1.62884E+006
            3923    1.49788E+007    1.26810E+007    1.26810E+007   -1.40943E+006   -3.05105E+006    1.57320E+007   -2.74016E+006    1.47744E+007   -2.82642E+006    1.23027E+007   -1.25580E+006    1.80381E+006    3.50030E+004    1.52809E+006
            3924    1.59292E+007    1.36079E+007    1.36079E+007   -1.48173E+006   -3.04550E+006    1.66534E+007   -3.02690E+006    1.57551E+007   -2.79697E+006    1.32574E+007   -1.37974E+006    1.97369E+006    3.46409E+004    1.29763E+006
            3925    1.66795E+007    1.43528E+007    1.43528E+007   -1.52046E+006   -3.03029E+006    1.73831E+007   -3.26734E+006    1.65247E+007   -2.76798E+006    1.40459E+007   -1.47593E+006    2.10407E+006    3.91129E+004    8.69332E+005
            3926    1.70983E+007    1.47487E+007    1.47487E+007   -1.56299E+006   -3.04022E+006    1.77889E+007   -3.38184E+006    1.69538E+007   -2.76865E+006    1.44716E+007   -1.55746E+006    2.17806E+006    8.25821E+003    3.19026E+005
            3927    1.96825E+007    1.54160E+007    1.54160E+007   -1.24774E+006   -6.30028E+006    2.17163E+007   -2.62265E+006    1.81354E+007   -6.06003E+006    1.51655E+007   -1.23753E+006    2.26973E+006    7.92070E+004    4.11386E+005
            3928    1.88768E+007    1.46606E+007    1.46606E+007   -1.33715E+006   -6.15964E+006    2.08202E+007   -2.38792E+006    1.74080E+007   -5.91239E+006    1.43384E+007   -1.26228E+006    2.24276E+006    2.13934E+005    1.08835E+006
            3929    1.75880E+007    1.35167E+007    1.35167E+007   -1.44634E+006   -5.85678E+006    1.93735E+007   -2.07119E+006    1.62726E+007   -5.60454E+006    1.31142E+007   -1.29611E+006    2.17410E+006    2.87165E+005    1.48373E+006
            3930    1.60450E+007    1.21771E+007    1.21771E+007   -1.56191E+006   -5.45677E+006    1.76339E+007   -1.71949E+006    1.49248E+007   -5.20802E+006    1.17218E+007   -1.35534E+006    2.05698E+006    2.96896E+005    1.65813E+006
            3931    1.45992E+007    1.09565E+007    1.09565E+007   -1.63283E+006   -5.04734E+006    1.60038E+007   -1.42545E+006    1.36568E+007   -4.81574E+006    1.05104E+007   -1.41835E+006    1.89492E+006    2.49199E+005    1.61382E+006
            3932    1.32721E+007    9.74009E+006    9.74009E+006   -1.76750E+006   -4.77899E+006    1.45191E+007   -1.06453E+006    1.24681E+007   -4.56668E+006    9.34295E+006   -1.58267E+006    1.73080E+006    1.52758E+005    1.43943E+006
            3933    1.31112E+007    9.57239E+006    9.57239E+006   -2.18335E+006   -4.56714E+006    1.41395E+007   -9.40636E+005    1.26097E+007   -4.34881E+006    9.24995E+006   -2.07924E+006    1.68700E+006   -2.81822E+004    1.17600E+006
            3934    1.78067E+007    1.50835E+007    1.50835E+007   -1.48727E+006   -3.74398E+006    1.88275E+007   -3.28409E+006    1.74807E+007   -3.46457E+006    1.47972E+007   -1.48036E+006   -2.27534E+006    2.16947E+004   -3.42796E+005
            3935    1.57157E+007    1.38488E+007    1.38488E+007   -1.67647E+006   -2.05059E+006    1.58994E+007   -3.37393E+006    1.57057E+007   -1.76021E+006    1.35660E+007   -1.68396E+006   -2.07917E+006   -2.89555E+004   -3.07751E+005
            3936    1.43472E+007    1.33404E+007    1.33404E+007   -4.13611E+005   -1.53427E+006    1.48746E+007   -3.79750E+006    1.42482E+007   -3.42879E+005    1.32629E+007   -1.52753E+006   -9.94334E+005   -2.14229E+004   -2.80102E+005
            3937    1.44390E+007    1.35704E+007    1.35704E+007   -2.55788E+005   -1.41188E+006    1.49823E+007   -3.96758E+006    1.43343E+007   -2.37487E+005    1.35485E+007   -1.40823E+006   -5.10517E+005   -1.78983E+004   -2.15267E+005
            3938    1.40398E+007    1.33035E+007    1.33035E+007   -2.61715E+004   -1.35224E+006    1.46558E+007   -3.97504E+006    1.38978E+007   -1.89270E+004    1.32941E+007   -1.35001E+006   -3.20269E+005   -2.06999E+004   -1.61637E+005
            3939    1.40737E+007    1.34502E+007    1.34502E+007    7.63151E+004   -1.23199E+006    1.46822E+007   -4.09818E+006    1.39359E+007    7.71286E+004    1.34485E+007   -1.23104E+006   -1.20840E+005   -1.81871E+004   -9.95258E+004
            3940    1.38884E+007    1.32545E+007    1.32545E+007    5.76015E+004   -1.23510E+006    1.44896E+007   -4.02566E+006    1.37521E+007    5.74881E+004    1.32542E+007   -1.23474E+006   -4.61635E+004   -1.87264E+004   -3.49944E+004
            3941    1.40264E+007    1.34303E+007    1.34303E+007    8.34361E+004   -1.18896E+006    1.46192E+007   -4.10825E+006    1.38956E+007    8.30873E+004    1.34302E+007   -1.18858E+006    6.93600E+003   -2.11630E+004    1.95853E+004
            3942    1.38686E+007    1.32433E+007    1.32433E+007    1.15703E+005   -1.26331E+006    1.45066E+007   -4.03188E+006    1.37131E+007    1.16622E+005    1.32415E+007   -1.26251E+006    1.24386E+005   -1.80587E+004    8.90072E+004
            3943    1.72012E+007    1.45383E+007    1.45383E+007   -1.45253E+006   -3.66012E+006    1.81985E+007   -3.14189E+006    1.68781E+007   -3.39023E+006    1.42141E+007   -1.39819E+006   -2.19448E+006    8.21652E+004   -9.31456E+005
            3944    1.53374E+007    1.35068E+007    1.35068E+007   -1.57196E+006   -2.07680E+006    1.55836E+007   -3.28600E+006    1.53187E+007   -1.75884E+006    1.32005E+007   -1.58362E+006   -1.98763E+006   -5.16031E+004   -8.53289E+005
            3945    1.40636E+007    1.30569E+007    1.30569E+007   -4.66845E+005   -1.49047E+006    1.45474E+007   -3.69987E+006    1.39794E+007   -4.03722E+005    1.29434E+007   -1.44005E+006   -9.85761E+005   -4.03848E+004   -7.77188E+005
            3946    1.41202E+007    1.32849E+007    1.32849E+007   -2.72913E+005   -1.33739E+006    1.46223E+007   -3.89155E+006    1.40295E+007   -2.55510E+005    1.32410E+007   -1.31084E+006   -5.14436E+005   -2.54189E+004   -5.97787E+005
            3947    1.37528E+007    1.30558E+007    1.30558E+007   -5.36575E+004   -1.26076E+006    1.43166E+007   -3.91379E+006    1.36328E+007   -4.76656E+004    1.30340E+007   -1.24491E+006   -3.18800E+005   -3.53108E+004   -4.49646E+005
            3948    1.37790E+007    1.32019E+007    1.32019E+007    6.04182E+004   -1.13665E+006    1.43385E+007   -4.04188E+006    1.36613E+007    6.07221E+004    1.31958E+007   -1.13088E+006   -1.24090E+005   -2.97300E+004   -2.65383E+005
            3949    1.36213E+007    1.30355E+007    1.30355E+007    3.93542E+004   -1.13489E+006    1.41704E+007   -3.97998E+006    1.35067E+007    3.84618E+004    1.30346E+007   -1.13310E+006   -4.40330E+004   -3.46092E+004   -1.03286E+005
            3950    1.37542E+007    1.32037E+007    1.32037E+007    7.25226E+004   -1.09870E+006    1.43024E+007   -4.05917E+006    1.36414E+007    7.16245E+004    1.32032E+007   -1.09733E+006    1.22191E+004   -3.25516E+004    8.07685E+004
            3951    1.36241E+007    1.30362E+007    1.30362E+007    8.40174E+004   -1.17270E+006    1.42089E+007   -3.98250E+006    1.34927E+007    8.45381E+004    1.30305E+007   -1.16755E+006    1.39032E+005   -3.23304E+004    2.43824E+005
            3952    1.61911E+007    1.36138E+007    1.36138E+007   -1.40695E+006   -3.53683E+006    1.71506E+007   -2.89001E+006    1.58713E+007   -3.28643E+006    1.32448E+007   -1.28834E+006   -2.03667E+006    8.05163E+004   -1.34726E+006
            3953    1.46992E+007    1.28950E+007    1.28950E+007   -1.41217E+006   -2.16719E+006    1.50622E+007   -3.10522E+006    1.46555E+007   -1.81465E+006    1.25532E+007   -1.42293E+006   -1.85112E+006   -1.17141E+005   -1.26295E+006
            3954    1.35672E+007    1.25475E+007    1.25475E+007   -5.59080E+005   -1.43761E+006    1.39851E+007   -3.51695E+006    1.35030E+007   -5.30360E+005    1.23766E+007   -1.29538E+006   -9.92492E+005   -1.10695E+005   -1.15895E+006
            3955    1.35331E+007    1.27491E+007    1.27491E+007   -2.97870E+005   -1.22256E+006    1.39717E+007   -3.74291E+006    1.34617E+007   -2.93603E+005    1.26705E+007   -1.14814E+006   -5.19036E+005   -8.66774E+004   -9.01444E+005
            3956    1.32347E+007    1.25980E+007    1.25980E+007   -8.95341E+004   -1.12316E+006    1.37212E+007   -3.79511E+006    1.31434E+007   -9.37357E+004    1.25579E+007   -1.07878E+006   -3.21892E+005   -9.57622E+004   -6.64056E+005
            3957    1.32325E+007    1.27323E+007    1.27323E+007    4.60972E+004   -9.86147E+005    1.37184E+007   -3.93074E+006    1.31415E+007    3.93800E+004    1.27197E+007   -9.66890E+005   -1.28847E+005   -8.67185E+004   -3.93122E+005
            3958    1.31309E+007    1.26237E+007    1.26237E+007    2.38295E+004   -9.80560E+005    1.36043E+007   -3.88899E+006    1.30441E+007    1.59620E+004    1.26224E+007   -9.71382E+005   -3.94921E+004   -8.88383E+004   -1.27285E+005
            3959    1.32372E+007    1.27655E+007    1.27655E+007    6.73782E+004   -9.51797E+005    1.37173E+007   -3.96037E+006    1.31485E+007    5.96241E+004    1.27641E+007   -9.42636E+005    2.51192E+004   -8.85744E+004    1.36567E+005
            3960    1.31719E+007    1.26373E+007    1.26373E+007    4.35132E+004   -1.04502E+006    1.36823E+007   -3.87861E+006    1.30701E+007    3.77603E+004    1.26228E+007   -1.02475E+006    1.62305E+005   -8.68068E+004    4.13100E+005
            3961    1.49818E+007    1.25261E+007    1.25261E+007   -1.32052E+006   -3.37830E+006    1.59044E+007   -2.60908E+006    1.46588E+007   -3.15493E+006    1.21309E+007   -1.14869E+006   -1.84378E+006    9.13441E+004   -1.55115E+006
            3962    1.39016E+007    1.21467E+007    1.21467E+007   -1.23790E+006   -2.21981E+006    1.43666E+007   -2.89634E+006    1.38233E+007   -1.89937E+006    1.17836E+007   -1.19516E+006   -1.68661E+006   -1.40739E+005   -1.48090E+006
            3963    1.29001E+007    1.18695E+007    1.18695E+007   -6.82988E+005   -1.35216E+006    1.32216E+007   -3.27811E+006    1.28609E+007   -7.40608E+005    1.16448E+007   -1.06982E+006   -1.00895E+006   -1.62588E+005   -1.37790E+006
            3964    1.27802E+007    1.20610E+007    1.20610E+007   -3.63395E+005   -1.04745E+006    1.31085E+007   -3.55007E+006    1.27389E+007   -3.93278E+005    1.19478E+007   -9.04281E+005   -5.44792E+005   -1.37407E+005   -1.08288E+006
            3965    1.25289E+007    1.19738E+007    1.19738E+007   -1.71259E+005   -9.06636E+005    1.28804E+007   -3.63196E+006    1.24802E+007   -2.00350E+005    1.19158E+007   -8.19561E+005   -3.37737E+005   -1.42111E+005   -7.92522E+005
            3966    1.25084E+007    1.21063E+007    1.21063E+007   -1.15662E+004   -7.59076E+005    1.28654E+007   -3.77856E+006    1.24580E+007   -3.70861E+004    1.20886E+007   -7.15886E+005   -1.43658E+005   -1.34749E+005   -4.54096E+005
            3967    1.24504E+007    1.20440E+007    1.20440E+007   -3.40770E+004   -7.48092E+005    1.27921E+007   -3.75394E+006    1.24043E+007   -6.06390E+004    1.20426E+007   -7.20152E+005   -3.57288E+004   -1.35018E+005   -1.27860E+005
            3968    1.25498E+007    1.21732E+007    1.21732E+007    1.54150E+004   -7.34897E+005    1.29081E+007   -3.81790E+006    1.24992E+007   -8.80082E+003    1.21697E+007   -7.07149E+005    4.58954E+004   -1.32291E+005    2.08491E+005
            3969    1.25305E+007    1.20709E+007    1.20709E+007   -5.16966E+004   -8.31074E+005    1.29020E+007   -3.72937E+006    1.24757E+007   -7.41829E+004    1.20454E+007   -7.83059E+005    2.03563E+005   -1.30865E+005    5.35353E+005
            3970    1.38649E+007    1.14867E+007    1.14867E+007   -1.23810E+006   -3.28972E+006    1.47764E+007   -2.31962E+006    1.35171E+007   -3.09428E+006    1.10975E+007   -1.04434E+006   -1.63136E+006    3.50099E+004   -1.60537E+006
            3971    1.30753E+007    1.13268E+007    1.13268E+007   -1.02968E+006   -2.36477E+006    1.36916E+007   -2.64412E+006    1.29206E+007   -2.05786E+006    1.09689E+007   -9.78715E+005   -1.52331E+006   -2.25926E+005   -1.53229E+006
            3972    1.22218E+007    1.11424E+007    1.11424E+007   -6.58797E+005   -1.46041E+006    1.26028E+007   -3.00774E+006    1.21624E+007   -9.93901E+005    1.08857E+007   -8.68550E+005   -1.03790E+006   -2.79129E+005   -1.44399E+006
            3973    1.19628E+007    1.12784E+007    1.12784E+007   -3.31817E+005   -1.00836E+006    1.22867E+007   -3.31273E+006    1.19196E+007   -5.16435E+005    1.11391E+007   -6.84510E+005   -5.90519E+005   -2.58147E+005   -1.15806E+006
            3974    1.17506E+007    1.12593E+007    1.12593E+007   -1.52244E+005   -8.03430E+005    1.20627E+007   -3.43453E+006    1.17099E+007   -2.93736E+005    1.11908E+007   -5.93441E+005   -3.66198E+005   -2.50599E+005   -8.28915E+005
            3975    1.16938E+007    1.13752E+007    1.13752E+007    1.36755E+004   -6.24574E+005    1.19998E+007   -3.58812E+006    1.16545E+007   -9.60361E+004    1.13548E+007   -4.94367E+005   -1.61794E+005   -2.36376E+005   -4.68198E+005
            3976    1.16680E+007    1.13585E+007    1.13585E+007   -1.30263E+002   -5.96016E+005    1.19546E+007   -3.58746E+006    1.16337E+007   -1.07836E+005    1.13577E+007   -4.87473E+005   -2.92254E+004   -2.29129E+005   -9.56804E+004
            3977    1.17435E+007    1.14517E+007    1.14517E+007    3.96185E+004   -5.97273E+005    1.20490E+007   -3.63136E+006    1.17046E+007   -5.72026E+004    1.14447E+007   -4.93423E+005    7.92457E+004   -2.27341E+005    2.79786E+005
            3978    1.18084E+007    1.14017E+007    1.14017E+007   -6.35362E+004   -7.22303E+005    1.21240E+007   -3.53862E+006    1.17670E+007   -1.63452E+005    1.13612E+007   -5.81855E+005    2.62072E+005   -2.27619E+005    6.48897E+005
            3979    1.28215E+007    1.05376E+007    1.05376E+007   -1.06117E+006   -3.23004E+006    1.37676E+007   -2.08212E+006    1.23987E+007   -3.06873E+006    1.01753E+007   -8.60189E+005   -1.45158E+006    7.04655E+004   -1.53006E+006
            3980    1.23911E+007    1.06233E+007    1.06233E+007   -7.90672E+005   -2.55568E+006    1.31790E+007   -2.42564E+006    1.21034E+007   -2.33866E+006    1.03074E+007   -6.91811E+005   -1.36225E+006   -2.02157E+005   -1.41900E+006
            3981    1.16058E+007    1.04130E+007    1.04130E+007   -4.86339E+005   -1.78922E+006    1.22023E+007   -2.71250E+006    1.14395E+007   -1.48381E+006    1.01566E+007   -5.35335E+005   -1.07806E+006   -3.56930E+005   -1.34993E+006
            3982    1.12507E+007    1.05050E+007    1.05050E+007   -1.97245E+005   -1.22386E+006    1.17289E+007   -3.02796E+006    1.11446E+007   -9.01285E+005    1.03593E+007   -3.74138E+005   -6.81555E+005   -3.95091E+005   -1.09152E+006
            3983    1.10267E+007    1.05018E+007    1.05018E+007   -3.22386E+004   -9.59031E+005    1.14608E+007   -3.17017E+006    1.09385E+007   -6.31078E+005    1.04283E+007   -2.86717E+005   -4.36685E+005   -4.07630E+005   -7.95122E+005
            3984    1.09039E+007    1.05828E+007    1.05828E+007    1.24636E+005   -7.17963E+005    1.13007E+007   -3.32982E+006    1.08303E+007   -3.78894E+005    1.05621E+007   -1.93751E+005   -2.03542E+005   -4.04744E+005   -4.34013E+005
            3985    1.08973E+007    1.05867E+007    1.05867E+007    1.22837E+005   -6.97582E+005    1.12843E+007   -3.33733E+006    1.08275E+007   -3.72523E+005    1.05864E+007   -2.01854E+005   -2.20614E+004   -4.01151E+005   -5.97938E+004
            3986    1.09394E+007    1.06469E+007    1.06469E+007    1.36801E+005   -6.76379E+005    1.13233E+007   -3.36910E+006    1.08711E+007   -3.33438E+005    1.06360E+007   -1.95271E+005    1.38094E+005   -3.97476E+005    3.19440E+005
            3987    1.10694E+007    1.06100E+007    1.06100E+007   -6.33043E+003   -8.62779E+005    1.14728E+007   -3.24696E+006    1.09945E+007   -5.13448E+005    1.05542E+007   -2.99847E+005    3.66673E+005   -3.96215E+005    7.03307E+005
            3988    1.22365E+007    9.87760E+006    9.87760E+006   -1.16378E+006   -3.27833E+006    1.31559E+007   -1.81183E+006    1.18149E+007   -3.12798E+006    9.52762E+006   -9.64160E+005   -1.35026E+006    2.81097E+004   -1.50522E+006
            3989    1.16734E+007    9.90438E+006    9.90438E+006   -6.60716E+005   -2.62751E+006    1.25319E+007   -2.20539E+006    1.12916E+007   -2.48386E+006    9.62063E+006   -5.20607E+005   -1.19273E+006   -1.02025E+005   -1.33678E+006
            3990    1.11350E+007    9.85098E+006    9.85098E+006   -3.30023E+005   -2.04016E+006    1.18911E+007   -2.49360E+006    1.08336E+007   -1.86849E+006    9.62906E+006   -2.79779E+005   -1.02972E+006   -2.60424E+005   -1.17651E+006
            3991    1.06368E+007    9.82286E+006    9.82286E+006    9.25146E+003   -1.48016E+006    1.13030E+007   -2.78398E+006    1.03983E+007   -1.29858E+006    9.67921E+006   -2.86782E+004   -7.33757E+005   -3.61138E+005   -9.91906E+005
            3992    1.03186E+007    9.77688E+006    9.77688E+006    2.27528E+005   -1.16870E+006    1.09456E+007   -2.94524E+006    1.01028E+007   -9.91151E+005    9.71068E+006    1.16180E+005   -4.75678E+005   -4.11673E+005   -6.78363E+005
            3993    1.01793E+007    9.83377E+006    9.83377E+006    3.65583E+005   -9.32160E+005    1.07659E+007   -3.08906E+006    9.99064E+006   -7.41445E+005    9.81638E+006    1.92256E+005   -2.32811E+005   -4.46897E+005   -3.53347E+005
            3994    1.01547E+007    9.84775E+006    9.84775E+006    3.95892E+005   -8.87714E+005    1.07355E+007   -3.11864E+006    9.96972E+006   -7.02955E+005    9.84772E+006    2.11169E+005   -1.00851E+004   -4.50555E+005   -1.64882E+004
            3995    1.01959E+007    9.86896E+006    9.86896E+006    3.67506E+005   -9.02446E+005    1.07714E+007   -3.11134E+006    1.00157E+007   -7.08595E+005    9.85565E+006    1.86962E+005    1.97843E+005   -4.47550E+005    3.13036E+005
            3996    1.03321E+007    9.84611E+006    9.84611E+006    2.51465E+005   -1.09208E+006    1.09382E+007   -3.00183E+006    1.01328E+007   -9.09141E+005    9.78586E+006    1.28772E+005    4.44615E+005   -4.14465E+005    6.54454E+005
            3997    9.85710E+006    9.06483E+006    9.06483E+006    3.85206E+005   -1.65153E+006    1.07164E+007   -2.59950E+006    9.36595E+006   -1.54884E+006    9.00460E+006    3.42749E+005    5.40465E+005   -3.56670E+005    5.51913E+005
            3998    9.70372E+006    9.11253E+006    9.11253E+006    5.11838E+005   -1.40740E+006    1.05199E+007   -2.73899E+006    9.26215E+006   -1.31474E+006    9.09882E+006    4.32886E+005    2.71408E+005   -3.89911E+005    2.50112E+005
            3999    9.69010E+006    9.14146E+006    9.14146E+006    5.07011E+005   -1.33878E+006    1.04802E+007   -2.76990E+006    9.28214E+006   -1.25132E+006    9.14146E+006    4.19557E+005   -2.86937E+003   -3.92147E+005   -5.45460E+003
            4000    9.71202E+006    9.10927E+006    9.10927E+006    5.03759E+005   -1.42102E+006    1.05303E+007   -2.73067E+006    9.26820E+006   -1.32808E+006    9.09517E+006    4.24921E+005   -2.80484E+005   -3.89892E+005   -2.48912E+005
            4001    9.87203E+006    9.05897E+006    9.05897E+006    3.72677E+005   -1.67699E+006    1.07360E+007   -2.58489E+006    9.37519E+006   -1.57395E+006    8.99652E+006    3.32090E+005   -5.52337E+005   -3.54902E+005   -5.60877E+005
            4002    1.02238E+007    9.05263E+006    9.05263E+006    9.01597E+004   -2.08313E+006    1.11358E+007   -2.35322E+006    9.68346E+006   -1.96096E+006    8.90964E+006    1.10971E+005   -8.15705E+005   -2.96455E+005   -8.80843E+005
            4003    1.09158E+007    9.26806E+006    9.26806E+006   -3.45679E+005   -2.59834E+006    1.18664E+007   -2.10801E+006    1.03733E+007   -2.45953E+006    9.02196E+006   -2.38389E+005   -1.06886E+006   -1.89896E+005   -1.20601E+006
            4004    1.17428E+007    9.51524E+006    9.51524E+006   -9.49083E+005   -3.18460E+006    1.26998E+007   -1.79385E+006    1.12490E+007   -3.02010E+006    9.21900E+006   -8.17342E+005   -1.29040E+006   -1.23165E+005   -1.31199E+006
            4005    1.20319E+007    9.18153E+006    9.18153E+006   -1.36058E+006   -3.92622E+006    1.31078E+007   -1.29824E+006    1.13918E+007   -3.74986E+006    8.87923E+006   -1.23464E+006   -1.44778E+006   -4.35555E+004   -1.21339E+006
            4006    1.99004E+007    1.54654E+007    1.54654E+007   -1.24270E+006   -6.55078E+006    2.20162E+007   -2.55730E+006    1.82027E+007   -6.31758E+006    1.52214E+007   -1.23193E+006   -2.25145E+006    8.86129E+004   -4.24558E+005
            4007    1.90395E+007    1.46762E+007    1.46762E+007   -1.35869E+006   -6.36677E+006    2.10429E+007   -2.31690E+006    1.74630E+007   -6.12562E+006    1.43520E+007   -1.27563E+006   -2.22375E+006    2.35047E+005   -1.14938E+006
            4008    1.76119E+007    1.34359E+007    1.34359E+007   -1.48344E+006   -5.99203E+006    1.94280E+007   -1.98682E+006    1.62356E+007   -5.74387E+006    1.30185E+007   -1.31417E+006   -2.15261E+006    3.19981E+005   -1.57429E+006
            4009    1.60337E+007    1.21409E+007    1.21409E+007   -1.56647E+006   -5.49051E+006    1.76314E+007   -1.69464E+006    1.48947E+007   -5.24751E+006    1.16670E+007   -1.33554E+006   -2.02886E+006    3.17842E+005   -1.75043E+006
            4010    1.45183E+007    1.09428E+007    1.09428E+007   -1.54073E+006   -4.98935E+006    1.59321E+007   -1.47090E+006    1.35500E+007   -4.76465E+006    1.04675E+007   -1.29012E+006   -1.85962E+006    2.66830E+005   -1.73475E+006
            4011    1.33357E+007    1.00236E+007    1.00236E+007   -1.51522E+006   -4.57655E+006    1.46002E+007   -1.31061E+006    1.25079E+007   -4.37308E+006    9.58067E+006   -1.27576E+006   -1.69673E+006    1.77186E+005   -1.63586E+006
            4012    1.24709E+007    9.31346E+006    9.31346E+006   -1.39593E+006   -4.37822E+006    1.36917E+007   -1.17977E+006    1.16273E+007   -4.18835E+006    8.93749E+006   -1.20983E+006   -1.57546E+006    6.50386E+004   -1.41434E+006
            4013    1.55697E+007    1.35918E+007    1.35918E+007   -1.54339E+006   -2.37878E+006    1.59706E+007   -3.22321E+006    1.55192E+007   -1.95110E+006    1.31629E+007   -1.54215E+006    2.55824E+006    1.66415E+004   -3.47531E+005
            4014    1.42839E+007    1.38827E+007    1.38827E+007    4.57700E+005   -1.12776E+006    1.50105E+007   -4.40423E+006    1.40839E+007    4.67515E+005    1.38671E+007   -1.12196E+006    3.63223E+005   -1.84944E+003   -2.94510E+005
            4015    1.51499E+007    1.45261E+007    1.45261E+007   -1.12544E+005   -1.08800E+006    1.56141E+007   -4.44185E+006    1.50790E+007   -1.12520E+005    1.45228E+007   -1.08473E+006    5.01071E+004   -1.27578E+004   -2.20511E+005
            4016    1.46156E+007    1.41298E+007    1.41298E+007    1.45136E+005   -1.04412E+006    1.51739E+007   -4.41028E+006    1.45062E+007    1.45769E+005    1.41277E+007   -1.04267E+006    1.00327E+005   -1.12017E+004   -1.43481E+005
            4017    1.52960E+007    1.32978E+007    1.32978E+007   -1.46631E+006   -2.47987E+006    1.57776E+007   -3.11719E+006    1.52202E+007   -2.02181E+006    1.28318E+007   -1.45839E+006    2.48630E+006    7.06147E+004   -9.71477E+005
            4018    1.40481E+007    1.35892E+007    1.35892E+007    3.37759E+005   -1.13877E+006    1.47280E+007   -4.26274E+006    1.38719E+007    3.50717E+005    1.35226E+007   -1.08509E+006    4.44804E+005    2.56590E+004   -8.71824E+005
            4019    1.48235E+007    1.42365E+007    1.42365E+007   -9.81157E+004   -1.03178E+006    1.52683E+007   -4.36886E+006    1.47571E+007   -9.78624E+004    1.42109E+007   -1.00643E+006    6.48609E+004   -8.99183E+003   -6.21167E+005
            4020    1.43636E+007    1.39038E+007    1.39038E+007    1.16855E+005   -9.74115E+005    1.48780E+007   -4.34886E+006    1.42699E+007    1.17538E+005    1.38899E+007   -9.60881E+005    1.02537E+005    6.08769E+003   -4.42235E+005
            4021    1.47787E+007    1.27411E+007    1.27411E+007   -1.38814E+006   -2.61098E+006    1.53521E+007   -2.91401E+006    1.46642E+007   -2.13714E+006    1.22281E+007   -1.34891E+006    2.34793E+006    1.12027E+005   -1.43486E+006
            4022    1.36002E+007    1.30593E+007    1.30593E+007    1.33468E+005   -1.12738E+006    1.41867E+007   -4.02180E+006    1.34677E+007    1.52084E+005    1.29070E+007   -9.93688E+005    5.76284E+005    3.64664E+004   -1.33533E+006
            4023    1.42056E+007    1.36816E+007    1.36816E+007   -8.34540E+004   -9.26803E+005    1.46084E+007   -4.22379E+006    1.41491E+007   -8.28768E+004    1.36139E+007   -8.59681E+005    1.00482E+005   -1.88796E+004   -9.86655E+005
            4024    1.38643E+007    1.34743E+007    1.34743E+007    8.02400E+004   -8.16689E+005    1.42910E+007   -4.24595E+006    1.37988E+007    8.12047E+004    1.34405E+007   -7.83827E+005    1.13815E+005   -7.91885E+003   -6.84409E+005
            4025    1.41719E+007    1.20532E+007    1.20532E+007   -1.29983E+006   -2.81565E+006    1.48688E+007   -2.64590E+006    1.39877E+007   -2.32889E+006    1.15136E+007   -1.24700E+006    2.18126E+006    2.01720E+005   -1.69672E+006
            4026    1.29830E+007    1.22918E+007    1.22918E+007   -1.56807E+005   -1.16659E+006    1.34584E+007   -3.65615E+006    1.28942E+007   -1.62676E+005    1.20354E+007   -9.04279E+005    7.40846E+005    1.21075E+005   -1.68121E+006
            4027    1.33972E+007    1.29342E+007    1.29342E+007   -1.04205E+005   -7.95077E+005    1.37292E+007   -4.01163E+006    1.33570E+007   -1.07036E+005    1.28186E+007   -6.76661E+005    1.73039E+005    4.30450E+004   -1.24232E+006
            4028    1.31972E+007    1.28542E+007    1.28542E+007    1.39368E+004   -6.73224E+005    1.35274E+007   -4.06495E+006    1.31569E+007    1.05835E+004    1.27916E+007   -6.07355E+005    1.44618E+005    4.82348E+004   -9.05874E+005
            4029    1.34273E+007    1.12151E+007    1.12151E+007   -1.19572E+006   -3.03837E+006    1.42534E+007   -2.32699E+006    1.31383E+007   -2.57230E+006    1.06813E+007   -1.12803E+006    2.00175E+006    2.82204E+005   -1.77291E+006
            4030    1.23370E+007    1.15068E+007    1.15068E+007   -4.20765E+005   -1.20242E+006    1.27093E+007   -3.29455E+006    1.22811E+007   -5.43000E+005    1.11684E+007   -7.41753E+005    9.39486E+005    1.99407E+005   -1.81757E+006
            4031    1.24763E+007    1.20483E+007    1.20483E+007   -1.87997E+005   -6.54978E+005    1.27032E+007   -3.73510E+006    1.24566E+007   -2.10417E+005    1.18833E+007   -4.67558E+005    2.99626E+005    8.01556E+004   -1.40672E+006
            4032    1.23877E+007    1.21066E+007    1.21066E+007   -8.16718E+004   -4.71198E+005    1.25778E+007   -3.85125E+006    1.23739E+007   -9.97853E+004    1.20173E+007   -3.63704E+005    2.08249E+005    7.18577E+004   -1.03576E+006
            4033    1.30637E+007    1.06940E+007    1.06940E+007   -1.00441E+006   -3.40267E+006    1.40966E+007   -2.09563E+006    1.25540E+007   -2.94162E+006    1.01996E+007   -9.71071E+005    1.91266E+006    4.17124E+005   -1.68165E+006
            4034    1.17579E+007    1.06503E+007    1.06503E+007   -4.57858E+005   -1.66435E+006    1.23146E+007   -2.84269E+006    1.16174E+007   -1.10347E+006    1.02502E+007   -6.18659E+005    1.20750E+006    3.99286E+005   -1.80365E+006
            4035    1.17003E+007    1.11577E+007    1.11577E+007   -1.65733E+005   -8.86125E+005    1.20438E+007   -3.36861E+006    1.16502E+007   -4.20302E+005    1.09530E+007   -4.26856E+005    5.30042E+005    2.86290E+005   -1.45844E+006
            4036    1.15902E+007    1.12738E+007    1.12738E+007   -3.28744E+004   -5.80583E+005    1.18544E+007   -3.55345E+006    1.15611E+007   -2.16518E+005    1.11501E+007   -2.73239E+005    3.41470E+005    2.28775E+005   -1.15164E+006
            4037    1.24498E+007    1.00797E+007    1.00797E+007   -5.08244E+005   -3.63563E+006    1.37153E+007   -1.97861E+006    1.15152E+007   -3.33064E+006    9.71139E+006   -4.44907E+005    1.73095E+006    3.31379E+005   -1.27722E+006
            4038    1.19125E+007    1.02573E+007    1.02573E+007   -4.63745E+005   -2.56660E+006    1.28239E+007   -2.40897E+006    1.14837E+007   -2.16087E+006    9.91361E+006   -5.25819E+005    1.45990E+006    4.98476E+005   -1.41931E+006
            4039    1.13134E+007    1.03605E+007    1.03605E+007   -1.21822E+005   -1.63221E+006    1.19927E+007   -2.86882E+006    1.10832E+007   -1.26883E+006    1.01100E+007   -2.34746E+005    8.92206E+005    4.93337E+005   -1.42516E+006
            4040    1.09562E+007    1.03193E+007    1.03193E+007    8.07512E+004   -1.23551E+006    1.15548E+007   -3.05485E+006    1.07761E+007   -9.15222E+005    1.01689E+007   -8.91015E+004    5.86549E+005    4.88552E+005   -1.14107E+006
            4041    1.03792E+007    9.46791E+006    9.46791E+006    4.73435E+005   -1.88880E+006    1.13567E+007   -2.68418E+006    9.74646E+006   -1.76163E+006    9.33312E+006    4.81052E+005    7.31529E+005    3.68012E+005   -9.08274E+005
            4042    1.09417E+007    9.55638E+006    9.55638E+006    8.16248E+004   -2.41922E+006    1.19756E+007   -2.40626E+006    1.02687E+007   -2.26742E+006    9.30701E+006    1.79194E+005    1.03182E+006    2.78224E+005   -1.24617E+006
            4043    1.20017E+007    1.01184E+007    1.01184E+007   -1.86200E+005   -3.05900E+006    1.31774E+007   -2.29108E+006    1.11882E+007   -2.88414E+006    9.75679E+006    5.89741E+002    1.37199E+006    1.24147E+005   -1.49434E+006
            4044    1.34704E+007    1.10322E+007    1.10322E+007   -7.07262E+005   -3.67440E+006    1.47066E+007   -2.21685E+006    1.27036E+007   -3.49107E+006    1.07368E+007   -5.95151E+005    1.54905E+006    9.03288E+004   -1.24010E+006
            4045    2.06684E+007    1.60125E+007    1.60125E+007   -1.04544E+006   -6.97170E+006    2.29842E+007   -2.66511E+006    1.86080E+007   -6.60568E+006    1.56393E+007   -1.03829E+006    2.87657E+006   -6.33559E+004   -3.45409E+005
            4046    1.97498E+007    1.52447E+007    1.52447E+007   -1.09180E+006   -6.70380E+006    2.19485E+007   -2.48302E+006    1.78191E+007   -6.34644E+006    1.48309E+007   -1.03535E+006    2.77256E+006   -1.69667E+005   -9.48119E+005
            4047    1.83003E+007    1.40912E+007    1.40912E+007   -1.12656E+006   -6.21477E+006    2.03060E+007   -2.24996E+006    1.65935E+007   -5.87716E+006    1.36405E+007   -1.01345E+006    2.58703E+006   -2.20437E+005   -1.29245E+006
            4048    1.65826E+007    1.27451E+007    1.27451E+007   -1.16001E+006   -5.60788E+006    1.83530E+007   -1.99240E+006    1.51510E+007   -5.30903E+006    1.22997E+007   -1.01344E+006    2.31317E+006   -1.97256E+005   -1.40664E+006
            4049    1.50582E+007    1.15861E+007    1.15861E+007   -1.15393E+006   -5.03179E+006    1.66178E+007   -1.80011E+006    1.38664E+007   -4.78536E+006    1.11935E+007   -1.00779E+006    1.99825E+006   -1.30435E+005   -1.35236E+006
            4050    1.37800E+007    1.05350E+007    1.05350E+007   -1.16277E+006   -4.65516E+006    1.51902E+007   -1.57237E+006    1.27259E+007   -4.47151E+006    1.02528E+007   -1.06423E+006    1.64654E+006   -3.99624E+004   -1.08079E+006
            4051    1.35922E+007    1.05262E+007    1.05262E+007   -1.31009E+006   -4.31807E+006    1.48443E+007   -1.63267E+006    1.28109E+007   -4.15658E+006    1.03141E+007   -1.25954E+006    1.49783E+006    7.04217E+004   -8.42737E+005
            4052    1.01431E+007    9.51807E+006    9.51807E+006    6.37564E+005   -1.53540E+006    1.10535E+007   -2.87341E+006    9.59820E+006   -1.42174E+006    9.46291E+006    5.79063E+005    4.80579E+005    4.14657E+005   -5.69405E+005
            4053    1.00500E+007    9.58968E+006    9.58968E+006    7.06250E+005   -1.31857E+006    1.09082E+007   -2.99245E+006    9.57481E+006   -1.21743E+006    9.57677E+006    6.18024E+005    2.46457E+005    4.23464E+005   -2.65042E+005
            4054    1.00409E+007    9.61723E+006    9.61723E+006    6.80317E+005   -1.24803E+006    1.08653E+007   -3.01651E+006    9.61099E+006   -1.14829E+006    9.61723E+006    5.80579E+005    3.95844E+003    4.27062E+005   -1.32696E+003
            4055    1.00464E+007    9.57902E+006    9.57902E+006    6.98584E+005   -1.32514E+006    1.09042E+007   -2.98415E+006    9.57151E+006   -1.22452E+006    9.56668E+006    6.10307E+005   -2.42198E+005    4.22911E+005    2.58324E+005
            4056    1.01470E+007    9.50709E+006    9.50709E+006    6.37898E+005   -1.55813E+006    1.10652E+007   -2.86229E+006    9.59025E+006   -1.44446E+006    9.45090E+006    5.80416E+005   -4.88836E+005    4.14993E+005    5.71943E+005
            4057    1.04165E+007    9.45529E+006    9.45529E+006    4.35805E+005   -1.94569E+006    1.14010E+007   -2.64847E+006    9.77537E+006   -1.81884E+006    9.32395E+006    4.40298E+005   -7.44092E+005    3.65900E+005    8.84571E+005
            4058    1.10058E+007    9.59034E+006    9.59034E+006    1.09788E+005   -2.47916E+006    1.20695E+007   -2.40699E+006    1.02867E+007   -2.32560E+006    9.35685E+006    1.89718E+005   -1.04209E+006    2.93005E+005    1.18200E+006
            4059    1.18544E+007    9.89456E+006    9.89456E+006   -2.97720E+005   -3.11457E+006    1.30091E+007   -2.16076E+006    1.10632E+007   -2.95627E+006    9.64119E+006   -2.02639E+005   -1.27489E+006    1.79554E+005    1.14962E+006
            4060    1.22067E+007    9.80916E+006    9.80916E+006   -4.71213E+005   -3.68199E+006    1.34912E+007   -1.88532E+006    1.11960E+007   -3.53923E+006    9.59332E+006   -3.98139E+005   -1.33708E+006    6.86393E+004    9.21193E+005
            4061    1.07025E+007    1.03774E+007    1.03774E+007    3.14310E+005   -8.66505E+005    1.12439E+007   -3.27508E+006    1.05545E+007   -5.76849E+005    1.03150E+007    8.71052E+004    3.21357E+005    4.81604E+005   -7.52035E+005
            4062    1.14525E+007    1.13645E+007    1.13645E+007    1.52845E+005   -3.14595E+005    1.16791E+007   -3.73424E+006    1.14310E+007    2.06766E+004    1.13140E+007   -1.31965E+005    1.18523E+005    2.03657E+005   -7.54265E+005
            4063    1.23448E+007    1.22416E+007    1.22416E+007    8.49221E+004   -2.83145E+005    1.25248E+007   -4.01446E+006    1.23325E+007    7.30284E+004    1.22078E+007   -2.37485E+005    2.54835E+004    6.39558E+004   -6.48739E+005
            4064    1.31860E+007    1.29915E+007    1.29915E+007    1.48914E+005   -5.13007E+005    1.35045E+007   -4.20914E+006    1.31486E+007    1.44850E+005    1.29701E+007   -4.87555E+005   -2.98160E+004    5.34355E+004   -5.35913E+005
            4065    1.39089E+007    1.36268E+007    1.36268E+007    1.65949E+005   -6.90482E+005    1.43173E+007   -4.36743E+006    1.38494E+007    1.66274E+005    1.36153E+007   -6.79261E+005   -6.62906E+004    5.03696E+002   -4.00617E+005
            4066    1.44398E+007    1.40741E+007    1.40741E+007    1.72929E+005   -8.50032E+005    1.49241E+007   -4.46565E+006    1.43579E+007    1.73392E+005    1.40697E+007   -8.46102E+005   -8.59189E+004    9.81995E+003   -2.39987E+005
            4067    1.47219E+007    1.43120E+007    1.43120E+007    1.76052E+005   -9.33136E+005    1.52451E+007   -4.51831E+006    1.46275E+007    1.76654E+005    1.43108E+007   -9.32547E+005   -9.59620E+004   -6.77532E+003   -9.07044E+004
            4068    1.06558E+007    1.04037E+007    1.04037E+007    3.55278E+005   -7.70110E+005    1.11738E+007   -3.32963E+006    1.05209E+007   -5.10532E+005    1.03889E+007    1.10542E+005    1.61823E+005    4.67441E+005   -3.64458E+005
            4069    1.14005E+007    1.13410E+007    1.13410E+007    1.43846E+005   -2.52597E+005    1.15936E+007   -3.74407E+006    1.13850E+007   -2.99033E+004    1.13300E+007   -6.78479E+004    6.83855E+004    1.94752E+005   -3.48698E+005
            4070    1.22969E+007    1.21707E+007    1.21707E+007   -4.86234E+002   -2.48223E+005    1.24189E+007   -3.97400E+006    1.22913E+007   -2.21956E+004    1.21645E+007   -2.20308E+005    3.45961E+004    6.94287E+004   -2.75282E+005
            4071    1.31343E+007    1.28915E+007    1.28915E+007    3.13421E+004   -5.00845E+005    1.33923E+007   -4.14065E+006    1.31100E+007    2.58666E+004    1.28883E+007   -4.92240E+005    2.59525E+004    5.35531E+004   -2.03043E+005
            4072    1.38201E+007    1.34729E+007    1.34729E+007    3.17225E+004   -6.97313E+005    1.41702E+007   -4.26910E+006    1.37767E+007    3.17659E+004    1.34717E+007   -6.96167E+005    2.68349E+004    2.46298E+003   -1.26866E+005
            4073    1.43336E+007    1.38853E+007    1.38853E+007    3.22687E+004   -8.84769E+005    1.47701E+007   -4.34428E+006    1.42674E+007    3.21378E+004    1.38849E+007   -8.84170E+005    3.08605E+004    1.33585E+004   -7.67992E+004
            4074    1.45916E+007    1.40966E+007    1.40966E+007    3.37177E+004   -9.71648E+005    1.50682E+007   -4.38622E+006    1.45133E+007    3.37303E+004    1.40965E+007   -9.71549E+005    3.51921E+004   -8.75735E+003   -1.87643E+004
            4075    1.05914E+007    1.04244E+007    1.04244E+007    4.20156E+005   -6.69747E+005    1.10942E+007   -3.39161E+006    1.04641E+007   -4.07555E+005    1.04244E+007    1.58010E+005   -9.21199E+003    4.65832E+005    1.99884E+004
            4076    1.13319E+007    1.13485E+007    1.13485E+007    2.25377E+005   -1.81233E+005    1.15297E+007   -3.79754E+006    1.13154E+007    7.75836E+004    1.13480E+007   -3.30208E+004   -1.76002E+004    1.95486E+005    6.70028E+004
            4077    1.22250E+007    1.21892E+007    1.21892E+007    1.22098E+005   -1.87865E+005    1.23770E+007   -4.04113E+006    1.22161E+007    1.04773E+005    1.21881E+007   -1.69483E+005   -1.55298E+004    7.10983E+004    1.13330E+005
            4078    1.30780E+007    1.29325E+007    1.29325E+007    1.77179E+005   -4.45939E+005    1.33784E+007   -4.22125E+006    1.30446E+007    1.72566E+005    1.29310E+007   -4.39854E+005   -1.16837E+004    5.33472E+004    1.39870E+005
            4079    1.38020E+007    1.35597E+007    1.35597E+007    1.99778E+005   -6.45660E+005    1.42053E+007   -4.37126E+006    1.37436E+007    1.99775E+005    1.35584E+007   -6.44363E+005   -9.52134E+003    2.75914E+003    1.35223E+005
            4080    1.43321E+007    1.40014E+007    1.40014E+007    2.17925E+005   -8.22504E+005    1.48239E+007   -4.46562E+006    1.42467E+007    2.17797E+005    1.40007E+007   -8.21694E+005   -6.89731E+003    1.16501E+004    1.00296E+005
            4081    1.46108E+007    1.42374E+007    1.42374E+007    2.29854E+005   -9.09912E+005    1.51473E+007   -4.51911E+006    1.45103E+007    2.29804E+005    1.42373E+007   -9.09795E+005   -6.44789E+003   -7.77506E+003    3.11651E+004
            4082    1.06337E+007    1.03667E+007    1.03667E+007    3.57188E+005   -7.97062E+005    1.11637E+007   -3.30893E+006    1.04914E+007   -5.38862E+005    1.03481E+007    1.17573E+005   -1.75443E+005    4.72930E+005    4.09134E+005
            4083    1.13675E+007    1.12804E+007    1.12804E+007    1.30776E+005   -2.93255E+005    1.15736E+007   -3.70596E+006    1.13497E+007   -6.03745E+004    1.12599E+007   -8.16258E+004   -8.70763E+004    2.07581E+005    4.75939E+005
            4084    1.22613E+007    1.21137E+007    1.21137E+007   -1.79904E+004   -2.73218E+005    1.23869E+007   -3.94084E+006    1.22553E+007   -4.17948E+004    1.20937E+007   -2.29388E+005   -5.05033E+004    7.25171E+004    4.94843E+005
            4085    1.31253E+007    1.28584E+007    1.28584E+007    1.14430E+004   -5.28615E+005    1.33870E+007   -4.11375E+006    1.31003E+007    5.84366E+003    1.28413E+007   -5.05899E+005   -2.84049E+004    5.39879E+004    4.77515E+005
            4086    1.38581E+007    1.34835E+007    1.34835E+007    1.36522E+004   -7.32734E+005    1.42162E+007   -4.25479E+006    1.38128E+007    1.36731E+004    1.34720E+007   -7.21285E+005   -1.92653E+004    1.66497E+003    4.03150E+005
            4087    1.44017E+007    1.39276E+007    1.39276E+007    1.34735E+004   -9.16536E+005    1.48442E+007   -4.34152E+006    1.43339E+007    1.33481E+004    1.39228E+007   -9.11622E+005   -1.65756E+004    1.13038E+004    2.66036E+005
            4088    1.46805E+007    1.41586E+007    1.41586E+007    1.36567E+004   -1.00435E+006    1.51630E+007   -4.38931E+006    1.46007E+007    1.36371E+004    1.41580E+007   -1.00373E+006   -1.58177E+004   -6.26626E+003    9.40408E+004
            4089    1.06723E+007    1.02885E+007    1.02885E+007    2.94063E+005   -9.52296E+005    1.12408E+007   -3.21009E+006    1.05067E+007   -6.60544E+005    1.02171E+007    7.36979E+004   -3.68065E+005    4.94646E+005    7.92193E+005
            4090    1.13697E+007    1.12289E+007    1.12289E+007    1.21104E+005   -3.85711E+005    1.16146E+007   -3.65477E+006    1.13443E+007   -4.81383E+004    1.11577E+007   -1.45272E+005   -1.90146E+005    2.25916E+005    8.83029E+005
            4091    1.22482E+007    1.20993E+007    1.20993E+007    4.94939E+004   -3.37990E+005    1.24373E+007   -3.93695E+006    1.22344E+007    3.46652E+004    1.20370E+007   -2.60822E+005   -9.68483E+004    6.93455E+004    8.72845E+005
            4092    1.31394E+007    1.29026E+007    1.29026E+007    1.29717E+005   -5.74903E+005    1.34775E+007   -4.15247E+006    1.30968E+007    1.26682E+005    1.28530E+007   -5.22219E+005   -3.55723E+004    4.47033E+004    8.15718E+005
            4093    1.39048E+007    1.35947E+007    1.35947E+007    1.74910E+005   -7.49080E+005    1.43437E+007   -4.34016E+006    1.38355E+007    1.74690E+005    1.35641E+007   -7.18320E+005    2.40881E+003   -1.41677E+004    6.61152E+005
            4094    1.44764E+007    1.40913E+007    1.40913E+007    1.98590E+005   -9.05505E+005    1.49968E+007   -4.46146E+006    1.43812E+007    1.98653E+005    1.40787E+007   -8.92954E+005    2.97393E+004    3.59194E+002    4.33665E+005
            4095    1.47751E+007    1.43567E+007    1.43567E+007    2.15692E+005   -9.79918E+005    1.53366E+007   -4.53082E+006    1.46657E+007    2.15605E+005    1.43552E+007   -9.78347E+005    4.16317E+004   -1.53840E+004    1.44543E+005
            4096    1.09128E+007    1.01987E+007    1.01987E+007    7.81905E+004   -1.36325E+006    1.15619E+007   -2.97120E+006    1.06955E+007   -1.05166E+006    1.00381E+007   -7.28623E+004   -6.46775E+005    5.02608E+005    1.15331E+006
            4097    1.14961E+007    1.10629E+007    1.10629E+007   -9.69904E+004   -7.42316E+005    1.18052E+007   -3.40785E+006    1.14553E+007   -3.70491E+005    1.09103E+007   -3.16200E+005   -4.29671E+005    2.75375E+005    1.25613E+006
            4098    1.23272E+007    1.19369E+007    1.19369E+007   -1.84751E+005   -5.86133E+005    1.25230E+007   -3.72200E+006    1.23125E+007   -2.17152E+005    1.18031E+007   -4.19994E+005   -3.08072E+005    8.92795E+004    1.24967E+006
            4099    1.31994E+007    1.27477E+007    1.27477E+007   -1.00616E+005   -7.76755E+005    1.35244E+007   -3.95677E+006    1.31603E+007   -1.06062E+005    1.26454E+007   -6.69069E+005   -2.50814E+005    6.09598E+004    1.14401E+006
            4100    1.39327E+007    1.34352E+007    1.34352E+007   -4.09367E+004   -9.13143E+005    1.43484E+007   -4.16038E+006    1.38711E+007   -3.72702E+004    1.33711E+007   -8.52750E+005   -2.27819E+005   -2.41050E+003    9.27455E+005
            4101    1.44860E+007    1.39312E+007    1.39312E+007   -5.35490E+003   -1.04802E+006    1.49792E+007   -4.29260E+006    1.44012E+007   -2.15573E+003    1.39033E+007   -1.02337E+006   -2.20952E+005    8.42963E+003    6.03473E+005
            4102    1.47686E+007    1.41896E+007    1.41896E+007    1.51570E+004   -1.10895E+006    1.52986E+007   -4.36527E+006    1.46719E+007    1.85962E+004    1.41834E+007   -1.10618E+006   -2.20812E+005   -4.76756E+003    2.05814E+005
            4103    1.12368E+007    1.01250E+007    1.01250E+007   -1.47121E+005   -1.87601E+006    1.20010E+007   -2.70063E+006    1.09315E+007   -1.51274E+006    9.87377E+006   -2.59141E+005   -9.78391E+005    5.27050E+005    1.36749E+006
            4104    1.16120E+007    1.09058E+007    1.09058E+007   -2.60751E+005   -1.10550E+006    1.20113E+007   -3.17986E+006    1.15426E+007   -6.40828E+005    1.06483E+007   -4.67896E+005   -6.89475E+005    3.30534E+005    1.58777E+006
            4105    1.24065E+007    1.18355E+007    1.18355E+007   -3.09080E+005   -8.17212E+005    1.26528E+007   -3.56975E+006    1.23831E+007   -3.54803E+005    1.16204E+007   -5.56386E+005   -4.90595E+005    1.08302E+005    1.56021E+006
            4106    1.32715E+007    1.27093E+007    1.27093E+007   -1.98323E+005   -8.98404E+005    1.36077E+007   -3.87086E+006    1.32299E+007   -1.99763E+005    1.25464E+007   -7.34114E+005   -3.67542E+005    5.02769E+004    1.43271E+006
            4107    1.40806E+007    1.35095E+007    1.35095E+007   -1.23622E+005   -9.79650E+005    1.44891E+007   -4.13540E+006    1.40219E+007   -1.17546E+005    1.34107E+007   -8.86976E+005   -2.86811E+005   -2.32348E+004    1.15482E+006
            4108    1.47008E+007    1.40989E+007    1.40989E+007   -9.73159E+004   -1.05921E+006    1.51581E+007   -4.31413E+006    1.46298E+007   -9.33426E+004    1.40575E+007   -1.02173E+006   -2.37774E+005   -1.71272E+004    7.52372E+005
            4109    1.50297E+007    1.44115E+007    1.44115E+007   -8.24424E+004   -1.10209E+006    1.55136E+007   -4.40898E+006    1.49516E+007   -7.94174E+004    1.44039E+007   -1.09750E+006   -2.25549E+005   -2.61974E+004    2.51902E+005
            4110    1.17793E+007    9.98061E+006    9.98061E+006   -4.28899E+005   -2.80588E+006    1.27865E+007   -2.24861E+006    1.12205E+007   -2.45338E+006    9.62925E+006   -4.30042E+005   -1.43613E+006    4.75323E+005    1.44331E+006
            4111    1.20200E+007    1.05950E+007    1.05950E+007   -6.38275E+005   -2.08139E+006    1.26764E+007   -2.62511E+006    1.18227E+007   -1.53177E+006    1.01788E+007   -7.71685E+005   -1.36133E+006    4.49677E+005    1.77949E+006
            4112    1.24210E+007    1.13170E+007    1.13170E+007   -6.80635E+005   -1.48794E+006    1.28050E+007   -3.04948E+006    1.23618E+007   -9.70208E+005    1.09253E+007   -8.06634E+005   -1.22200E+006    2.23807E+005    1.83188E+006
            4113    1.30660E+007    1.21003E+007    1.21003E+007   -5.53829E+005   -1.34185E+006    1.34422E+007   -3.40155E+006    1.30124E+007   -6.10871E+005    1.17689E+007   -9.53375E+005   -1.13212E+006    1.62306E+005    1.74930E+006
            4114    1.36135E+007    1.28028E+007    1.28028E+007   -3.45582E+005   -1.23247E+006    1.40352E+007   -3.74157E+006    1.35482E+007   -2.95514E+005    1.25669E+007   -1.04671E+006   -1.05611E+006    5.85648E+004    1.44928E+006
            4115    1.40643E+007    1.33383E+007    1.33383E+007   -1.70540E+005   -1.22244E+006    1.45607E+007   -3.98177E+006    1.39754E+007   -1.07408E+005    1.31984E+007   -1.14564E+006   -1.00479E+006    4.07505E+004    9.72125E+005
            4116    1.42908E+007    1.36175E+007    1.36175E+007   -7.72489E+004   -1.20278E+006    1.48203E+007   -4.11249E+006    1.41906E+007   -3.22972E+003    1.35352E+007   -1.19452E+006   -1.00798E+006    1.42572E+003    3.37597E+005
            4117    1.25596E+007    1.01852E+007    1.01852E+007   -6.23621E+005   -3.59311E+006    1.37783E+007   -1.98948E+006    1.17301E+007   -3.35873E+006    9.85690E+006   -5.29753E+005   -1.58445E+006    2.26035E+005    1.26358E+006
            4118    1.29576E+007    1.05630E+007    1.05630E+007   -8.79147E+005   -3.50714E+006    1.40701E+007   -2.05889E+006    1.23364E+007   -3.13262E+006    1.01186E+007   -8.09307E+005   -1.82046E+006    3.65899E+005    1.56506E+006
            4119    1.36119E+007    1.12751E+007    1.12751E+007   -1.10800E+006   -3.29964E+006    1.45747E+007   -2.28915E+006    1.32062E+007   -2.87266E+006    1.07343E+007   -9.94225E+005   -2.07506E+006    2.44064E+005    1.73857E+006
            4120    1.44280E+007    1.20214E+007    1.20214E+007   -1.26237E+006   -3.32819E+006    1.53496E+007   -2.47693E+006    1.40895E+007   -2.84328E+006    1.14412E+007   -1.16713E+006   -2.33125E+006    2.08352E+005    1.71457E+006
            4121    1.52778E+007    1.28288E+007    1.28288E+007   -1.39252E+006   -3.32215E+006    1.61509E+007   -2.70470E+006    1.49999E+007   -2.81348E+006    1.22417E+007   -1.31417E+006   -2.60348E+006    1.19408E+005    1.49420E+006
            4122    1.60018E+007    1.34762E+007    1.34762E+007   -1.48944E+006   -3.39167E+006    1.68679E+007   -2.86504E+006    1.57444E+007   -2.86289E+006    1.29164E+007   -1.45837E+006   -2.83230E+006    8.38363E+004    1.02880E+006
            4123    1.64510E+007    1.38662E+007    1.38662E+007   -1.55491E+006   -3.45047E+006    1.73166E+007   -2.95360E+006    1.62025E+007   -2.91609E+006    1.33268E+007   -1.54994E+006   -2.98399E+006    1.71131E+004    3.71035E+005
            4124    2.12097E+007    1.62606E+007    1.62606E+007   -1.01936E+006   -7.40951E+006    2.36701E+007   -2.61056E+006    1.88544E+007   -7.04835E+006    1.58923E+007   -1.01226E+006   -2.90021E+006   -7.74499E+004    3.47793E+005
            4125    2.01670E+007    1.54177E+007    1.54177E+007   -1.07416E+006   -7.06635E+006    2.24840E+007   -2.42573E+006    1.79946E+007   -6.70942E+006    1.50064E+007   -1.01983E+006   -2.80194E+006   -2.05636E+005    9.37193E+005
            4126    1.85071E+007    1.41226E+007    1.41226E+007   -1.11789E+006   -6.47094E+006    2.05936E+007   -2.17793E+006    1.66269E+007   -6.13217E+006    1.36711E+007   -1.00517E+006   -2.60702E+006   -2.52097E+005    1.29173E+006
            4127    1.67094E+007    1.27952E+007    1.27952E+007   -1.09145E+006   -5.74876E+006    1.85440E+007   -1.98501E+006    1.51427E+007   -5.44611E+006    1.23395E+007   -9.38348E+005   -2.33730E+006   -2.39903E+005    1.43409E+006
            4128    1.50638E+007    1.16072E+007    1.16072E+007   -9.92224E+005   -5.07803E+006    1.66852E+007   -1.84565E+006    1.37318E+007   -4.82410E+006    1.11909E+007   -8.29808E+005   -2.03237E+006   -1.63489E+005    1.41206E+006
            4129    1.37888E+007    1.07340E+007    1.07340E+007   -8.05473E+005   -4.53627E+006    1.52703E+007   -1.79742E+006    1.25759E+007   -4.33625E+006    1.03873E+007   -6.58768E+005   -1.72612E+006   -1.11977E+005    1.29009E+006
            4130    1.27759E+007    1.00663E+007    1.00663E+007   -5.31566E+005   -4.12023E+006    1.41865E+007   -1.80482E+006    1.15578E+007   -3.96367E+006    9.80258E+006   -4.24442E+005   -1.47410E+006   -7.06834E+004    1.06089E+006
            4131    1.34540E+007    1.10080E+007    1.10080E+007   -7.14408E+005   -3.68202E+006    1.46900E+007   -2.20386E+006    1.26858E+007   -3.49923E+006    1.07148E+007   -6.03966E+005    1.54698E+006   -8.96997E+004    1.22994E+006
            4132    1.20403E+007    1.01487E+007    1.01487E+007   -1.98878E+005   -3.06652E+006    1.32152E+007   -2.29442E+006    1.12327E+007   -2.89047E+006    9.78498E+006   -1.12502E+004    1.37965E+006   -1.22631E+005    1.50010E+006
            4133    1.09617E+007    9.57075E+006    9.57075E+006    7.53632E+004   -2.42512E+006    1.19959E+007   -2.40700E+006    1.02902E+007   -2.27300E+006    9.31776E+006    1.76224E+005    1.03802E+006   -2.74742E+005    1.25735E+006
            4134    1.03867E+007    9.47631E+006    9.47631E+006    4.70721E+005   -1.88645E+006    1.13628E+007   -2.68686E+006    9.75735E+006   -1.75888E+006    9.33979E+006    4.79676E+005    7.33660E+005   -3.67240E+005    9.16239E+005
            4135    1.09675E+007    1.03366E+007    1.03366E+007    7.81894E+004   -1.22379E+006    1.15604E+007   -3.06365E+006    1.07916E+007   -9.02840E+005    1.01854E+007   -9.16386E+004    5.84147E+005   -4.85354E+005    1.14630E+006
            4136    1.16189E+007    1.13039E+007    1.13039E+007   -3.38783E+004   -5.77188E+005    1.18810E+007   -3.56426E+006    1.15903E+007   -2.08216E+005    1.11800E+007   -2.79011E+005    3.38178E+005   -2.24376E+005    1.15500E+006
            4137    1.24165E+007    1.21356E+007    1.21356E+007   -8.02375E+004   -4.72270E+005    1.26079E+007   -3.86104E+006    1.24026E+007   -9.59220E+004    1.20472E+007   -3.68173E+005    2.04296E+005   -6.73895E+004    1.03205E+006
            4138    1.32241E+007    1.28803E+007    1.28803E+007    1.76773E+004   -6.77748E+005    1.35581E+007   -4.07342E+006    1.31828E+007    1.45797E+004    1.28190E+007   -6.13353E+005    1.42491E+005   -4.70176E+004    8.98196E+005
            4139    1.38825E+007    1.34894E+007    1.34894E+007    8.13436E+004   -8.23323E+005    1.43127E+007   -4.24913E+006    1.38159E+007    8.23375E+004    1.34560E+007   -7.90974E+005    1.15316E+005    6.44079E+003    6.79635E+005
            4140    1.43737E+007    1.39126E+007    1.39126E+007    1.16968E+005   -9.76821E+005    1.48894E+007   -4.35091E+006    1.42797E+007    1.17682E+005    1.38989E+007   -9.63813E+005    1.04380E+005   -5.79014E+003    4.38664E+005
            4141    1.46167E+007    1.41302E+007    1.41302E+007    1.44163E+005   -1.04464E+006    1.51748E+007   -4.40991E+006    1.45074E+007    1.44771E+005    1.41282E+007   -1.04324E+006    1.00746E+005    1.28401E+004    1.39536E+005
            4142    1.13317E+007    1.03771E+007    1.03771E+007   -1.28851E+005   -1.63051E+006    1.20076E+007   -2.87258E+006    1.11045E+007   -1.26431E+006    1.01245E+007   -2.42437E+005    8.98739E+005   -4.91442E+005    1.43148E+006
            4143    1.17176E+007    1.11756E+007    1.11756E+007   -1.70602E+005   -8.80957E+005    1.20566E+007   -3.37469E+006    1.16690E+007   -4.14669E+005    1.09688E+007   -4.30084E+005    5.31580E+005   -2.79255E+005    1.46744E+006
            4144    1.25176E+007    1.20849E+007    1.20849E+007   -1.87380E+005   -6.64444E+005    1.27494E+007   -3.74436E+006    1.24972E+007   -2.07501E+005    1.19197E+007   -4.79086E+005    3.02002E+005   -7.71129E+004    1.41000E+006
            4145    1.34292E+007    1.29618E+007    1.29618E+007   -1.03101E+005   -8.04247E+005    1.37661E+007   -4.01816E+006    1.33880E+007   -1.06014E+005    1.28473E+007   -6.86748E+005    1.72384E+005   -4.39847E+004    1.23867E+006
            4146    1.42251E+007    1.37020E+007    1.37020E+007   -8.19593E+004   -9.26707E+005    1.46287E+007   -4.23109E+006    1.41685E+007   -8.14410E+004    1.36356E+007   -8.60861E+005    9.91419E+004    2.00368E+004    9.77640E+005
            4147    1.48301E+007    1.42420E+007    1.42420E+007   -9.73417E+004   -1.03433E+006    1.52764E+007   -4.37012E+006    1.47633E+007   -9.70792E+004    1.42170E+007   -1.00958E+006    6.45567E+004    7.95485E+003    6.14053E+005
            4148    1.51517E+007    1.45281E+007    1.45281E+007   -1.10292E+005   -1.08946E+006    1.56176E+007   -4.44278E+006    1.50803E+007   -1.10224E+005    1.45249E+007   -1.08635E+006    5.01698E+004    1.08144E+004    2.16810E+005
            4149    1.19116E+007    1.02500E+007    1.02500E+007   -4.64252E+005   -2.57649E+006    1.28265E+007   -2.40308E+006    1.14789E+007   -2.17042E+006    9.90497E+006   -5.25314E+005    1.46111E+006   -4.99669E+005    1.42334E+006
            4150    1.17988E+007    1.06818E+007    1.06818E+007   -4.71729E+005   -1.67064E+006    1.23524E+007   -2.84647E+006    1.16605E+007   -1.10871E+006    1.02799E+007   -6.31811E+005    1.21231E+006   -3.95632E+005    1.81057E+006
            4151    1.23682E+007    1.15349E+007    1.15349E+007   -4.26321E+005   -1.20368E+006    1.27385E+007   -3.30162E+006    1.23131E+007   -5.43739E+005    1.11961E+007   -7.47541E+005    9.46006E+005   -1.95154E+005    1.81791E+006
            4152    1.30058E+007    1.23182E+007    1.23182E+007   -1.49222E+005   -1.16617E+006    1.34844E+007   -3.66761E+006    1.29159E+007   -1.54399E+005    1.20641E+007   -9.06868E+005    7.40016E+005   -1.20748E+005    1.67446E+006
            4153    1.35992E+007    1.30622E+007    1.30622E+007    1.40598E+005   -1.12606E+006    1.41882E+007   -4.02558E+006    1.34656E+007    1.59072E+005    1.29117E+007   -9.94021E+005    5.70349E+005   -3.50377E+004    1.32867E+006
            4154    1.40519E+007    1.35947E+007    1.35947E+007    3.40443E+005   -1.13806E+006    1.47327E+007   -4.26568E+006    1.38753E+007    3.53654E+005    1.35279E+007   -1.08453E+006    4.46686E+005   -2.38126E+004    8.71757E+005
            4155    1.42851E+007    1.38844E+007    1.38844E+007    4.58215E+005   -1.12730E+006    1.50117E+007   -4.40512E+006    1.40851E+007    4.68310E+005    1.38686E+007   -1.12159E+006    3.68516E+005    8.90212E+002    2.91946E+005
            4156    1.24661E+007    1.00931E+007    1.00931E+007   -5.12885E+005   -3.63837E+006    1.37315E+007   -1.98061E+006    1.15341E+007   -3.33277E+006    9.72313E+006   -4.48517E+005    1.73119E+006   -3.32602E+005    1.28611E+006
            4157    1.30737E+007    1.07043E+007    1.07043E+007   -1.01110E+006   -3.39855E+006    1.41029E+007   -2.09822E+006    1.25691E+007   -2.94111E+006    1.02120E+007   -9.76244E+005    1.91072E+006   -4.12030E+005    1.67705E+006
            4158    1.34591E+007    1.12400E+007    1.12400E+007   -1.20340E+006   -3.04519E+006    1.42851E+007   -2.33046E+006    1.31711E+007   -2.58116E+006    1.07056E+007   -1.13308E+006    2.01293E+006   -2.75514E+005    1.76719E+006
            4159    1.41890E+007    1.20685E+007    1.20685E+007   -1.29874E+006   -2.81970E+006    1.48882E+007   -2.65004E+006    1.40039E+007   -2.33580E+006    1.15281E+007   -1.24220E+006    2.18836E+006   -1.96473E+005    1.69350E+006
            4160    1.48032E+007    1.27611E+007    1.27611E+007   -1.38723E+006   -2.61999E+006    1.53811E+007   -2.91795E+006    1.46871E+007   -2.14777E+006    1.22476E+007   -1.34598E+006    2.35470E+006   -1.09356E+005    1.43040E+006
            4161    1.53075E+007    1.33063E+007    1.33063E+007   -1.46696E+006   -2.48471E+006    1.57910E+007   -3.11820E+006    1.52311E+007   -2.02765E+006    1.28403E+007   -1.45810E+006    2.48846E+006   -6.89017E+004    9.68556E+005
            4162    1.55744E+007    1.35931E+007    1.35931E+007   -1.54042E+006   -2.38753E+006    1.59806E+007   -3.22171E+006    1.55224E+007   -1.95823E+006    1.31630E+007   -1.53966E+006    2.56199E+006   -1.99634E+004    3.51032E+005
            4163    2.06679E+007    1.60077E+007    1.60077E+007   -1.04598E+006   -6.97737E+006    2.29851E+007   -2.66145E+006    1.86036E+007   -6.61166E+006    1.56341E+007   -1.03812E+006    2.87540E+006    6.48400E+004    3.62175E+005
            4164    1.97701E+007    1.52564E+007    1.52564E+007   -1.08836E+006   -6.71786E+006    2.19743E+007   -2.48341E+006    1.78287E+007   -6.36041E+006    1.48427E+007   -1.03210E+006    2.77436E+006    1.71894E+005    9.46756E+005
            4165    1.83178E+007    1.41043E+007    1.41043E+007   -1.13394E+006   -6.21882E+006    2.03231E+007   -2.25050E+006    1.66153E+007   -5.87992E+006    1.36537E+007   -1.02232E+006    2.59309E+006    2.20239E+005    1.28478E+006
            4166    1.66085E+007    1.27642E+007    1.27642E+007   -1.16948E+006   -5.61447E+006    1.83787E+007   -1.99342E+006    1.51814E+007   -5.31460E+006    1.23176E+007   -1.02273E+006    2.31872E+006    1.96393E+005    1.40910E+006
            4167    1.51049E+007    1.16250E+007    1.16250E+007   -1.14830E+006   -5.04704E+006    1.66721E+007   -1.80989E+006    1.39036E+007   -4.79965E+006    1.12305E+007   -1.00120E+006    2.00535E+006    1.31049E+005    1.35852E+006
            4168    1.38091E+007    1.05605E+007    1.05605E+007   -1.15447E+006   -4.66509E+006    1.52256E+007   -1.58031E+006    1.27458E+007   -4.47892E+006    1.02717E+007   -1.05188E+006    1.65987E+006    4.45941E+004    1.10230E+006
            4169    1.35787E+007    1.05161E+007    1.05161E+007   -1.29121E+006   -4.32180E+006    1.48379E+007   -1.63438E+006    1.27841E+007   -4.16081E+006    1.03044E+007   -1.24041E+006    1.49720E+006   -6.71197E+004    8.40064E+005
            4170    1.64715E+007    1.38710E+007    1.38710E+007   -1.55980E+006   -3.47393E+006    1.73449E+007   -2.94575E+006    1.62184E+007   -2.93720E+006    1.33285E+007   -1.55408E+006   -2.99372E+006   -1.21826E+004   -3.79824E+005
            4171    1.42935E+007    1.36123E+007    1.36123E+007   -9.41959E+004   -1.20355E+006    1.48159E+007   -4.10486E+006    1.41962E+007   -1.81728E+004    1.35271E+007   -1.19436E+006   -1.02364E+006   -5.21701E+003   -3.51778E+005
            4172    1.50212E+007    1.44022E+007    1.44022E+007   -8.25693E+004   -1.10323E+006    1.55055E+007   -4.40548E+006    1.49428E+007   -7.92559E+004    1.43937E+007   -1.09803E+006   -2.29495E+005    2.25614E+004   -2.74595E+005
            4173    1.47622E+007    1.41834E+007    1.41834E+007    1.43680E+004   -1.10776E+006    1.52912E+007   -4.36335E+006    1.46657E+007    1.77879E+004    1.41767E+007   -1.10447E+006   -2.20421E+005    6.94040E+003   -2.23822E+005
            4174    1.47677E+007    1.43501E+007    1.43501E+007    2.15198E+005   -9.77984E+005    1.53281E+007   -4.52911E+006    1.46587E+007    2.15110E+005    1.43484E+007   -9.76149E+005    4.11364E+004    1.53201E+004   -1.57929E+005
            4175    1.46758E+007    1.41544E+007    1.41544E+007    1.33533E+004   -1.00340E+006    1.51578E+007   -4.38810E+006    1.45963E+007    1.33167E+004    1.41537E+007   -1.00268E+006   -1.57262E+004    7.52669E+003   -1.00832E+005
            4176    1.46077E+007    1.42354E+007    1.42354E+007    2.30186E+005   -9.08135E+005    1.51435E+007   -4.51915E+006    1.45074E+007    2.30139E+005    1.42353E+007   -9.08006E+005   -7.09485E+003    7.62804E+003   -3.43107E+004
            4177    1.45916E+007    1.40964E+007    1.40964E+007    3.39199E+004   -9.72190E+005    1.50686E+007   -4.38605E+006    1.45132E+007    3.39361E+004    1.40963E+007   -9.72100E+005    3.49071E+004    8.46521E+003    1.71418E+004
            4178    1.47231E+007    1.43140E+007    1.43140E+007    1.77140E+005   -9.32476E+005    1.52465E+007   -4.51957E+006    1.46286E+007    1.77755E+005    1.43129E+007   -9.31922E+005   -9.62117E+004    6.06042E+003    8.85596E+004
            4179    1.60185E+007    1.34704E+007    1.34704E+007   -1.49113E+006   -3.42888E+006    1.68992E+007   -2.85011E+006    1.57516E+007   -2.89544E+006    1.29040E+007   -1.45825E+006   -2.84686E+006   -8.40949E+004   -1.04493E+006
            4180    1.40615E+007    1.33207E+007    1.33207E+007   -1.99820E+005   -1.22560E+006    1.45463E+007   -3.96510E+006    1.39770E+007   -1.34964E+005    1.31747E+007   -1.14447E+006   -1.02717E+006   -4.33405E+004   -9.91992E+005
            4181    1.46697E+007    1.40685E+007    1.40685E+007   -9.81965E+004   -1.05716E+006    1.51257E+007   -4.30439E+006    1.45990E+007   -9.40047E+004    1.40243E+007   -1.01709E+006   -2.44372E+005    1.93860E+004   -7.76934E+005
            4182    1.44611E+007    1.39093E+007    1.39093E+007   -5.12686E+003   -1.04252E+006    1.49518E+007   -4.28723E+006    1.43770E+007   -2.05394E+003    1.38800E+007   -1.01624E+006   -2.18659E+005   -9.82305E+003   -6.22048E+005
            4183    1.44536E+007    1.40716E+007    1.40716E+007    1.97414E+005   -8.98912E+005    1.49705E+007   -4.45670E+006    1.43596E+007    1.97475E+005    1.40584E+007   -8.85783E+005    3.05658E+004    1.83658E+003   -4.43034E+005
            4184    1.43865E+007    1.39150E+007    1.39150E+007    1.27248E+004   -9.11188E+005    1.48262E+007   -4.33883E+006    1.43195E+007    1.25851E+004    1.39101E+007   -9.06165E+005   -1.58060E+004   -1.17653E+004   -2.68559E+005
            4185    1.43257E+007    1.39964E+007    1.39964E+007    2.18300E+005   -8.20329E+005    1.48168E+007   -4.46480E+006    1.42406E+007    2.18170E+005    1.39958E+007   -8.19525E+005   -6.64365E+003   -1.16870E+004   -9.97370E+004
            4186    1.43348E+007    1.38871E+007    1.38871E+007    3.25374E+004   -8.83953E+005    1.47710E+007   -4.34522E+006    1.42686E+007    3.24147E+004    1.38866E+007   -8.83344E+005    3.07462E+004   -1.30550E+004    7.86275E+004
            4187    1.44461E+007    1.40789E+007    1.40789E+007    1.73800E+005   -8.53300E+005    1.49322E+007   -4.46648E+006    1.43636E+007    1.74243E+005    1.40745E+007   -8.49319E+005   -8.52499E+004   -1.05007E+004    2.41294E+005
            4188    1.52612E+007    1.28032E+007    1.28032E+007   -1.38871E+006   -3.33973E+006    1.61429E+007   -2.69159E+006    1.49768E+007   -2.82956E+006    1.22141E+007   -1.30979E+006   -2.60289E+006   -1.23416E+005   -1.50283E+006
            4189    1.35919E+007    1.27704E+007    1.27704E+007   -3.63354E+005   -1.23735E+006    1.40078E+007   -3.72324E+006    1.35284E+007   -3.16313E+005    1.25294E+007   -1.04335E+006   -1.05976E+006   -6.34951E+004   -1.46941E+006
            4190    1.40308E+007    1.34628E+007    1.34628E+007   -1.26862E+005   -9.70979E+005    1.44338E+007   -4.12165E+006    1.39735E+007   -1.20802E+005    1.33611E+007   -8.75392E+005   -2.85899E+005    2.50904E+004   -1.17044E+006
            4191    1.38844E+007    1.33947E+007    1.33947E+007   -3.89244E+004   -9.00355E+005    1.42951E+007   -4.15182E+006    1.38241E+007   -3.55075E+004    1.33294E+007   -8.38471E+005   -2.23043E+005   -6.06738E+002   -9.36340E+005
            4192    1.38690E+007    1.35658E+007    1.35658E+007    1.74756E+005   -7.36338E+005    1.43021E+007   -4.33472E+006    1.38014E+007    1.74500E+005    1.35354E+007   -7.05733E+005    5.23142E+003    1.50804E+004   -6.58109E+005
            4193    1.38378E+007    1.34666E+007    1.34666E+007    1.26730E+004   -7.25499E+005    1.41921E+007   -4.25126E+006    1.37934E+007    1.26844E+004    1.34555E+007   -7.14420E+005   -1.95844E+004   -2.98618E+003   -3.96068E+005
            4194    1.37957E+007    1.35556E+007    1.35556E+007    2.01204E+005   -6.42629E+005    1.41982E+007   -4.37138E+006    1.37374E+007    2.01204E+005    1.35544E+007   -6.41488E+005   -9.53661E+003   -2.32562E+003   -1.26912E+005
            4195    1.38269E+007    1.34782E+007    1.34782E+007    3.14872E+004   -6.99805E+005    1.41780E+007   -4.26997E+006    1.37833E+007    3.15256E+004    1.34769E+007   -6.98526E+005    2.64086E+004   -2.87158E+003    1.33968E+005
            4196    1.39244E+007    1.36415E+007    1.36415E+007    1.68366E+005   -6.94128E+005    1.43356E+007   -4.37191E+006    1.38641E+007    1.68681E+005    1.36297E+007   -6.82700E+005   -6.72931E+004    2.34718E+003    4.04227E+005
            4197    1.43870E+007    1.19875E+007    1.19875E+007   -1.25587E+006   -3.32013E+006    1.53077E+007   -2.47052E+006    1.40481E+007   -2.83609E+006    1.14092E+007   -1.16154E+006   -2.31577E+006   -2.14011E+005   -1.72084E+006
            4198    1.30198E+007    1.20565E+007    1.20565E+007   -5.51661E+005   -1.33911E+006    1.33957E+007   -3.38859E+006    1.29661E+007   -6.15432E+005    1.17245E+007   -9.43300E+005   -1.11737E+006   -1.66298E+005   -1.75683E+006
            4199    1.32060E+007    1.26538E+007    1.26538E+007   -1.98065E+005   -8.79863E+005    1.35337E+007   -3.85864E+006    1.31663E+007   -2.00009E+005    1.24906E+007   -7.14706E+005   -3.57419E+005   -4.99139E+004   -1.43283E+006
            4200    1.31401E+007    1.27017E+007    1.27017E+007   -9.57995E+004   -7.56163E+005    1.34578E+007   -3.94990E+006    1.31027E+007   -1.02401E+005    1.26009E+007   -6.48848E+005   -2.42931E+005   -6.40978E+004   -1.13392E+006
            4201    1.31019E+007    1.28746E+007    1.28746E+007    1.31309E+005   -5.58666E+005    1.34333E+007   -4.14908E+006    1.30609E+007    1.28140E+005    1.28269E+007   -5.07766E+005   -3.00748E+004   -4.53691E+004   -7.98731E+005
            4202    1.31100E+007    1.28465E+007    1.28465E+007    1.11632E+004   -5.21771E+005    1.33683E+007   -4.11197E+006    1.30855E+007    5.23706E+003    1.28307E+007   -4.99978E+005   -2.65642E+004   -5.52236E+004   -4.59500E+005
            4203    1.30797E+007    1.29350E+007    1.29350E+007    1.79089E+005   -4.46051E+005    1.33811E+007   -4.22269E+006    1.30460E+007    1.74461E+005    1.29338E+007   -4.40217E+005   -1.03448E+004   -5.35359E+004   -1.26619E+005
            4204    1.31488E+007    1.29034E+007    1.29034E+007    3.11749E+004   -5.05595E+005    1.34090E+007   -4.14298E+006    1.31241E+007    2.59632E+004    1.29000E+007   -4.96965E+005    2.74108E+004   -5.24798E+004    2.12296E+005
            4205    1.32090E+007    1.30127E+007    1.30127E+007    1.51814E+005   -5.18918E+005    1.35316E+007   -4.21518E+006    1.31706E+007    1.47825E+005    1.29913E+007   -4.93546E+005   -3.23818E+004   -5.34857E+004    5.36255E+005
            4206    1.35555E+007    1.12365E+007    1.12365E+007   -1.09413E+006   -3.27858E+006    1.45151E+007   -2.28793E+006    1.31507E+007   -2.85299E+006    1.06999E+007   -9.83094E+005   -2.05346E+006   -2.52068E+005   -1.73941E+006
            4207    1.23616E+007    1.12715E+007    1.12715E+007   -6.62070E+005   -1.47763E+006    1.27491E+007   -3.04394E+006    1.23008E+007   -9.59013E+005    1.08841E+007   -7.93298E+005   -1.19623E+006   -2.31394E+005   -1.82845E+006
            4208    1.23428E+007    1.17894E+007    1.17894E+007   -2.98077E+005   -7.93813E+005    1.25832E+007   -3.56583E+006    1.23204E+007   -3.47546E+005    1.15790E+007   -5.33956E+005   -4.72581E+005   -1.11195E+005   -1.54242E+006
            4209    1.22774E+007    1.19025E+007    1.19025E+007   -1.75291E+005   -5.65287E+005    1.24678E+007   -3.72064E+006    1.22635E+007   -2.10427E+005    1.17733E+007   -4.00978E+005   -2.98335E+005   -9.17375E+004   -1.22651E+006
            4210    1.22256E+007    1.20871E+007    1.20871E+007    5.49414E+004   -3.23165E+005    1.24102E+007   -3.93961E+006    1.22124E+007    3.99858E+004    1.20282E+007   -2.49370E+005   -8.97704E+004   -6.91022E+004   -8.47624E+005
            4211    1.22614E+007    1.21158E+007    1.21158E+007   -1.78832E+004   -2.69442E+005    1.23852E+007   -3.94282E+006    1.22556E+007   -4.14411E+004    1.20972E+007   -2.27290E+005   -4.89352E+004   -7.16972E+004   -4.76811E+005
            4212    1.22374E+007    1.22018E+007    1.22018E+007    1.23087E+005   -1.88343E+005    1.23901E+007   -4.04551E+006    1.22285E+007    1.06762E+005    1.22010E+007   -1.71185E+005   -1.41540E+004   -6.93264E+004   -1.00565E+005
            4213    1.23215E+007    1.21919E+007    1.21919E+007   -2.45849E+003   -2.52893E+005    1.24448E+007   -3.97885E+006    1.23158E+007   -2.20059E+004    1.21854E+007   -2.26856E+005    3.43212E+004   -6.65574E+004    2.81968E+005
            4214    1.23774E+007    1.22714E+007    1.22714E+007    8.59456E+004   -2.89508E+005    1.25609E+007   -4.02261E+006    1.23646E+007    7.45999E+004    1.22378E+007   -2.44575E+005    2.40204E+004   -6.32124E+004    6.48026E+005
            4215    1.29102E+007    1.05323E+007    1.05323E+007   -8.63228E+005   -3.48890E+006    1.40212E+007   -2.06007E+006    1.22878E+007   -3.11556E+006    1.00915E+007   -7.95715E+005   -1.80520E+006   -3.71463E+005   -1.56145E+006
            4216    1.19615E+007    1.05603E+007    1.05603E+007   -6.14556E+005   -2.05702E+006    1.26173E+007   -2.62958E+006    1.17634E+007   -1.50991E+006    1.01507E+007   -7.52046E+005   -1.33888E+006   -4.54111E+005   -1.76771E+006
            4217    1.15668E+007    1.08821E+007    1.08821E+007   -2.39617E+005   -1.08354E+006    1.19656E+007   -3.18631E+006    1.14972E+007   -6.23548E+005    1.06322E+007   -4.49699E+005   -6.67480E+005   -3.34077E+005   -1.56568E+006
            4218    1.14725E+007    1.10537E+007    1.10537E+007   -8.41829E+004   -7.26464E+005    1.17801E+007   -3.41434E+006    1.14319E+007   -3.57178E+005    1.09068E+007   -3.06568E+005   -4.18233E+005   -2.75858E+005   -1.23232E+006
            4219    1.13682E+007    1.12367E+007    1.12367E+007    1.28781E+005   -3.75123E+005    1.16118E+007   -3.66345E+006    1.13431E+007   -3.48873E+004    1.11686E+007   -1.43348E+005   -1.80303E+005   -2.23846E+005   -8.64940E+005
            4220    1.13838E+007    1.12997E+007    1.12997E+007    1.29021E+005   -2.85937E+005    1.15856E+007   -3.71426E+006    1.13668E+007   -5.15325E+004    1.12803E+007   -8.60103E+004   -8.28284E+004   -2.02590E+005   -4.63669E+005
            4221    1.13599E+007    1.13786E+007    1.13786E+007    2.23416E+005   -1.75495E+005    1.15541E+007   -3.80886E+006    1.13442E+007    8.81279E+004    1.13783E+007   -3.98358E+004   -1.52478E+004   -1.88776E+005   -6.35243E+004
            4222    1.14285E+007    1.13694E+007    1.13694E+007    1.39114E+005   -2.47538E+005    1.16170E+007   -3.75367E+006    1.14138E+007   -2.25914E+004    1.13585E+007   -7.49112E+004    6.73743E+004   -1.88819E+005    3.48101E+005
            4223    1.14767E+007    1.13898E+007    1.13898E+007    1.51454E+005   -3.11305E+005    1.17011E+007   -3.74332E+006    1.14557E+007    2.66211E+004    1.13393E+007   -1.35986E+005    1.17639E+005   -1.98621E+005    7.55509E+005
            4224    1.25334E+007    1.01701E+007    1.01701E+007   -6.11947E+005   -3.58146E+006    1.37515E+007   -1.99222E+006    1.17020E+007   -3.34873E+006    9.84458E+006   -5.19190E+005   -1.57532E+006   -2.27897E+005   -1.25798E+006
            4225    1.17332E+007    9.95548E+006    9.95548E+006   -4.12296E+005   -2.78158E+006    1.27371E+007   -2.25387E+006    1.11758E+007   -2.43066E+006    9.60946E+006   -4.17199E+005   -1.42174E+006   -4.78472E+005   -1.43078E+006
            4226    1.12097E+007    1.01162E+007    1.01162E+007   -1.30404E+005   -1.85642E+006    1.19726E+007   -2.70978E+006    1.09047E+007   -1.49338E+006    9.87128E+006   -2.48567E+005   -9.60262E+005   -5.31924E+005   -1.35196E+006
            4227    1.09042E+007    1.01990E+007    1.01990E+007    8.44549E+004   -1.35251E+006    1.15515E+007   -2.97697E+006    1.06881E+007   -1.03996E+006    1.00419E+007   -7.10851E+004   -6.36661E+005   -5.04734E+005   -1.14186E+006
            4228    1.06785E+007    1.03006E+007    1.03006E+007    2.93741E+005   -9.41998E+005    1.12426E+007   -3.21746E+006    1.05159E+007   -6.47537E+005    1.02307E+007    6.92558E+004   -3.60841E+005   -4.94543E+005   -7.86344E+005
            4229    1.06500E+007    1.03874E+007    1.03874E+007    3.52515E+005   -7.86254E+005    1.11736E+007   -3.31787E+006    1.05117E+007   -5.25504E+005    1.03688E+007    1.10318E+005   -1.73475E+005   -4.70567E+005   -4.09987E+005
            4230    1.06115E+007    1.04489E+007    1.04489E+007    4.12027E+005   -6.56310E+005    1.11052E+007   -3.40155E+006    1.04895E+007   -3.92189E+005    1.04489E+007    1.47953E+005   -1.04463E+004   -4.60856E+005   -2.00752E+004
            4231    1.06745E+007    1.04288E+007    1.04288E+007    3.49956E+005   -7.55424E+005    1.11842E+007   -3.34111E+006    1.05446E+007   -4.94003E+005    1.04140E+007    1.03342E+005    1.57734E+005   -4.63315E+005    3.66033E+005
            4232    1.07201E+007    1.03973E+007    1.03973E+007    3.08566E+005   -8.58513E+005    1.12558E+007   -3.28246E+006    1.05757E+007   -5.65287E+005    1.03348E+007    7.78431E+004    3.18353E+005   -4.80170E+005    7.54537E+005
            4233    1.01425E+007    9.52508E+006    9.52508E+006    6.38494E+005   -1.52439E+006    1.10495E+007   -2.87973E+006    9.60283E+006   -1.41060E+006    9.46999E+006    5.79795E+005    4.76306E+005   -4.14827E+005    5.71876E+005
            4234    1.00505E+007    9.59328E+006    9.59328E+006    6.99341E+005   -1.31017E+006    1.09034E+007   -2.99415E+006    9.58275E+006   -1.20820E+006    9.58085E+006    6.09806E+005    2.39761E+005   -4.24386E+005    2.61901E+005
            4235    1.00399E+007    9.62065E+006    9.62065E+006    6.78472E+005   -1.24014E+006    1.08608E+007   -3.01966E+006    9.61441E+006   -1.14006E+006    9.62065E+006    5.78395E+005   -8.37309E+002   -4.26609E+005   -2.83388E+003
            4236    1.00548E+007    9.58728E+006    9.58728E+006    6.93985E+005   -1.32314E+006    1.09104E+007   -2.98604E+006    9.58355E+006   -1.22132E+006    9.57459E+006    6.04860E+005   -2.45104E+005   -4.24289E+005   -2.62536E+005
            4237    1.01506E+007    9.51257E+006    9.51257E+006    6.35983E+005   -1.55444E+006    1.10670E+007   -2.86470E+006    9.59702E+006   -1.44020E+006    9.45618E+006    5.78141E+005   -4.89713E+005   -4.15418E+005   -5.73248E+005
            4238    1.04125E+007    9.45704E+006    9.45704E+006    4.39347E+005   -1.93879E+006    1.13958E+007   -2.65253E+006    9.77302E+006   -1.81156E+006    9.32726E+006    4.41887E+005   -7.40030E+005   -3.68619E+005   -8.79094E+005
            4239    1.09808E+007    9.57963E+006    9.57963E+006    1.19284E+005   -2.46180E+006    1.20414E+007   -2.41237E+006    1.02645E+007   -2.30865E+006    9.34999E+006    1.95771E+005   -1.03261E+006   -2.97349E+005   -1.17134E+006
            4240    1.18210E+007    9.87818E+006    9.87818E+006   -2.79228E+005   -3.09718E+006    1.29754E+007   -2.16726E+006    1.10267E+007   -2.93885E+006    9.62747E+006   -1.86843E+005   -1.26951E+006   -1.84533E+005   -1.13966E+006
            4241    1.21939E+007    9.80245E+006    9.80245E+006   -4.65615E+005   -3.67526E+006    1.34777E+007   -1.88719E+006    1.11828E+007   -3.53217E+006    9.58589E+006   -3.92142E+005   -1.33587E+006   -7.23272E+004   -9.25601E+005
            4242    2.12194E+007    1.62724E+007    1.62724E+007   -1.01983E+006   -7.40693E+006    2.36793E+007   -2.61521E+006    1.88678E+007   -7.04582E+006    1.59040E+007   -1.01256E+006   -2.90071E+006    7.51896E+004   -3.51556E+005
            4243    2.01758E+007    1.54202E+007    1.54202E+007   -1.07014E+006   -7.07680E+006    2.24970E+007   -2.42441E+006    1.79929E+007   -6.72061E+006    1.50089E+007   -1.01511E+006   -2.79979E+006    2.06775E+005   -9.43169E+005
            4244    1.84940E+007    1.41081E+007    1.41081E+007   -1.10798E+006   -6.47607E+006    2.05842E+007   -2.17469E+006    1.66007E+007   -6.13745E+006    1.36564E+007   -9.94883E+005   -2.60547E+006    2.55299E+005   -1.29295E+006
            4245    1.66612E+007    1.27610E+007    1.27610E+007   -1.08086E+006   -5.73139E+006    1.84924E+007   -1.98292E+006    1.50942E+007   -5.42969E+006    1.23058E+007   -9.27301E+005   -2.33002E+006    2.43099E+005   -1.43379E+006
            4246    1.50003E+007    1.15607E+007    1.15607E+007   -9.86550E+005   -5.05379E+006    1.66145E+007   -1.84012E+006    1.36748E+007   -4.80179E+006    1.11460E+007   -8.23895E+005   -2.02026E+006    1.61126E+005   -1.41043E+006
            4247    1.37323E+007    1.06925E+007    1.06925E+007   -7.99579E+005   -4.51521E+006    1.52077E+007   -1.79258E+006    1.25243E+007   -4.31730E+006    1.03497E+007   -6.54623E+005   -1.71362E+006    1.10565E+005   -1.27985E+006
            4248    1.27663E+007    1.00674E+007    1.00674E+007   -5.26862E+005   -4.10661E+006    1.41740E+007   -1.81131E+006    1.15536E+007   -3.95166E+006    9.80617E+006   -4.20583E+005   -1.46620E+006    7.14211E+004   -1.05626E+006
            4249    1.46564E+007    1.48989E+007    1.48989E+007    8.86494E+005   -3.26060E+005    1.52250E+007   -5.15313E+006    1.45429E+007    8.98506E+005    1.48763E+007   -3.15411E+005    4.11669E+005   -6.63871E+002   -4.00738E+005
            4250    1.65047E+007    1.63199E+007    1.63199E+007    9.39540E+004   -4.50161E+005    1.67700E+007   -5.32122E+006    1.64845E+007    1.13322E+005    1.62939E+007   -4.43574E+005   -5.91957E+005   -2.51387E+004   -2.70418E+005
            4251    1.59420E+007    1.55530E+007    1.55530E+007   -6.48075E+004   -6.94684E+005    1.62476E+007   -4.93116E+006    1.59140E+007   -6.48908E+004    1.55499E+007   -6.91552E+005    4.37342E+004   -1.19939E+004   -2.18009E+005
            4252    1.57125E+007    1.55559E+007    1.55559E+007    2.99101E+005   -5.75680E+005    1.61316E+007   -5.09311E+006    1.56575E+007    3.05138E+005    1.55487E+007   -5.74472E+005   -3.04841E+005   -4.27739E+003   -1.36381E+005
            4253    1.44002E+007    1.45308E+007    1.45308E+007    7.08183E+005   -3.84756E+005    1.49156E+007   -4.95141E+006    1.43065E+007    7.23000E+005    1.44310E+007   -2.99742E+005    4.63849E+005   -6.99589E+003   -1.11755E+006
            4254    1.60960E+007    1.59411E+007    1.59411E+007    1.45685E+005   -4.39536E+005    1.63807E+007   -5.21576E+006    1.60721E+007    1.42878E+005    1.58827E+007   -3.78335E+005   -5.44268E+005   -8.26743E+004   -8.07179E+005
            4255    1.56518E+007    1.53126E+007    1.53126E+007   -5.58275E+004   -6.07971E+005    1.59205E+007   -4.88292E+006    1.56298E+007   -6.10310E+004    1.52894E+007   -5.79585E+005    2.18009E+004   -5.44068E+004   -6.06492E+005
            4256    1.54221E+007    1.53085E+007    1.53085E+007    2.97262E+005   -4.93974E+005    1.58024E+007   -5.03725E+006    1.53763E+007    2.99810E+005    1.52919E+007   -4.79997E+005   -2.88223E+005   -4.05594E+004   -4.17326E+005
            4257    1.39457E+007    1.38330E+007    1.38330E+007    3.48351E+005   -5.32020E+005    1.43650E+007   -4.54977E+006    1.38829E+007    3.62349E+005    1.36063E+007   -3.19325E+005    5.74477E+005    2.47772E+004   -1.69265E+006
            4258    1.53402E+007    1.52353E+007    1.52353E+007    1.94247E+005   -3.87366E+005    1.56227E+007   -5.01407E+006    1.53153E+007    1.58949E+005    1.51219E+007   -2.38633E+005   -4.53825E+005   -1.24471E+005   -1.24624E+006
            4259    1.51040E+007    1.48263E+007    1.48263E+007   -7.56957E+004   -4.72000E+005    1.52983E+007   -4.75952E+006    1.50923E+007   -8.51678E+004    1.47657E+007   -4.01937E+005   -1.22462E+004   -5.98945E+004   -9.60532E+005
            4260    1.48779E+007    1.48345E+007    1.48345E+007    2.60237E+005   -3.29495E+005    1.51640E+007   -4.92174E+006    1.48516E+007    2.59406E+005    1.48024E+007   -2.96581E+005   -2.60521E+005   -4.51840E+004   -6.45001E+005
            4261    1.33329E+007    1.29479E+007    1.29479E+007   -4.64564E+004   -6.99586E+005    1.36474E+007   -4.06727E+006    1.32968E+007   -4.54016E+004    1.25954E+007   -3.48212E+005    7.05446E+005    4.15419E+004   -2.04593E+006
            4262    1.43169E+007    1.42724E+007    1.42724E+007    2.54049E+005   -3.25467E+005    1.45979E+007   -4.73367E+006    1.42905E+007    1.84129E+005    1.40924E+007   -7.54855E+004   -3.54364E+005   -1.60070E+005   -1.57097E+006
            4263    1.43174E+007    1.41554E+007    1.41554E+007   -2.64885E+004   -2.93822E+005    1.44492E+007   -4.61170E+006    1.43118E+007   -6.90280E+004    1.40541E+007   -1.49981E+005   -3.22947E+004   -9.54557E+004   -1.20356E+006
            4264    1.41254E+007    1.41989E+007    1.41989E+007    2.88196E+005   -1.31684E+005    1.43306E+007   -4.78515E+006    1.41113E+007    2.66587E+005    1.41455E+007   -5.66227E+004   -2.30653E+005   -8.63681E+004   -8.42579E+005
            4265    1.26758E+007    1.18964E+007    1.18964E+007   -4.42500E+005   -1.09139E+006    1.29878E+007   -3.45418E+006    1.26384E+007   -5.84619E+005    1.14325E+007   -4.85325E+005    8.53509E+005    1.47283E+005   -2.25084E+006
            4266    1.32501E+007    1.32054E+007    1.32054E+007    1.36543E+005   -2.18642E+005    1.34241E+007   -4.37445E+006    1.32393E+007    8.93951E+004    1.29691E+007    6.47976E+004   -1.80739E+005   -9.97149E+004   -1.75412E+006
            4267    1.34198E+007    1.33092E+007    1.33092E+007   -5.05893E+004   -1.69714E+005    1.34789E+007   -4.36298E+006    1.34186E+007   -1.43658E+005    1.31668E+007    6.57605E+004   -2.60645E+004   -4.67827E+004   -1.37313E+006
            4268    1.32656E+007    1.33983E+007    1.33983E+007    1.97231E+005    6.91242E+004    1.33292E+007   -4.55490E+006    1.32642E+007    1.75444E+005    1.33237E+007    1.65546E+005   -1.74861E+005   -3.72024E+004   -9.78770E+005
            4269    1.22419E+007    1.10723E+007    1.10723E+007   -6.61644E+005   -1.62100E+006    1.26933E+007   -2.92990E+006    1.21569E+007   -1.08500E+006    1.05233E+007   -6.48615E+005    1.07560E+006    2.74780E+005   -2.33015E+006
            4270    1.21537E+007    1.20860E+007    1.20860E+007    6.59590E+003   -1.40635E+005    1.22267E+007   -3.98400E+006    1.21517E+007   -2.58331E+004    1.18075E+007    1.70354E+005    3.10789E+004   -6.65689E+004   -1.82142E+006
            4271    1.24728E+007    1.24186E+007    1.24186E+007    7.52532E+004   -1.79778E+005    1.25984E+007   -4.10470E+006    1.24670E+007   -1.60913E+005    1.22438E+007    2.31211E+005    5.38890E+004   -7.31669E+004   -1.45837E+006
            4272    1.23124E+007    1.25530E+007    1.25530E+007    3.82901E+005    1.03065E+005    1.24499E+007   -4.34631E+006    1.23052E+007    1.60040E+005    1.24561E+007    4.22836E+005   -9.89713E+004   -1.03836E+005   -1.08058E+006
            4273    1.19082E+007    1.01566E+007    1.01566E+007   -5.64881E+005   -2.66016E+006    1.28167E+007   -2.31051E+006    1.14824E+007   -2.04366E+006    9.48549E+006   -5.10296E+005    1.48787E+006    5.69646E+005   -2.35197E+006
            4274    1.16913E+007    1.10542E+007    1.10542E+007   -1.56424E+005   -1.06488E+006    1.21191E+007   -3.27763E+006    1.16115E+007   -6.45071E+005    1.07096E+007   -2.31597E+005    6.09564E+005    3.54470E+005   -1.89669E+006
            4275    1.16789E+007    1.14044E+007    1.14044E+007    3.82513E+004   -5.63840E+005    1.19683E+007   -3.62628E+006    1.16439E+007   -4.02667E+005    1.11505E+007    1.30991E+005    3.60245E+005    2.11482E+005   -1.66103E+006
            4276    1.13844E+007    1.14520E+007    1.14520E+007    2.77124E+005   -1.30909E+005    1.15829E+007   -3.86607E+006    1.13679E+007   -3.88362E+004    1.13123E+007    3.24752E+005    1.23864E+005    1.57153E+005   -1.24239E+006
            4277    1.09758E+007    1.00527E+007    1.00527E+007    2.65798E+005   -1.81433E+006    1.18670E+007   -2.83471E+006    1.05185E+007   -1.63179E+006    9.88408E+006    2.51830E+005    5.87384E+005    4.85813E+005   -1.19058E+006
            4278    1.14084E+007    9.99327E+006    9.99327E+006   -1.76316E+005   -2.34321E+006    1.23365E+007   -2.49125E+006    1.09310E+007   -2.11499E+006    9.67696E+006   -8.82197E+004    8.71695E+005    4.61046E+005   -1.63064E+006
            4279    1.23343E+007    1.02632E+007    1.02632E+007   -5.75869E+005   -3.15770E+006    1.34209E+007   -2.17653E+006    1.17029E+007   -2.84169E+006    9.74868E+006   -3.77401E+005    1.40012E+006    4.17734E+005   -2.01385E+006
            4280    1.36460E+007    1.04482E+007    1.04482E+007   -1.34884E+006   -4.49662E+006    1.49449E+007   -1.53426E+006    1.27903E+007   -4.02198E+006    9.90479E+006   -1.28002E+006    1.90287E+006    5.58193E+005   -1.92615E+006
            4281    1.82849E+007    1.31325E+007    1.31325E+007   -1.42147E+006   -7.39118E+006    2.05237E+007   -1.43996E+006    1.58592E+007   -6.79005E+006    1.25186E+007   -1.40872E+006    3.45792E+006   -1.92176E+004   -4.42793E+005
            4282    1.75778E+007    1.26372E+007    1.26372E+007   -1.48373E+006   -7.04976E+006    1.96869E+007   -1.36790E+006    1.53994E+007   -6.47203E+006    1.19574E+007   -1.38169E+006    3.29697E+006   -3.46826E+004   -1.24106E+006
            4283    1.64882E+007    1.18921E+007    1.18921E+007   -1.54205E+006   -6.50847E+006    1.84006E+007   -1.28054E+006    1.46582E+007   -5.96945E+006    1.11439E+007   -1.33280E+006    3.03460E+006   -6.87392E+003   -1.75308E+006
            4284    1.51889E+007    1.10245E+007    1.10245E+007   -1.59780E+006   -5.83228E+006    1.68568E+007   -1.19815E+006    1.37640E+007   -5.34305E+006    1.02586E+007   -1.32114E+006    2.68156E+006    8.75928E+004   -2.02221E+006
            4285    1.40440E+007    1.01771E+007    1.01771E+007   -1.62890E+006   -5.35390E+006    1.55310E+007   -1.06478E+006    1.28603E+007   -4.91688E+006    9.47111E+006   -1.35990E+006    2.29724E+006    2.28575E+005   -2.06219E+006
            4286    1.31936E+007    9.29546E+006    9.29546E+006   -1.71413E+006   -5.32863E+006    1.46241E+007   -7.50900E+005    1.20016E+007   -4.88613E+006    8.67999E+006   -1.54116E+006    2.04105E+006    4.33940E+005   -1.92848E+006
            4287    1.34119E+007    9.31834E+006    9.31834E+006   -2.05608E+006   -5.47091E+006    1.47893E+007   -5.97116E+005    1.23759E+007   -4.95292E+006    8.82035E+006   -2.07608E+006    1.99005E+006    6.44863E+005   -1.67293E+006
            4288    1.08338E+007    1.01798E+007    1.01798E+007    4.28743E+005   -1.48250E+006    1.16623E+007   -3.04200E+006    1.04444E+007   -1.33578E+006    1.01133E+007    3.48440E+005    3.73806E+005    4.66009E+005   -7.44935E+005
            4289    1.07672E+007    1.02868E+007    1.02868E+007    5.07066E+005   -1.25124E+006    1.15381E+007   -3.18089E+006    1.04368E+007   -1.12674E+006    1.02709E+007    3.98560E+005    2.01688E+005    4.38964E+005   -3.58062E+005
            4290    1.07686E+007    1.03302E+007    1.03302E+007    4.81158E+005   -1.16778E+006    1.14980E+007   -3.21452E+006    1.04789E+007   -1.05409E+006    1.03302E+007    3.67472E+005    3.36570E+003    4.17777E+005    2.29114E+002
            4291    1.07645E+007    1.02763E+007    1.02763E+007    4.97413E+005   -1.25791E+006    1.15342E+007   -3.17194E+006    1.04352E+007   -1.13337E+006    1.02616E+007    3.87620E+005   -1.93511E+005    4.39578E+005    3.43879E+005
            4292    1.08320E+007    1.01591E+007    1.01591E+007    4.25350E+005   -1.51017E+006    1.16693E+007   -3.02477E+006    1.04323E+007   -1.35932E+006    1.00900E+007    3.43573E+005   -3.86031E+005    4.73795E+005    7.57453E+005
            4293    1.10094E+007    1.00111E+007    1.00111E+007    2.05158E+005   -1.89838E+006    1.19095E+007   -2.77261E+006    1.05430E+007   -1.70703E+006    9.84538E+006    1.79491E+005   -6.07761E+005    4.99218E+005    1.17317E+006
            4294    1.14821E+007    9.97613E+006    9.97613E+006   -1.76226E+005   -2.48492E+006    1.24610E+007   -2.43833E+006    1.09415E+007   -2.23725E+006    9.66539E+006   -1.13159E+005   -9.36713E+005    4.93694E+005    1.58883E+006
            4295    1.22085E+007    9.84687E+006    9.84687E+006   -7.88029E+005   -3.48446E+006    1.33313E+007   -1.85812E+006    1.15096E+007   -3.10431E+006    9.42609E+006   -7.47402E+005   -1.36498E+006    5.79584E+005    1.77179E+006
            4296    1.24987E+007    9.27444E+006    9.27444E+006   -1.26308E+006   -4.53465E+006    1.38091E+007   -1.15890E+006    1.14745E+007   -4.16388E+006    8.84573E+006   -1.20515E+006   -1.63546E+006    5.34478E+005    1.61486E+006
            4297    1.12846E+007    1.14578E+007    1.14578E+007    4.34148E+005   -7.06765E+004    1.15285E+007   -3.94043E+006    1.12591E+007   -3.57134E+004    1.13996E+007    4.57456E+005    7.20467E+004    1.22693E+005   -7.98239E+005
            4298    1.22888E+007    1.24671E+007    1.24671E+007    4.07477E+005   -3.88166E+004    1.25059E+007   -4.27858E+006    1.22706E+007   -2.10393E+004    1.24250E+007    4.31816E+005   -3.80570E+004   -8.49784E+004   -7.11217E+005
            4299    1.32650E+007    1.32932E+007    1.32932E+007    1.14291E+005   -5.61751E+004    1.33494E+007   -4.45045E+006    1.32625E+007   -5.40952E+004    1.32632E+007    1.42232E+005   -4.88462E+004   -1.56219E+004   -6.26514E+005
            4300    1.40965E+007    1.40092E+007    1.40092E+007   -9.57935E+003   -1.63790E+005    1.41729E+007   -4.61193E+006    1.40946E+007   -3.93989E+004    1.39904E+007   -1.15190E+005   -4.53001E+004   -5.94009E+004   -5.13217E+005
            4301    1.48284E+007    1.45777E+007    1.45777E+007   -9.43465E+004   -4.02187E+005    1.49799E+007   -4.69372E+006    1.48212E+007   -9.62714E+004    1.45677E+007   -3.90270E+005   -2.48991E+004   -2.38829E+004   -3.85948E+005
            4302    1.53364E+007    1.49868E+007    1.49868E+007   -1.02885E+005   -5.84981E+005    1.55718E+007   -4.76632E+006    1.53194E+007   -1.04811E+005    1.49833E+007   -5.79583E+005   -4.19139E+003   -3.03571E+004   -2.32448E+005
            4303    1.56136E+007    1.51946E+007    1.51946E+007   -1.28807E+005   -6.93858E+005    1.58885E+007   -4.79065E+006    1.55906E+007   -1.28824E+005    1.51941E+007   -6.93352E+005    9.73717E+003   -3.65990E+003   -8.76076E+004
            4304    1.12109E+007    1.14893E+007    1.14893E+007    5.07405E+005    6.26459E+004    1.14266E+007   -4.01978E+006    1.11910E+007    9.30772E+004    1.14765E+007    4.89702E+005    1.32550E+004    1.11889E+005   -3.74062E+005
            4305    1.21091E+007    1.24339E+007    1.24339E+007    5.24916E+005    1.34102E+005    1.22998E+007   -4.36429E+006    1.20949E+007    1.51639E+005    1.24255E+007    5.15709E+005   -4.36019E+004   -7.94863E+004   -3.12432E+005
            4306    1.30632E+007    1.32404E+007    1.32404E+007    2.03158E+005    1.51304E+005    1.30891E+007   -4.53161E+006    1.30630E+007    1.54820E+005    1.32350E+007    2.04986E+005   -5.31933E+004   -1.16087E+004   -2.58594E+005
            4307    1.38928E+007    1.39773E+007    1.39773E+007    2.33656E+005   -5.99397E+004    1.40373E+007   -4.71701E+006    1.38858E+007    2.23536E+005    1.39746E+007   -4.71401E+004   -6.33480E+004   -5.34593E+004   -1.83261E+005
            4308    1.46002E+007    1.45536E+007    1.45536E+007    2.26342E+005   -3.05142E+005    1.48587E+007   -4.82493E+006    1.45785E+007    2.25994E+005    1.45523E+007   -3.03551E+005   -6.77790E+004   -1.82772E+004   -1.17171E+005
            4309    1.51084E+007    1.49836E+007    1.49836E+007    2.68457E+005   -4.89497E+005    1.54731E+007   -4.92085E+006    1.50655E+007    2.67821E+005    1.49829E+007   -4.88193E+005   -7.26127E+004   -2.70928E+004   -6.93128E+004
            4310    1.53729E+007    1.52000E+007    1.52000E+007    2.76145E+005   -5.85771E+005    1.57857E+007   -4.96344E+006    1.53184E+007    2.76540E+005    1.51995E+007   -5.85751E+005   -7.68555E+004    4.80565E+002   -1.77756E+004
            4311    1.12328E+007    1.14827E+007    1.14827E+007    5.21171E+005   -3.01472E+003    1.14857E+007   -4.00028E+006    1.12052E+007    1.98174E+004    1.14827E+007    4.98363E+005    3.40778E+003    1.06993E+005    1.60298E+004
            4312    1.21536E+007    1.23894E+007    1.23894E+007    4.91764E+005   -5.00145E+003    1.23944E+007   -4.29205E+006    1.21308E+007    4.74147E+003    1.23891E+007    4.82357E+005    7.40144E+003   -6.88322E+004    6.28061E+004
            4313    1.31095E+007    1.31838E+007    1.31838E+007    1.82479E+005   -3.12736E+004    1.32151E+007   -4.44500E+006    1.31056E+007   -3.07946E+004    1.31829E+007    1.82862E+005    2.07395E+004   -9.59597E+003    1.03864E+005
            4314    1.39729E+007    1.39122E+007    1.39122E+007   -6.08520E+002   -1.19919E+005    1.40321E+007   -4.59723E+006    1.39717E+007   -2.62379E+004    1.39109E+007   -9.30143E+004    2.86487E+004   -4.87745E+004    1.30616E+005
            4315    1.47302E+007    1.45016E+007    1.45016E+007   -7.79791E+004   -3.74819E+005    1.48764E+007   -4.68293E+006    1.47235E+007   -7.88884E+004    1.45004E+007   -3.72699E+005    3.85784E+004   -1.69581E+004    1.28427E+005
            4316    1.52621E+007    1.49267E+007    1.49267E+007   -8.86410E+004   -5.70615E+005    1.54973E+007   -4.75582E+006    1.52449E+007   -8.98119E+004    1.49260E+007   -5.68730E+005    4.27378E+004   -2.46538E+004    9.58989E+004
            4317    1.55521E+007    1.51465E+007    1.51465E+007   -1.14135E+005   -6.81598E+005    1.58281E+007   -4.78359E+006    1.55288E+007   -1.13991E+005    1.51463E+007   -6.81542E+005    4.69521E+004    4.07489E+002    2.97795E+004
            4318    1.11858E+007    1.14465E+007    1.14465E+007    5.04141E+005    3.22900E+004    1.14142E+007   -3.99432E+006    1.11634E+007    6.66469E+004    1.14301E+007    4.86183E+005   -2.67235E+004    1.21590E+005    4.23393E+005
            4319    1.20692E+007    1.23819E+007    1.23819E+007    5.11565E+005    1.23310E+005    1.22586E+007   -4.33893E+006    1.20551E+007    1.40832E+005    1.23649E+007    5.11032E+005    3.77984E+004   -7.90124E+004    4.47772E+005
            4320    1.30311E+007    1.32053E+007    1.32053E+007    2.07645E+005    1.40871E+005    1.30644E+007   -4.51792E+006    1.30307E+007    1.48554E+005    1.31877E+007    2.17518E+005    6.50160E+004   -1.85651E+004    4.73182E+005
            4321    1.38953E+007    1.39763E+007    1.39763E+007    2.35197E+005   -6.82819E+004    1.40445E+007   -4.71439E+006    1.38878E+007    2.20439E+005    1.39608E+007   -3.80439E+004    8.59984E+004   -6.35639E+004    4.58008E+005
            4322    1.46556E+007    1.46040E+007    1.46040E+007    2.27392E+005   -3.15499E+005    1.49195E+007   -4.83865E+006    1.46330E+007    2.26085E+005    1.45933E+007   -3.03411E+005    9.89537E+004   -3.01325E+004    3.88247E+005
            4323    1.51985E+007    1.50714E+007    1.50714E+007    2.72327E+005   -4.97390E+005    1.55688E+007   -4.94877E+006    1.51546E+007    2.71376E+005    1.50663E+007   -4.91379E+005    1.08336E+005   -3.47161E+004    2.57963E+005
            4324    1.54858E+007    1.53101E+007    1.53101E+007    2.80441E+005   -5.94735E+005    1.59049E+007   -4.99861E+006    1.54300E+007    2.81267E+005    1.53088E+007   -5.94190E+005    1.13124E+005   -4.09133E+003    9.08880E+004
            4325    1.12437E+007    1.13665E+007    1.13665E+007    3.97036E+005   -1.32614E+005    1.14991E+007   -3.87698E+006    1.12156E+007   -8.48400E+004    1.13011E+007    4.14732E+005   -8.16816E+004    1.45265E+005    8.43956E+005
            4326    1.21898E+007    1.23648E+007    1.23648E+007    4.00990E+005   -3.91013E+004    1.24039E+007   -4.24224E+006    1.21719E+007   -2.14951E+004    1.23064E+007    4.41811E+005    4.03180E+004   -8.34117E+004    8.33958E+005
            4327    1.31891E+007    1.32125E+007    1.32125E+007    1.10309E+005   -6.17731E+004    1.32743E+007   -4.42035E+006    1.31866E+007   -5.55362E+004    1.31587E+007    1.57873E+005    8.18085E+004   -2.57731E+004    8.34281E+005
            4328    1.41106E+007    1.40206E+007    1.40206E+007    6.18275E+003   -1.84238E+005    1.42048E+007   -4.61418E+006    1.41077E+007   -3.34690E+004    1.39774E+007   -1.01378E+005    9.44800E+004   -7.26612E+004    7.75860E+005
            4329    1.49345E+007    1.46850E+007    1.46850E+007   -8.41716E+004   -4.09597E+005    1.50946E+007   -4.73041E+006    1.49266E+007   -8.81134E+004    1.46574E+007   -3.78028E+005    9.57586E+004   -3.41584E+004    6.38031E+005
            4330    1.55207E+007    1.51722E+007    1.51722E+007   -9.36124E+004   -5.91253E+005    1.57635E+007   -4.82913E+006    1.55027E+007   -9.61774E+004    1.51606E+007   -5.77049E+005    8.81527E+004   -3.65874E+004    4.18891E+005
            4331    1.58377E+007    1.54245E+007    1.54245E+007   -1.21207E+005   -6.89898E+005    1.61144E+007   -4.87113E+006    1.58147E+007   -1.20760E+005    1.54228E+007   -6.88659E+005    8.38129E+004   -9.74265E+002    1.41000E+005
            4332    1.13010E+007    1.12926E+007    1.12926E+007    2.64294E+005   -2.62495E+005    1.15551E+007   -3.76482E+006    1.12733E+007   -1.46217E+005    1.11421E+007    2.98584E+005   -1.84695E+005    1.96968E+005    1.27679E+006
            4333    1.21390E+007    1.23265E+007    1.23265E+007    3.18939E+005    6.02081E+004    1.22663E+007   -4.23522E+006    1.21328E+007    1.08253E+005    1.22025E+007    3.94897E+005    5.36644E+004   -9.55372E+004    1.21559E+006
            4334    1.31551E+007    1.32584E+007    1.32584E+007    1.83076E+005    2.51351E+004    1.32333E+007   -4.48889E+006    1.31529E+007    1.47812E+005    1.31470E+007    1.71817E+005    1.45792E+005   -5.36677E+004    1.19928E+006
            4335    1.41005E+007    1.41590E+007    1.41590E+007    2.96747E+005   -1.68189E+005    1.43272E+007   -4.76253E+006    1.40833E+007    2.62853E+005    1.40718E+007   -4.70756E+004    2.11024E+005   -1.09696E+005    1.09412E+006
            4336    1.49412E+007    1.49040E+007    1.49040E+007    2.91758E+005   -3.45813E+005    1.52498E+007   -4.94999E+006    1.49106E+007    2.84321E+005    1.48477E+007   -2.82059E+005    2.58507E+005   -7.11405E+004    8.87715E+005
            4337    1.55516E+007    1.54681E+007    1.54681E+007    3.45841E+005   -4.80041E+005    1.59481E+007   -5.11128E+006    1.55022E+007    3.45004E+005    1.54414E+007   -4.52526E+005    2.94027E+005   -6.21142E+004    5.78897E+005
            4338    1.58791E+007    1.57603E+007    1.57603E+007    3.53662E+005   -5.52444E+005    1.63127E+007   -5.18716E+006    1.58207E+007    3.59699E+005    1.57514E+007   -5.49650E+005    3.15486E+005   -1.56294E+004    1.96872E+005
            4339    1.14839E+007    1.10553E+007    1.10553E+007   -3.48948E+004   -7.85487E+005    1.18408E+007   -3.41163E+006    1.14285E+007   -5.72519E+005    1.07951E+007    1.23064E+004   -4.19248E+005    2.73345E+005    1.65440E+006
            4340    1.22690E+007    1.21410E+007    1.21410E+007   -1.01549E+004   -2.42617E+005    1.23836E+007   -3.96274E+006    1.22641E+007   -2.31734E+005    1.19244E+007    1.95526E+005   -1.14321E+005   -6.22266E+004    1.60388E+006
            4341    1.33061E+007    1.31278E+007    1.31278E+007   -1.24648E+005   -2.31349E+005    1.33591E+007   -4.25725E+006    1.33051E+007   -2.00355E+005    1.29448E+007    2.73211E+004   -2.02677E+004   -5.11483E+004    1.54797E+006
            4342    1.42745E+007    1.40637E+007    1.40637E+007   -8.25102E+004   -3.35901E+005    1.43996E+007   -4.54842E+006    1.42695E+007   -1.28437E+005    1.39250E+007   -1.51285E+005    1.39754E+004   -9.67076E+004    1.40408E+006
            4343    1.51619E+007    1.48578E+007    1.48578E+007   -1.37041E+005   -4.65768E+005    1.53236E+007   -4.75167E+006    1.51539E+007   -1.49446E+005    1.47725E+007   -3.68049E+005    1.53718E+004   -6.16830E+004    1.13968E+006
            4344    1.57996E+007    1.54397E+007    1.54397E+007   -1.33008E+005   -5.77401E+005    1.60171E+007   -4.90975E+006    1.57855E+007   -1.39598E+005    1.54052E+007   -5.36353E+005   -6.26336E+002   -5.38013E+004    7.41960E+005
            4345    1.61470E+007    1.57528E+007    1.57528E+007   -1.47369E+005   -6.30254E+005    1.63830E+007   -4.99172E+006    1.61308E+007   -1.47410E+005    1.57488E+007   -6.26261E+005   -7.17643E+003   -4.74271E+003    2.54299E+005
            4346    1.15479E+007    1.06355E+007    1.06355E+007   -2.67630E+005   -1.46412E+006    1.20996E+007   -2.96791E+006    1.14072E+007   -1.01923E+006    1.02240E+007   -3.01061E+005   -7.56204E+005    4.37445E+005    2.01769E+006
            4347    1.20828E+007    1.18118E+007    1.18118E+007   -2.04989E+005   -3.36042E+005    1.21478E+007   -3.75692E+006    1.20812E+007   -2.02169E+005    1.14904E+007   -1.75141E+004   -2.36307E+005   -2.29919E+004    1.93509E+006
            4348    1.30215E+007    1.28677E+007    1.28677E+007   -1.52478E+004   -2.88034E+005    1.31558E+007   -4.18815E+006    1.30151E+007   -3.24911E+004    1.25920E+007    4.96878E+003    2.16514E+003   -6.67796E+004    1.88334E+006
            4349    1.40448E+007    1.39876E+007    1.39876E+007    2.41575E+005   -3.37925E+005    1.43256E+007   -4.63043E+006    1.40178E+007    1.76209E+005    1.37775E+007   -6.24298E+004    2.03773E+005   -1.62847E+005    1.70819E+006
            4350    1.50222E+007    1.49637E+007    1.49637E+007    2.51860E+005   -3.50875E+005    1.53145E+007   -4.95488E+006    1.49950E+007    2.08113E+005    1.48285E+007   -1.72006E+005    3.47584E+005   -1.37006E+005    1.38926E+006
            4351    1.57879E+007    1.57434E+007    1.57434E+007    2.86218E+005   -3.55765E+005    1.60991E+007   -5.22461E+006    1.57585E+007    2.66077E+005    1.56778E+007   -2.70068E+005    4.63174E+005   -1.16752E+005    9.13319E+005
            4352    1.62028E+007    1.61585E+007    1.61585E+007    2.69138E+005   -3.40541E+005    1.64990E+007   -5.36237E+006    1.61770E+007    2.81196E+005    1.61355E+007   -3.29639E+005    5.18993E+005   -4.42229E+004    3.15843E+005
            4353    1.22918E+007    1.00379E+007    1.00379E+007   -9.29779E+005   -3.24783E+006    1.32858E+007   -1.95344E+006    1.17849E+007   -2.63710E+006    9.46300E+006   -9.65585E+005   -1.51260E+006    6.51642E+005    2.15784E+006
            4354    1.21294E+007    1.07724E+007    1.07724E+007   -7.06266E+005   -1.91703E+006    1.26894E+007   -2.71636E+006    1.19924E+007   -1.48153E+006    1.02085E+007   -5.77833E+005   -1.28528E+006    2.89518E+005    2.23666E+006
            4355    1.26807E+007    1.16498E+007    1.16498E+007   -6.03356E+005   -1.41903E+006    1.30688E+007   -3.20914E+006    1.26214E+007   -1.03079E+006    1.11394E+007   -4.81217E+005   -1.11149E+006    1.93472E+005    2.25487E+006
            4356    1.32286E+007    1.25490E+007    1.25490E+007   -4.25395E+005   -9.19922E+005    1.34690E+007   -3.73457E+006    1.32078E+007   -5.32776E+005    1.21244E+007   -3.87883E+005   -1.02821E+006    7.39224E+004    2.11487E+006
            4357    1.38536E+007    1.33989E+007    1.33989E+007   -2.20850E+005   -6.77194E+005    1.40761E+007   -4.16696E+006    1.38367E+007   -2.26884E+005    1.30974E+007   -3.69616E+005   -9.74910E+005    4.25707E+004    1.78949E+006
            4358    1.43112E+007    1.40672E+007    1.40672E+007    1.48400E+004   -4.89511E+005    1.45567E+007   -4.53084E+006    1.42912E+007    6.29623E+004    1.39013E+007   -3.71710E+005   -9.53592E+005    9.42362E+003    1.20820E+006
            4359    1.45646E+007    1.44204E+007    1.44204E+007    1.33315E+005   -4.06661E+005    1.48271E+007   -4.71570E+006    1.45421E+007    1.94654E+005    1.43432E+007   -3.90773E+005   -9.60433E+005    1.48079E+004    4.29286E+005
            4360    1.87423E+007    1.29598E+007    1.29598E+007   -1.56188E+006   -8.19759E+006    2.11574E+007   -1.06678E+006    1.57540E+007   -7.51892E+006    1.22663E+007   -1.54708E+006   -3.72511E+006   -2.47065E+004    4.75358E+005
            4361    1.79589E+007    1.25034E+007    1.25034E+007   -1.62779E+006   -7.70580E+006    2.02092E+007   -1.05660E+006    1.53755E+007   -7.06357E+006    1.17481E+007   -1.51474E+006   -3.51596E+006   -3.34009E+004    1.30973E+006
            4362    1.67138E+007    1.17737E+007    1.17737E+007   -1.67207E+006   -6.93903E+006    1.87128E+007   -1.05421E+006    1.46645E+007   -6.35552E+006    1.09581E+007   -1.43997E+006   -3.17284E+006    5.04664E+003    1.85558E+006
            4363    1.54169E+007    1.10297E+007    1.10297E+007   -1.65574E+006   -6.12932E+006    1.71590E+007   -1.08153E+006    1.38397E+007   -5.61054E+006    1.02038E+007   -1.34868E+006   -2.77877E+006    9.25760E+004    2.13172E+006
            4364    1.42255E+007    1.03222E+007    1.03222E+007   -1.56115E+006   -5.44050E+006    1.57627E+007   -1.10685E+006    1.29529E+007   -4.98402E+006    9.55052E+006   -1.24595E+006   -2.38924E+006    1.94702E+005    2.17788E+006
            4365    1.34089E+007    9.74381E+006    9.74381E+006   -1.48585E+006   -5.10241E+006    1.48462E+007   -1.05185E+006    1.22374E+007   -4.67682E+006    9.06821E+006   -1.23584E+006   -2.06488E+006    3.61023E+005    2.09330E+006
            4366    1.27935E+007    9.22525E+006    9.22525E+006   -1.29206E+006   -5.01746E+006    1.42427E+007   -9.71911E+005    1.14746E+007   -4.65259E+006    8.69586E+006   -1.12754E+006   -1.80007E+006    4.48052E+005    1.80717E+006
            4367    1.36370E+007    1.04191E+007    1.04191E+007   -1.36864E+006   -4.51663E+006    1.49357E+007   -1.51127E+006    1.27806E+007   -4.03998E+006    9.87793E+006   -1.30412E+006    1.90056E+006   -5.63304E+005    1.92044E+006
            4368    1.23755E+007    1.02887E+007    1.02887E+007   -5.91838E+005   -3.17422E+006    1.34629E+007   -2.17422E+006    1.17461E+007   -2.85277E+006    9.76932E+006   -3.93900E+005    1.41314E+006   -4.20634E+005    2.02519E+006
            4369    1.14194E+007    1.00063E+007    1.00063E+007   -1.77364E+005   -2.33958E+006    1.23459E+007   -2.49646E+006    1.09445E+007   -2.11405E+006    9.68605E+006   -8.26268E+004    8.77719E+005   -4.53193E+005    1.64077E+006
            4370    1.09810E+007    1.00640E+007    1.00640E+007    2.69217E+005   -1.80680E+006    1.18708E+007   -2.84213E+006    1.05258E+007   -1.62385E+006    9.89375E+006    2.56500E+005    5.86791E+005   -4.85734E+005    1.19817E+006
            4371    1.14008E+007    1.14746E+007    1.14746E+007    2.76686E+005   -1.18752E+005    1.15933E+007   -3.87750E+006    1.13853E+007   -3.05560E+004    1.13347E+007    3.28373E+005    1.21360E+005   -1.51462E+005    1.24442E+006
            4372    1.23468E+007    1.25836E+007    1.25836E+007    3.78929E+005    9.93299E+004    1.24842E+007   -4.35394E+006    1.23397E+007    1.58488E+005    1.24863E+007    4.17082E+005   -9.89892E+004    1.05371E+005    1.08447E+006
            4373    1.33008E+007    1.34282E+007    1.34282E+007    1.93249E+005    6.25026E+004    1.33657E+007   -4.56131E+006    1.32993E+007    1.73455E+005    1.33542E+007    1.56256E+005   -1.76357E+005    3.61372E+004    9.75383E+005
            4374    1.41551E+007    1.42246E+007    1.42246E+007    2.86103E+005   -1.37586E+005    1.43622E+007   -4.79104E+006    1.41408E+007    2.65750E+005    1.41720E+007   -6.46523E+004   -2.31183E+005    8.46058E+004    8.36028E+005
            4375    1.48978E+007    1.48535E+007    1.48535E+007    2.63583E+005   -3.34167E+005    1.51877E+007   -4.92764E+006    1.48708E+007    2.63372E+005    1.48217E+007   -3.02155E+005   -2.63887E+005    4.28474E+004    6.40804E+005
            4376    1.54334E+007    1.53215E+007    1.53215E+007    3.02334E+005   -4.95334E+005    1.58168E+007   -5.04282E+006    1.53869E+007    3.04888E+005    1.53050E+007   -4.81473E+005   -2.90523E+005    4.14116E+004    4.13824E+005
            4377    1.57142E+007    1.55566E+007    1.55566E+007    2.98920E+005   -5.77522E+005    1.61341E+007   -5.09267E+006    1.56591E+007    3.04968E+005    1.55494E+007   -5.76394E+005   -3.04766E+005    3.46966E+003    1.32415E+005
            4378    1.16959E+007    1.14248E+007    1.14248E+007    3.59829E+004   -5.55856E+005    1.19806E+007   -3.63497E+006    1.16622E+007   -3.93064E+005    1.11700E+007    1.28008E+005    3.56523E+005   -2.09954E+005    1.66652E+006
            4379    1.24986E+007    1.24463E+007    1.24463E+007    7.70543E+004   -1.77792E+005    1.26241E+007   -4.11519E+006    1.24928E+007   -1.55885E+005    1.22709E+007    2.30578E+005    4.66290E+004    7.71665E+004    1.46287E+006
            4380    1.34624E+007    1.33508E+007    1.33508E+007   -5.21403E+004   -1.70389E+005    1.35212E+007   -4.37608E+006    1.34613E+007   -1.38169E+005    1.32085E+007    5.78868E+004   -2.98187E+004    4.98220E+004    1.37487E+006
            4381    1.43509E+007    1.41866E+007    1.41866E+007   -2.30945E+004   -3.01364E+005    1.44880E+007   -4.62071E+006    1.43448E+007   -6.59311E+004    1.40864E+007   -1.58282E+005   -3.36722E+004    9.80043E+004    1.19889E+006
            4382    1.51252E+007    1.48449E+007    1.48449E+007   -7.65410E+004   -4.76218E+005    1.53211E+007   -4.76404E+006    1.51133E+007   -8.56940E+004    1.47855E+007   -4.07720E+005   -1.13962E+004    5.92049E+004    9.51377E+005
            4383    1.56628E+007    1.53220E+007    1.53220E+007   -5.71437E+004   -6.09832E+005    1.59318E+007   -4.88499E+006    1.56408E+007   -6.16560E+004    1.52993E+007   -5.82708E+005    2.03697E+004    5.07135E+004    5.99266E+005
            4384    1.59474E+007    1.55592E+007    1.55592E+007   -6.54905E+004   -6.92480E+005    1.62517E+007   -4.93375E+006    1.59197E+007   -6.56154E+004    1.55563E+007   -6.89438E+005    4.19376E+004    1.27765E+004    2.13411E+005
            4385    1.16862E+007    1.10463E+007    1.10463E+007   -1.58779E+005   -1.06801E+006    1.21143E+007   -3.27316E+006    1.16062E+007   -6.49038E+005    1.06990E+007   -2.30472E+005    6.08702E+005   -3.54438E+005    1.90407E+006
            4386    1.21817E+007    1.21085E+007    1.21085E+007    7.26806E+003   -1.52083E+005    1.22605E+007   -3.98788E+006    1.21793E+007   -2.79652E+004    1.18283E+007    1.63338E+005    3.98862E+004    7.31493E+004    1.82875E+006
            4387    1.32890E+007    1.32377E+007    1.32377E+007    1.28792E+005   -2.24318E+005    1.34620E+007   -4.38071E+006    1.32784E+007    8.67172E+004    1.30006E+007    5.48301E+004   -1.78142E+005    9.40203E+004    1.76006E+006
            4388    1.43557E+007    1.43118E+007    1.43118E+007    2.53050E+005   -3.23339E+005    1.46352E+007   -4.74719E+006    1.43296E+007    1.87014E+005    1.41333E+007   -7.87698E+004   -3.58817E+005    1.55199E+005    1.56526E+006
            4389    1.53550E+007    1.52497E+007    1.52497E+007    1.90916E+005   -3.85171E+005    1.56349E+007   -5.01849E+006    1.53306E+007    1.56335E+005    1.51366E+007   -2.37500E+005   -4.62792E+005    1.22798E+005    1.24134E+006
            4390    1.61052E+007    1.59516E+007    1.59516E+007    1.51003E+005   -4.41836E+005    1.63934E+007   -5.22026E+006    1.60806E+007    1.46101E+005    1.58931E+007   -3.78445E+005   -5.46626E+005    8.87369E+004    8.07052E+005
            4391    1.65081E+007    1.63217E+007    1.63217E+007    9.48135E+004   -4.53908E+005    1.67756E+007   -5.32086E+006    1.64875E+007    1.14387E+005    1.62959E+007   -4.47719E+005   -5.90732E+005    2.30465E+004    2.67224E+005
            4392    1.19466E+007    1.01797E+007    1.01797E+007   -5.79620E+005   -2.67657E+006    1.28562E+007   -2.30783E+006    1.15216E+007   -2.05758E+006    9.50539E+006   -5.24333E+005    1.49250E+006   -5.70192E+005    2.36212E+006
            4393    1.22533E+007    1.10847E+007    1.10847E+007   -6.57532E+005   -1.62248E+006    1.27072E+007   -2.93491E+006    1.21674E+007   -1.08551E+006    1.05408E+007   -6.50561E+005    1.07391E+006   -2.79006E+005    2.31991E+006
            4394    1.26976E+007    1.19182E+007    1.19182E+007   -4.50329E+005   -1.08477E+006    1.30029E+007   -3.46102E+006    1.26619E+007   -5.88160E+005    1.14568E+007   -4.85610E+005    8.58490E+005   -1.40699E+005    2.24362E+006
            4395    1.33369E+007    1.29520E+007    1.29520E+007   -5.72414E+004   -6.90072E+005    1.36420E+007   -4.06822E+006    1.33031E+007   -5.35762E+004    1.26004E+007   -3.42143E+005    7.12551E+005   -3.47110E+004    2.04031E+006
            4396    1.39548E+007    1.38422E+007    1.38422E+007    3.36324E+005   -5.21798E+005    1.43640E+007   -4.55225E+006    1.38952E+007    3.50840E+005    1.36164E+007   -3.10477E+005    5.80615E+005   -2.29867E+004    1.68698E+006
            4397    1.44119E+007    1.45387E+007    1.45387E+007    7.05012E+005   -3.89161E+005    1.49278E+007   -4.95150E+006    1.43180E+007    7.19556E+005    1.44392E+007   -3.04281E+005    4.65900E+005    5.71819E+002    1.11469E+006
            4398    1.46606E+007    1.49025E+007    1.49025E+007    8.88830E+005   -3.28955E+005    1.52315E+007   -5.15413E+006    1.45461E+007    9.00676E+005    1.48799E+007   -3.18134E+005    4.08839E+005    7.10595E+002    4.04092E+005
            4399    1.82757E+007    1.31119E+007    1.31119E+007   -1.42876E+006   -7.40335E+006    2.05153E+007   -1.42661E+006    1.58440E+007   -6.80044E+006    1.24950E+007   -1.41475E+006    3.46201E+006    2.21422E+004    4.63007E+005
            4400    1.75883E+007    1.26112E+007    1.26112E+007   -1.49809E+006   -7.09422E+006    1.97055E+007   -1.33965E+006    1.53853E+007   -6.50985E+006    1.19244E+007   -1.39565E+006    3.31727E+006    3.67300E+004    1.24221E+006
            4401    1.64856E+007    1.18873E+007    1.18873E+007   -1.55589E+006   -6.50628E+006    1.83936E+007   -1.27506E+006    1.46682E+007   -5.96572E+006    1.11395E+007   -1.34855E+006    3.03835E+006    6.32101E+003    1.74674E+006
            4402    1.52029E+007    1.10354E+007    1.10354E+007   -1.60142E+006   -5.83578E+006    1.68712E+007   -1.19941E+006    1.37797E+007   -5.34742E+006    1.02709E+007   -1.32528E+006    2.68009E+006   -8.84066E+004    2.02199E+006
            4403    1.40877E+007    1.02131E+007    1.02131E+007   -1.62121E+006   -5.36983E+006    1.55829E+007   -1.07401E+006    1.28921E+007   -4.93119E+006    9.50276E+006   -1.34954E+006    2.31342E+006   -2.21170E+005    2.06498E+006
            4404    1.32181E+007    9.34070E+006    9.34070E+006   -1.69569E+006   -5.30808E+006    1.46488E+007   -7.78975E+005    1.20302E+007   -4.86802E+006    8.72093E+006   -1.51598E+006    2.04712E+006   -4.23045E+005    1.93780E+006
            4405    1.34137E+007    9.33740E+006    9.33740E+006   -2.03383E+006   -5.45589E+006    1.47933E+007   -6.15892E+005    1.23732E+007   -4.94337E+006    8.84402E+006   -2.05298E+006    1.98261E+006   -6.42694E+005    1.66349E+006
            4406    1.45593E+007    1.44099E+007    1.44099E+007    1.23123E+005   -4.07464E+005    1.48174E+007   -4.70853E+006    1.45376E+007    1.87065E+005    1.43301E+007   -3.91554E+005   -9.73362E+005   -7.72688E+003   -4.43204E+005
            4407    1.61871E+007    1.61438E+007    1.61438E+007    2.70160E+005   -3.39564E+005    1.64833E+007   -5.35812E+006    1.61612E+007    2.83327E+005    1.61206E+007   -3.29569E+005    5.10072E+005    3.36185E+004   -3.34755E+005
            4408    1.61428E+007    1.57508E+007    1.57508E+007   -1.44978E+005   -6.28214E+005    1.63790E+007   -4.99254E+006    1.61265E+007   -1.45178E+005    1.57462E+007   -6.23427E+005   -4.62364E+003    9.94065E+003   -2.74025E+005
            4409    1.58712E+007    1.57517E+007    1.57517E+007    3.51376E+005   -5.51830E+005    1.63036E+007   -5.18376E+006    1.58133E+007    3.57314E+005    1.57425E+007   -5.48552E+005    3.13435E+005    1.56719E+004   -2.15252E+005
            4410    1.58300E+007    1.54187E+007    1.54187E+007   -1.20060E+005   -6.87272E+005    1.61060E+007   -4.87045E+006    1.58071E+007   -1.19633E+005    1.54168E+007   -6.85771E+005    8.48578E+004    3.70995E+003   -1.53598E+005
            4411    1.54808E+007    1.53056E+007    1.53056E+007    2.80172E+005   -5.93490E+005    1.58991E+007   -4.99743E+006    1.54251E+007    2.80997E+005    1.53041E+007   -5.92854E+005    1.13248E+005    4.32620E+003   -9.82259E+004
            4412    1.55490E+007    1.51442E+007    1.51442E+007   -1.14348E+005   -6.79819E+005    1.58240E+007   -4.78335E+006    1.55259E+007   -1.14201E+005    1.51440E+007   -6.79750E+005    4.75611E+004    7.30437E+002   -3.27597E+004
            4413    1.53736E+007    1.51994E+007    1.51994E+007    2.74636E+005   -5.86882E+005    1.57863E+007   -4.96239E+006    1.53192E+007    2.75021E+005    1.51990E+007   -5.86862E+005   -7.62135E+004   -1.87845E+003    1.57114E+004
            4414    1.56151E+007    1.51965E+007    1.51965E+007   -1.29099E+005   -6.92883E+005    1.58893E+007   -4.79149E+006    1.55922E+007   -1.29124E+005    1.51960E+007   -6.92394E+005    9.56766E+003    4.19215E+003    8.53538E+004
            4415    1.42920E+007    1.40370E+007    1.40370E+007   -2.27147E+003   -4.95120E+005    1.45321E+007   -4.51319E+006    1.42729E+007    4.55245E+004    1.38655E+007   -3.71398E+005   -9.71999E+005   -1.26569E+004   -1.22495E+006
            4416    1.57505E+007    1.57049E+007    1.57049E+007    2.87505E+005   -3.58859E+005    1.60638E+007   -5.21119E+006    1.57207E+007    2.65208E+005    1.56375E+007   -2.69167E+005    4.46227E+005    1.19911E+005   -9.36471E+005
            4417    1.57703E+007    1.54151E+007    1.54151E+007   -1.30116E+005   -5.70883E+005    1.59860E+007   -4.90471E+006    1.57564E+007   -1.36390E+005    1.53783E+007   -5.27751E+005    2.76880E+003    5.21388E+004   -7.66562E+005
            4418    1.55248E+007    1.54415E+007    1.54415E+007    3.42612E+005   -4.76828E+005    1.59183E+007   -5.10242E+006    1.54760E+007    3.40707E+005    1.54135E+007   -4.46978E+005    2.91679E+005    6.68125E+004   -5.96668E+005
            4419    1.54944E+007    1.51498E+007    1.51498E+007   -9.33671E+004   -5.84229E+005    1.57340E+007   -4.82406E+006    1.54769E+007   -9.58975E+004    1.51376E+007   -5.69571E+005    8.76366E+004    3.60297E+004   -4.27669E+005
            4420    1.51820E+007    1.50579E+007    1.50579E+007    2.72949E+005   -4.92262E+005    1.55501E+007   -4.94619E+006    1.51385E+007    2.71838E+005    1.50527E+007   -4.85989E+005    1.07401E+005    3.61028E+004   -2.61255E+005
            4421    1.52556E+007    1.49208E+007    1.49208E+007   -8.98267E+004   -5.68514E+005    1.54893E+007   -4.75414E+006    1.52387E+007   -9.09992E+004    1.49201E+007   -5.66640E+005    4.19528E+004    2.45480E+004   -9.51865E+004
            4422    1.51099E+007    1.49846E+007    1.49846E+007    2.67376E+005   -4.89518E+005    1.54742E+007   -4.92083E+006    1.50672E+007    2.66792E+005    1.49840E+007   -4.88246E+005   -7.32538E+004    2.64361E+004    7.08450E+004
            4423    1.53447E+007    1.49930E+007    1.49930E+007   -1.04344E+005   -5.87633E+005    1.55807E+007   -4.76702E+006    1.53276E+007   -1.06353E+005    1.49895E+007   -5.82141E+005   -4.56830E+003    3.10335E+004    2.32894E+005
            4424    1.38296E+007    1.33630E+007    1.33630E+007   -2.29467E+005   -6.91990E+005    1.40550E+007   -4.14719E+006    1.38121E+007   -2.44475E+005    1.30565E+007   -3.70501E+005   -9.83218E+005   -5.05771E+004   -1.80181E+006
            4425    1.49699E+007    1.49080E+007    1.49080E+007    2.49697E+005   -3.55236E+005    1.52632E+007   -4.93414E+006    1.49424E+007    2.01168E+005    1.47691E+007   -1.67819E+005    3.32659E+005    1.44142E+005   -1.41047E+006
            4426    1.51022E+007    1.48051E+007    1.48051E+007   -1.32228E+005   -4.56706E+005    1.52618E+007   -4.73873E+006    1.50944E+007   -1.44734E+005    1.47171E+007   -3.56140E+005    1.62242E+004    6.14292E+004   -1.15540E+006
            4427    1.48878E+007    1.48557E+007    1.48557E+007    2.90528E+005   -3.34989E+005    1.51907E+007   -4.93708E+006    1.48582E+007    2.81750E+005    1.47983E+007   -2.68748E+005    2.57226E+005    7.46581E+004   -8.95972E+005
            4428    1.48930E+007    1.46488E+007    1.46488E+007   -8.53559E+004   -3.98150E+005    1.50469E+007   -4.72175E+006    1.48856E+007   -8.93245E+004    1.46214E+007   -3.66810E+005    9.32795E+004    3.35034E+004   -6.34351E+005
            4429    1.46319E+007    1.45849E+007    1.45849E+007    2.28964E+005   -3.08151E+005    1.48931E+007   -4.83525E+006    1.46097E+007    2.27573E+005    1.45745E+007   -2.96300E+005    9.81785E+004    3.06176E+004   -3.81869E+005
            4430    1.47244E+007    1.44961E+007    1.44961E+007   -7.98544E+004   -3.72362E+005    1.48685E+007   -4.68130E+006    1.47179E+007   -8.07481E+004    1.44950E+007   -3.70406E+005    3.72860E+004    1.66737E+004   -1.19994E+005
            4431    1.46066E+007    1.45587E+007    1.45587E+007    2.26081E+005   -3.07341E+005    1.48660E+007   -4.82581E+006    1.45847E+007    2.25754E+005    1.45573E+007   -3.05656E+005   -6.82710E+004    1.80486E+004    1.24001E+005
            4432    1.48478E+007    1.45918E+007    1.45918E+007   -9.86752E+004   -4.08502E+005    1.50003E+007   -4.69489E+006    1.48406E+007   -1.00723E+005    1.45817E+007   -3.96283E+005   -2.36445E+004    2.47144E+004    3.89770E+005
            4433    1.32063E+007    1.25177E+007    1.25177E+007   -4.25142E+005   -9.37089E+005    1.34548E+007   -3.71849E+006    1.31839E+007   -5.45401E+005    1.20902E+007   -3.89357E+005   -1.02506E+006   -8.34769E+004   -2.12292E+006
            4434    1.39839E+007    1.39222E+007    1.39222E+007    2.33552E+005   -3.39356E+005    1.42616E+007   -4.60548E+006    1.39575E+007    1.64690E+005    1.37095E+007   -5.77144E+004    1.95107E+005    1.66312E+005   -1.71570E+006
            4435    1.41961E+007    1.39938E+007    1.39938E+007   -8.03266E+004   -3.21191E+005    1.43150E+007   -4.53077E+006    1.41915E+007   -1.27197E+005    1.38543E+007   -1.34787E+005    1.41737E+004    9.44171E+004   -1.40407E+006
            4436    1.40351E+007    1.41024E+007    1.41024E+007    2.97537E+005   -1.52131E+005    1.42545E+007   -4.74926E+006    1.40189E+007    2.61696E+005    1.40165E+007   -3.03800E+004    2.10061E+005    1.10486E+005   -1.08289E+006
            4437    1.40678E+007    1.39837E+007    1.39837E+007    6.22329E+003   -1.72798E+005    1.41565E+007   -4.60570E+006    1.40652E+007   -3.52794E+004    1.39421E+007   -8.97424E+004    9.05701E+004    7.11069E+004   -7.59761E+005
            4438    1.38756E+007    1.39614E+007    1.39614E+007    2.37836E+005   -6.13844E+004    1.40228E+007   -4.71261E+006    1.38683E+007    2.22816E+005    1.39470E+007   -3.20069E+004    8.36367E+004    6.37251E+004   -4.40590E+005
            4439    1.39756E+007    1.39136E+007    1.39136E+007   -2.22737E+003   -1.21066E+005    1.40347E+007   -4.59677E+006    1.39745E+007   -2.78950E+004    1.39125E+007   -9.43519E+004    2.61458E+004    4.87165E+004   -1.18273E+005
            4440    1.39071E+007    1.39902E+007    1.39902E+007    2.34967E+005   -6.40394E+004    1.40542E+007   -4.72037E+006    1.38999E+007    2.24680E+005    1.39872E+007   -5.08261E+004   -6.45601E+004    5.43710E+004    1.92167E+005
            4441    1.41213E+007    1.40277E+007    1.40277E+007   -1.37324E+004   -1.72144E+005    1.41999E+007   -4.61395E+006    1.41193E+007   -4.34640E+004    1.40090E+007   -1.23644E+005   -4.49838E+004    6.03658E+004    5.13568E+005
            4442    1.26530E+007    1.16218E+007    1.16218E+007   -6.00008E+005   -1.42230E+006    1.30441E+007   -3.19983E+006    1.25927E+007   -1.03109E+006    1.11117E+007   -4.81144E+005   -1.09976E+006   -1.99002E+005   -2.25675E+006
            4443    1.29628E+007    1.28116E+007    1.28116E+007   -1.79222E+004   -2.80572E+005    1.30922E+007   -4.17103E+006    1.29568E+007   -3.77152E+004    1.25365E+007    1.43120E+004    2.79547E+003    6.96697E+004   -1.87626E+006
            4444    1.32344E+007    1.30677E+007    1.30677E+007   -1.09588E+005   -2.23038E+005    1.32908E+007   -4.24503E+006    1.32333E+007   -1.98190E+005    1.28882E+007    4.50972E+004   -1.99530E+004    4.95518E+004   -1.52884E+006
            4445    1.31007E+007    1.32154E+007    1.32154E+007    1.88894E+005    4.18572E+004    1.31736E+007   -4.48207E+006    1.30988E+007    1.50245E+005    1.31079E+007    1.88068E+005    1.47127E+005    5.25255E+004   -1.17517E+006
            4446    1.31648E+007    1.31916E+007    1.31916E+007    1.19213E+005   -6.35839E+004    1.32552E+007   -4.41575E+006    1.31619E+007   -5.84438E+004    1.31409E+007    1.64812E+005    7.94624E+004    2.40001E+004   -8.09315E+005
            4447    1.30284E+007    1.32048E+007    1.32048E+007    2.09052E+005    1.43906E+005    1.30609E+007   -4.51925E+006    1.30281E+007    1.50949E+005    1.31885E+007    2.18259E+005    6.50918E+004    1.75543E+004   -4.54863E+005
            4448    1.31237E+007    1.31948E+007    1.31948E+007    1.77974E+005   -3.33820E+004    1.32281E+007   -4.44645E+006    1.31199E+007   -3.29716E+004    1.31941E+007    1.78232E+005    2.06847E+004    8.78898E+003   -9.10502E+004
            4449    1.30891E+007    1.32624E+007    1.32624E+007    1.95274E+005    1.51482E+005    1.31110E+007   -4.53640E+006    1.30890E+007    1.55668E+005    1.32568E+007    1.96717E+005   -5.39127E+004    1.14743E+004    2.65864E+005
            4450    1.32985E+007    1.33219E+007    1.33219E+007    1.03989E+005   -5.57098E+004    1.33776E+007   -4.45672E+006    1.32963E+007   -5.38861E+004    1.32920E+007    1.32055E+005   -4.87649E+004    1.38571E+004    6.26063E+005
            4451    1.21022E+007    1.07484E+007    1.07484E+007   -6.98937E+005   -1.91661E+006    1.26650E+007   -2.71095E+006    1.19632E+007   -1.47840E+006    1.01863E+007   -5.75064E+005   -1.27317E+006   -2.96400E+005   -2.23550E+006
            4452    1.20411E+007    1.17811E+007    1.17811E+007   -1.99214E+005   -3.19769E+005    1.21009E+007   -3.75405E+006    1.20397E+007   -1.97113E+005    1.14644E+007   -5.11199E+003   -2.25307E+005    2.05215E+004   -1.91884E+006
            4453    1.22269E+007    1.21096E+007    1.21096E+007    8.69621E+003   -2.39511E+005    1.23492E+007   -3.95961E+006    1.22213E+007   -2.29553E+005    1.18988E+007    2.09616E+005   -1.12692E+005    6.12538E+004   -1.57967E+006
            4454    1.21142E+007    1.23139E+007    1.23139E+007    3.35362E+005    6.83614E+004    1.22455E+007   -4.23920E+006    1.21076E+007    1.16388E+005    1.21949E+007    4.06340E+005    5.69172E+004    9.72241E+004   -1.18949E+006
            4455    1.21910E+007    1.23689E+007    1.23689E+007    4.08015E+005   -3.98681E+004    1.24087E+007   -4.24568E+006    1.21724E+007   -2.12795E+004    1.23129E+007    4.45360E+005    3.94277E+004    8.66338E+004   -8.15995E+005
            4456    1.20861E+007    1.24007E+007    1.24007E+007    5.13484E+005    1.25036E+005    1.22757E+007   -4.34640E+006    1.20721E+007    1.44033E+005    1.23847E+007    5.10503E+005    3.79644E+004    8.22347E+004   -4.35036E+005
            4457    1.21865E+007    1.24196E+007    1.24196E+007    4.87587E+005   -6.30470E+003    1.24259E+007   -4.30030E+006    1.21639E+007    4.42925E+003    1.24193E+007    4.77163E+005    6.16753E+003    7.19759E+004   -6.06509E+004
            4458    1.21399E+007    1.24610E+007    1.24610E+007    5.19325E+005    1.32157E+005    1.23288E+007   -4.37083E+006    1.21260E+007    1.50740E+005    1.24527E+007    5.09036E+005   -4.34790E+004    8.13597E+004    3.12197E+005
            4459    1.23157E+007    1.24932E+007    1.24932E+007    4.04317E+005   -3.75007E+004    1.25307E+007   -4.28666E+006    1.22978E+007   -1.93447E+004    1.24511E+007    4.28231E+005   -4.02402E+004    8.52544E+004    7.11597E+005
            4460    1.22584E+007    1.00132E+007    1.00132E+007   -9.18199E+005   -3.24017E+006    1.32533E+007   -1.95160E+006    1.17483E+007   -2.63487E+006    9.43646E+006   -9.46797E+005   -1.51407E+006   -6.46791E+005   -2.15616E+006
            4461    1.15159E+007    1.06205E+007    1.06205E+007   -2.50654E+005   -1.44674E+006    1.20672E+007   -2.97437E+006    1.13749E+007   -1.00496E+006    1.02159E+007   -2.87787E+005   -7.41426E+005   -4.40147E+005   -2.00093E+006
            4462    1.14690E+007    1.10522E+007    1.10522E+007   -2.32585E+004   -7.73572E+005    1.18258E+007   -3.41846E+006    1.14136E+007   -5.63006E+005    1.07975E+007    2.08459E+004   -4.12931E+005   -2.73651E+005   -1.63634E+006
            4463    1.12942E+007    1.12956E+007    1.12956E+007    2.70170E+005   -2.49516E+005    1.15451E+007   -3.77208E+006    1.12673E+007   -1.33675E+005    1.11482E+007    3.01700E+005   -1.77479E+005   -1.95926E+005   -1.26376E+006
            4464    1.12519E+007    1.13810E+007    1.13810E+007    3.96534E+005   -1.20522E+005    1.15015E+007   -3.88565E+006    1.12251E+007   -7.44202E+004    1.13168E+007    4.14547E+005   -7.69360E+004   -1.41363E+005   -8.36012E+005
            4465    1.12030E+007    1.14705E+007    1.14705E+007    5.02621E+005    4.63081E+004    1.14242E+007   -4.00648E+006    1.11821E+007    7.88396E+004    1.14543E+007    4.86298E+005   -2.22200E+004   -1.16602E+005   -4.21579E+005
            4466    1.12559E+007    1.15106E+007    1.15106E+007    5.17420E+005    9.14136E+003    1.15014E+007   -4.01238E+006    1.12300E+007    2.99965E+004    1.15106E+007    4.96586E+005    3.78675E+003   -1.00825E+005   -1.48262E+004
            4467    1.12322E+007    1.15179E+007    1.15179E+007    5.06034E+005    7.74705E+004    1.14404E+007   -4.03379E+006    1.12138E+007    1.05010E+005    1.15051E+007    4.91253E+005    1.16379E+004   -1.04745E+005    3.74990E+005
            4468    1.13032E+007    1.14825E+007    1.14825E+007    4.31195E+005   -5.68184E+004    1.15393E+007   -3.95228E+006    1.12794E+007   -2.29729E+004    1.14242E+007    4.55608E+005    6.88326E+004   -1.18785E+005    7.99338E+005
            4469    1.08332E+007    1.01921E+007    1.01921E+007    4.33622E+005   -1.46482E+006    1.16569E+007   -3.05363E+006    1.04490E+007   -1.32045E+006    1.01262E+007    3.55092E+005    3.67237E+005   -4.61440E+005    7.43695E+005
            4470    1.07671E+007    1.02958E+007    1.02958E+007    5.04188E+005   -1.23515E+006    1.15309E+007   -3.18827E+006    1.04440E+007   -1.11135E+006    1.02805E+007    3.95659E+005    1.93649E+005   -4.36004E+005    3.51549E+005
            4471    1.07670E+007    1.03365E+007    1.03365E+007    4.81820E+005   -1.15521E+006    1.14917E+007   -3.22105E+006    1.04815E+007   -1.04326E+006    1.03365E+007    3.69878E+005   -1.62896E+003   -4.13192E+005   -6.99240E+003
            4472    1.07718E+007    1.02881E+007    1.02881E+007    4.97250E+005   -1.25085E+006    1.15389E+007   -3.17815E+006    1.04455E+007   -1.12584E+006    1.02730E+007    3.87353E+005   -1.95526E+005   -4.39138E+005   -3.48459E+005
            4473    1.08373E+007    1.01662E+007    1.01662E+007    4.21869E+005   -1.50548E+006    1.16717E+007   -3.02753E+006    1.04412E+007   -1.35483E+006    1.00970E+007    3.40389E+005   -3.86135E+005   -4.72287E+005   -7.58404E+005
            4474    1.10104E+007    1.00139E+007    1.00139E+007    2.03960E+005   -1.89487E+006    1.19088E+007   -2.77433E+006    1.05462E+007   -1.70162E+006    9.85075E+006    1.73850E+005   -6.03221E+005   -5.03176E+005   -1.16471E+006
            4475    1.14684E+007    9.97335E+006    9.97335E+006   -1.69605E+005   -2.47141E+006    1.24448E+007   -2.44411E+006    1.09304E+007   -2.22445E+006    9.66918E+006   -1.12393E+005   -9.23608E+005   -4.97415E+005   -1.57314E+006
            4476    1.21722E+007    9.84235E+006    9.84235E+006   -7.60916E+005   -3.44926E+006    1.32916E+007   -1.87739E+006    1.14753E+007   -3.07119E+006    9.42890E+006   -7.25540E+005   -1.35012E+006   -5.82591E+005   -1.75515E+006
            4477    1.24654E+007    9.26196E+006    9.26196E+006   -1.24390E+006   -4.51189E+006    1.37739E+007   -1.16872E+006    1.14406E+007   -4.14378E+006    8.83133E+006   -1.18138E+006   -1.62671E+006   -5.31420E+005   -1.62361E+006
            4478    1.87455E+007    1.29699E+007    1.29699E+007   -1.56320E+006   -8.18847E+006    2.11584E+007   -1.07276E+006    1.57687E+007   -7.51064E+006    1.22773E+007   -1.54839E+006   -3.72288E+006    2.27240E+004   -4.76582E+005
            4479    1.79748E+007    1.24964E+007    1.24964E+007   -1.62925E+006   -7.73623E+006    2.02326E+007   -1.04364E+006    1.53664E+007   -7.09165E+006    1.17378E+007   -1.51527E+006   -3.52425E+006    3.38597E+004   -1.31457E+006
            4480    1.67186E+007    1.17687E+007    1.17687E+007   -1.66966E+006   -6.95339E+006    1.87221E+007   -1.04854E+006    1.46556E+007   -6.36859E+006    1.09493E+007   -1.43513E+006   -3.17741E+006   -2.70714E+003   -1.86284E+006
            4481    1.53900E+007    1.10158E+007    1.10158E+007   -1.64613E+006   -6.11371E+006    1.71295E+007   -1.08532E+006    1.38141E+007   -5.59593E+006    1.01894E+007   -1.33750E+006   -2.77242E+006   -9.32582E+004   -2.13517E+006
            4482    1.41748E+007    1.02937E+007    1.02937E+007   -1.55373E+006   -5.41025E+006    1.57040E+007   -1.10991E+006    1.29131E+007   -4.95688E+006    9.52557E+006   -1.23895E+006   -2.37100E+006   -1.99083E+005   -2.17728E+006
            4483    1.33619E+007    9.70351E+006    9.70351E+006   -1.48525E+006   -5.09140E+006    1.47949E+007   -1.04229E+006    1.21930E+007   -4.66746E+006    9.03430E+006   -1.23998E+006   -2.04589E+006   -3.70419E+005   -2.08559E+006
            4484    1.27785E+007    9.20134E+006    9.20134E+006   -1.28500E+006   -5.03174E+006    1.42331E+007   -9.61532E+005    1.14413E+007   -4.66527E+006    8.67227E+006   -1.12240E+006   -1.79627E+006   -4.56660E+005   -1.80711E+006
            4485    1.87654E+007    2.03276E+007    2.03276E+007    1.77594E+006    1.35555E+006    1.89720E+007   -7.81969E+006    1.87548E+007    1.82472E+006    2.02670E+007    1.36738E+006   -1.01022E+006   -3.38947E+004   -3.23194E+005
            4486    1.88128E+007    1.83065E+007    1.83065E+007   -2.54332E+004   -9.52820E+005    1.92593E+007   -5.77608E+006    1.87612E+007   -9.52533E+005    1.83029E+007   -2.21464E+004    5.33572E+004   -1.20420E+004   -2.50545E+005
            4487    1.71377E+007    1.74799E+007    1.74799E+007    6.88408E+005    1.58586E+004    1.74641E+007   -6.06139E+006    1.71080E+007    6.93171E+005    1.74724E+007    1.85868E+004   -2.95539E+005   -1.36937E+004   -2.00124E+005
            4488    1.71096E+007    1.67256E+007    1.67256E+007   -3.56316E+005   -4.11719E+005    1.71373E+007   -5.31917E+006    1.71094E+007   -4.10498E+005    1.67245E+007   -3.56519E+005   -1.48510E+004   -7.97823E+003   -1.31034E+005
            4489    1.82517E+007    1.97781E+007    1.97781E+007    1.72529E+006    1.33389E+006    1.84442E+007   -7.61244E+006    1.82422E+007    1.70903E+006    1.96866E+007    1.44170E+006   -9.31691E+005   -9.90667E+004   -8.98325E+005
            4490    1.84159E+007    1.80022E+007    1.80022E+007    9.45178E+004   -8.82881E+005    1.88851E+007   -5.73796E+006    1.83574E+007   -8.81933E+005    1.79722E+007    1.23601E+005    2.27638E+004   -3.08913E+004   -7.32372E+005
            4491    1.68639E+007    1.72297E+007    1.72297E+007    6.26884E+005    1.16299E+005    1.71134E+007   -5.99096E+006    1.68465E+007    6.27448E+005    1.72069E+007    1.38496E+005   -2.78147E+005   -3.62674E+004   -5.56817E+005
            4492    1.68053E+007    1.65014E+007    1.65014E+007   -2.25052E+005   -3.81534E+005    1.68829E+007   -5.29828E+006    1.68036E+007   -3.80494E+005    1.64916E+007   -2.16273E+005   -2.87219E+004   -1.17321E+004   -4.04184E+005
            4493    1.73363E+007    1.87770E+007    1.87770E+007    1.64715E+006    1.24130E+006    1.75357E+007   -7.22182E+006    1.73256E+007    1.48489E+006    1.86386E+007    1.54195E+006   -7.96329E+005   -1.42070E+005   -1.33056E+006
            4494    1.76622E+007    1.74425E+007    1.74425E+007    3.30705E+005   -7.22847E+005    1.81654E+007   -5.68346E+006    1.75913E+007   -7.18863E+005    1.73701E+007    3.99134E+005   -2.82983E+004   -6.26907E+004   -1.11068E+006
            4495    1.62888E+007    1.67242E+007    1.67242E+007    5.70693E+005    3.03475E+005    1.64207E+007   -5.86613E+006    1.62838E+007    5.49728E+005    1.66738E+007    3.74893E+005   -2.57585E+005   -6.41286E+004   -8.71546E+005
            4496    1.62393E+007    1.61081E+007    1.61081E+007    2.76971E+004   -2.85652E+005    1.63937E+007   -5.28338E+006    1.62325E+007   -2.81812E+005    1.60855E+007    4.64392E+004   -4.71623E+004   -3.21624E+004   -6.00538E+005
            4497    1.62220E+007    1.75513E+007    1.75513E+007    1.64490E+006    1.03118E+006    1.65201E+007   -6.74245E+006    1.61958E+007    1.18966E+006    1.73738E+007    1.66390E+006   -6.02548E+005   -1.97676E+005   -1.57793E+006
            4498    1.65852E+007    1.65709E+007    1.65709E+007    6.69711E+005   -6.22563E+005    1.71935E+007   -5.53936E+006    1.64713E+007   -6.16713E+005    1.64548E+007    7.80025E+005   -8.49177E+004   -7.71372E+004   -1.35230E+006
            4499    1.55514E+007    1.60720E+007    1.60720E+007    6.68048E+005    3.77123E+005    1.56949E+007   -5.70572E+006    1.55453E+007    4.14424E+005    1.59981E+007    7.04582E+005   -2.29246E+005   -7.82779E+004   -1.04185E+006
            4500    1.54978E+007    1.55224E+007    1.55224E+007    3.45660E+005   -2.77533E+005    1.57999E+007   -5.19685E+006    1.54695E+007   -2.75096E+005    1.54818E+007    3.83866E+005   -6.95318E+004   -3.29685E+004   -7.81571E+005
            4501    1.48188E+007    1.61399E+007    1.61399E+007    1.82702E+006    8.62178E+005    1.52777E+007   -6.27636E+006    1.47479E+007    9.92427E+005    1.59413E+007    1.89530E+006   -4.90654E+005   -2.60543E+005   -1.62113E+006
            4502    1.54745E+007    1.57505E+007    1.57505E+007    1.08120E+006   -4.19779E+005    1.61703E+007   -5.47065E+006    1.53095E+007   -4.10718E+005    1.56198E+007    1.20291E+006   -1.28005E+005   -9.90219E+004   -1.37470E+006
            4503    1.46165E+007    1.52898E+007    1.52898E+007    1.00789E+006    3.60146E+005    1.49296E+007   -5.55260E+006    1.45842E+007    3.93222E+005    1.51947E+007    1.06984E+006   -2.14311E+005   -1.19936E+005   -1.14515E+006
            4504    1.45845E+007    1.48864E+007    1.48864E+007    7.54530E+005   -1.12040E+005    1.49984E+007   -5.17629E+006    1.45264E+007   -1.06129E+005    1.48353E+007    7.99695E+005   -8.64111E+004   -6.34940E+004   -8.44442E+005
            4505    1.38945E+007    1.52013E+007    1.52013E+007    2.05734E+006    6.61703E+005    1.45396E+007   -5.97345E+006    1.37354E+007    7.19568E+005    1.50333E+007    2.16745E+006   -2.98945E+005   -2.34535E+005   -1.45687E+006
            4506    1.43996E+007    1.47793E+007    1.47793E+007    1.44134E+006   -4.87531E+005    1.52668E+007   -5.24437E+006    1.41046E+007   -4.81520E+005    1.46448E+007    1.56988E+006   -1.26484E+005   -8.69423E+004   -1.32868E+006
            4507    1.38428E+007    1.45374E+007    1.45374E+007    1.33509E+006    1.32547E+005    1.44049E+007   -5.33501E+006    1.37246E+007    1.42314E+005    1.44429E+007    1.41986E+006   -1.72414E+005   -8.28763E+004   -1.10233E+006
            4508    1.37251E+007    1.41201E+007    1.41201E+007    1.13255E+006   -2.39513E+005    1.43596E+007   -5.00438E+006    1.35695E+007   -2.37516E+005    1.40548E+007    1.19590E+006   -8.22443E+004   -4.05327E+004   -9.15942E+005
            4509    1.28295E+007    1.42039E+007    1.42039E+007    2.23522E+006    6.59251E+005    1.35447E+007   -5.69947E+006    1.26090E+007    6.98374E+005    1.40783E+007    2.32175E+006   -2.56495E+005   -2.07697E+005   -1.20177E+006
            4510    1.36756E+007    1.44060E+007    1.44060E+007    1.67105E+006   -4.78003E+004    1.44538E+007   -5.34308E+006    1.34294E+007   -3.85460E+004    1.42831E+007    1.78465E+006   -9.26998E+004   -1.14133E+005   -1.24292E+006
            4511    1.28618E+007    1.38404E+007    1.38404E+007    1.71135E+006    3.53714E+005    1.34867E+007   -5.30184E+006    1.26991E+007    3.88791E+005    1.37117E+007    1.80500E+006   -1.17658E+005   -2.02317E+005   -1.24129E+006
            4512    1.24695E+007    1.33244E+007    1.33244E+007    1.69756E+006    1.55658E+005    1.31687E+007   -5.05920E+006    1.22522E+007    1.76103E+005    1.32477E+007    1.75378E+006   -7.82816E+004   -1.69245E+005   -9.39882E+005
            4513    1.16485E+007    1.20126E+007    1.20126E+007    2.07137E+006   -8.04432E+005    1.28170E+007   -4.42650E+006    1.08056E+007   -7.83153E+005    1.19298E+007    2.13280E+006    2.06903E+005    2.12529E+005   -8.88805E+005
            4514    1.21238E+007    1.22531E+007    1.22531E+007    1.88762E+006   -1.07844E+006    1.33316E+007   -4.35411E+006    1.12632E+007   -1.03850E+006    1.20741E+007    2.02672E+006    3.42675E+005    2.69035E+005   -1.32589E+006
            4515    1.29911E+007    1.29183E+007    1.29183E+007    1.79076E+006   -1.35756E+006    1.42759E+007   -4.45051E+006    1.20872E+007   -1.30579E+006    1.26197E+007    2.03765E+006    6.37786E+005    1.89958E+005   -1.72250E+006
            4516    1.48086E+007    1.40681E+007    1.40681E+007    1.71414E+006   -2.34752E+006    1.64156E+007   -4.47824E+006    1.34674E+007   -2.19962E+006    1.37841E+007    1.85028E+006    1.15660E+006    3.97752E+005   -1.59790E+006
            4517    2.19399E+007    2.03888E+007    2.03888E+007    1.64009E+006   -3.74098E+006    2.41298E+007   -6.09598E+006    2.03743E+007   -3.64504E+006    2.02871E+007    1.64589E+006    1.51757E+006    1.09968E+003   -3.33062E+005
            4518    2.10426E+007    1.95777E+007    1.95777E+007    1.58466E+006   -3.56015E+006    2.31378E+007   -5.86740E+006    1.95509E+007   -3.46715E+006    1.94381E+007    1.63130E+006    1.45315E+006    1.91491E+004   -9.29411E+005
            4519    1.96392E+007    1.82891E+007    1.82891E+007    1.50327E+006   -3.30882E+006    2.15980E+007   -5.49453E+006    1.82406E+007   -3.22001E+006    1.80996E+007    1.60397E+006    1.34882E+006    5.24388E+004   -1.32639E+006
            4520    1.79579E+007    1.67715E+007    1.67715E+007    1.40167E+006   -2.96792E+006    1.97395E+007   -5.06843E+006    1.66978E+007   -2.88435E+006    1.65497E+007    1.53994E+006    1.18799E+006    1.29811E+005   -1.51953E+006
            4521    1.64711E+007    1.53396E+007    1.53396E+007    1.30251E+006   -2.79277E+006    1.81324E+007   -4.61644E+006    1.52613E+007   -2.70741E+006    1.51036E+007    1.45314E+006    1.05193E+006    2.18631E+005   -1.57004E+006
            4522    1.52508E+007    1.40138E+007    1.40138E+007    1.32326E+006   -2.90487E+006    1.69187E+007   -4.14408E+006    1.38372E+007   -2.80178E+006    1.38238E+007    1.41020E+006    9.00650E+005    4.06035E+005   -1.35804E+006
            4523    1.53555E+007    1.38761E+007    1.38761E+007    1.41436E+006   -3.27817E+006    1.71542E+007   -4.00408E+006    1.35963E+007   -3.10072E+006    1.37001E+007    1.41284E+006    1.09269E+006    6.26228E+005   -1.18646E+006
            4524    1.15029E+007    1.19249E+007    1.19249E+007    2.00959E+006   -6.86767E+005    1.26116E+007   -4.41589E+006    1.07569E+007   -6.67928E+005    1.18973E+007    2.01832E+006    1.33839E+005    2.10775E+005   -5.11167E+005
            4525    1.14586E+007    1.19288E+007    1.19288E+007    1.90956E+006   -5.64878E+005    1.24937E+007   -4.42449E+006    1.08328E+007   -5.52684E+005    1.19238E+007    1.90235E+006    7.44588E+004    1.68857E+005   -2.14345E+005
            4526    1.14765E+007    1.19383E+007    1.19383E+007    1.80786E+006   -5.25638E+005    1.24640E+007   -4.40685E+006    1.09235E+007   -5.14212E+005    1.19383E+007    1.79644E+006    4.52005E+003    1.62875E+005   -3.15807E+003
            4527    1.14576E+007    1.19194E+007    1.19194E+007    1.89645E+006   -5.70786E+005    1.24902E+007   -4.41504E+006    1.08355E+007   -5.57858E+005    1.19147E+007    1.88828E+006   -6.40630E+004    1.74808E+005    2.11643E+005
            4528    1.15045E+007    1.19186E+007    1.19186E+007    2.00426E+006   -6.95804E+005    1.26144E+007   -4.40902E+006    1.07564E+007   -6.77056E+005    1.18912E+007    2.01293E+006   -1.33034E+005    2.10520E+005    5.09791E+005
            4529    1.16832E+007    1.19907E+007    1.19907E+007    2.02957E+006   -8.68898E+005    1.28596E+007   -4.38378E+006    1.08290E+007   -8.41348E+005    1.19106E+007    2.08204E+006   -2.11126E+005    2.49301E+005    8.74803E+005
            4530    1.22007E+007    1.22952E+007    1.22952E+007    1.88985E+006   -1.13274E+006    1.34279E+007   -4.35076E+006    1.13114E+007   -1.09096E+006    1.21361E+007    2.00718E+006   -3.76863E+005    2.71216E+005    1.24333E+006
            4531    1.29786E+007    1.27056E+007    1.27056E+007    1.82640E+006   -1.66016E+006    1.43657E+007   -4.29060E+006    1.18544E+007   -1.58373E+006    1.25217E+007    1.93382E+006   -6.24226E+005    3.54454E+005    1.31364E+006
            4532    1.37325E+007    1.25159E+007    1.25159E+007    1.78975E+006   -2.96131E+006    1.54772E+007   -3.78144E+006    1.16558E+007   -2.80220E+006    1.23327E+007    1.81382E+006   -8.87784E+005    6.38369E+005    1.22286E+006
            4533    1.21075E+007    1.30582E+007    1.30582E+007    1.73717E+006    2.93703E+005    1.27645E+007   -5.02969E+006    1.19116E+007    3.16709E+005    1.30297E+007    1.74265E+006   -7.43524E+004   -1.75984E+005   -5.64300E+005
            4534    1.32330E+007    1.37933E+007    1.37933E+007    1.16973E+006    2.52378E+004    1.37681E+007   -4.99609E+006    1.31210E+007    2.70562E+004    1.37656E+007    1.19566E+006   -6.72254E+004   -3.84256E+004   -5.87954E+005
            4535    1.40942E+007    1.45840E+007    1.45840E+007    7.64397E+005    2.30272E+005    1.43537E+007   -5.19288E+006    1.40714E+007    2.40898E+005    1.45615E+007    7.76263E+005   -8.21914E+004   -6.98355E+004   -5.51816E+005
            4536    1.49188E+007    1.52143E+007    1.52143E+007    4.01137E+005    1.92112E+005    1.50222E+007   -5.26918E+006    1.49155E+007    1.98644E+005    1.52001E+007    4.08824E+005   -8.13835E+004   -3.27228E+004   -4.51827E+005
            4537    1.55725E+007    1.57654E+007    1.57654E+007    3.09396E+005    7.90679E+004    1.56864E+007   -5.38463E+006    1.55686E+007    3.04529E+005    1.57567E+007    9.27066E+004   -8.79798E+004   -3.27112E+004   -3.60213E+005
            4538    1.60675E+007    1.61616E+007    1.61616E+007    3.28715E+005   -1.30713E+005    1.62923E+007   -5.45319E+006    1.60527E+007    3.28561E+005    1.61583E+007   -1.27321E+005   -9.08992E+004   -1.63951E+004   -2.10465E+005
            4539    1.63138E+007    1.63678E+007    1.63678E+007    3.70579E+005   -2.45127E+005    1.66129E+007   -5.49774E+006    1.62876E+007    3.71026E+005    1.63668E+007   -2.44592E+005   -9.45316E+004   -7.79493E+003   -8.39527E+004
            4540    1.20917E+007    1.29252E+007    1.29252E+007    1.64007E+006    1.62744E+005    1.27625E+007   -4.90934E+006    1.18861E+007    1.78335E+005    1.29192E+007    1.63045E+006   -3.49138E+004   -1.49833E+005   -2.57787E+005
            4541    1.31869E+007    1.36193E+007    1.36193E+007    1.12216E+006   -1.63248E+005    1.37826E+007   -4.85941E+006    1.30449E+007   -1.62590E+005    1.36134E+007    1.12740E+006   -2.10510E+004   -2.79534E+004   -2.70740E+005
            4542    1.40670E+007    1.43797E+007    1.43797E+007    7.01005E+005   -4.59774E+004    1.44257E+007   -5.01157E+006    1.40223E+007   -4.27072E+004    1.43758E+007    7.01658E+005   -1.88704E+004   -4.88346E+004   -2.30957E+005
            4543    1.49731E+007    1.50259E+007    1.50259E+007    2.93775E+005   -1.76982E+005    1.52029E+007   -5.04757E+006    1.49564E+007   -1.76388E+005    1.50237E+007    2.95427E+005   -1.12649E+004   -1.64712E+004   -1.81595E+005
            4544    1.56797E+007    1.55809E+007    1.55809E+007   -2.09863E+004   -1.75323E+005    1.57563E+007   -5.12821E+006    1.56780E+007   -1.72582E+005    1.55802E+007   -2.29632E+004   -1.99722E+003   -2.03679E+004   -1.09133E+005
            4545    1.62279E+007    1.59723E+007    1.59723E+007   -2.41142E+005   -2.70004E+005    1.62423E+007   -5.15372E+006    1.62278E+007   -2.41911E+005    1.59720E+007   -2.68889E+005    3.50220E+003   -4.66572E+003   -7.49398E+004
            4546    1.65070E+007    1.61820E+007    1.61820E+007   -2.55954E+005   -3.93224E+005    1.65752E+007   -5.17760E+006    1.65057E+007   -2.56187E+005    1.61820E+007   -3.92973E+005    8.12720E+003   -5.69894E+003   -1.56610E+004
            4547    1.20072E+007    1.28926E+007    1.28926E+007    1.64774E+006    2.46185E+005    1.26465E+007   -4.92885E+006    1.18210E+007    2.61909E+005    1.28926E+007    1.63205E+006   -3.62036E+003   -1.47620E+005    1.81152E+004
            4548    1.30090E+007    1.35572E+007    1.35572E+007    1.15872E+006    1.33689E+004    1.35438E+007   -4.90977E+006    1.28949E+007    1.43041E+004    1.35570E+007    1.15804E+006    5.64546E+003   -3.26510E+004    5.59463E+004
            4549    1.38705E+007    1.43338E+007    1.43338E+007    7.59561E+005    1.84774E+005    1.41490E+007   -5.09270E+006    1.38437E+007    1.90436E+005    1.43331E+007    7.54597E+005    5.42896E+003   -5.67190E+004    9.72124E+004
            4550    1.47370E+007    1.49942E+007    1.49942E+007    3.75779E+005    1.41475E+005    1.48527E+007   -5.17049E+006    1.47328E+007    1.44497E+005    1.49930E+007    3.74002E+005    1.14523E+004   -2.62959E+004    1.34424E+005
            4551    1.54430E+007    1.55859E+007    1.55859E+007    2.35422E+005    5.21155E+004    1.55338E+007   -5.29116E+006    1.54405E+007    2.30971E+005    1.55849E+007    5.75839E+004    1.16003E+004   -2.81496E+004    1.25151E+005
            4552    1.59617E+007    1.59952E+007    1.59952E+007    2.41387E+005   -1.66624E+005    1.61618E+007   -5.35666E+006    1.59500E+007    2.40975E+005    1.59946E+007   -1.65559E+005    1.36442E+004   -1.30554E+004    1.01838E+005
            4553    1.62302E+007    1.62183E+007    1.62183E+007    2.75852E+005   -2.85031E+005    1.65033E+007   -5.40304E+006    1.62083E+007    2.75760E+005    1.62182E+007   -2.84879E+005    1.38958E+004   -7.60800E+003    2.80842E+004
            4554    1.20656E+007    1.29068E+007    1.29068E+007    1.65864E+006    1.63082E+005    1.27437E+007   -4.90949E+006    1.18544E+007    1.78823E+005    1.28992E+007    1.65042E+006    3.31779E+004   -1.51494E+005    2.89742E+005
            4555    1.31519E+007    1.36060E+007    1.36060E+007    1.15794E+006   -1.51886E+005    1.37578E+007   -4.87067E+006    1.30040E+007   -1.50957E+005    1.35948E+007    1.16818E+006    3.89031E+004   -3.17037E+004    3.70921E+005
            4556    1.40644E+007    1.43999E+007    1.43999E+007    7.38849E+005   -3.59237E+004    1.44358E+007   -5.03426E+006    1.40163E+007   -3.15951E+004    1.43867E+007    7.47644E+005    4.58737E+004   -5.54584E+004    4.21095E+005
            4557    1.50210E+007    1.51022E+007    1.51022E+007    3.34448E+005   -1.59968E+005    1.52621E+007   -5.09221E+006    1.50027E+007   -1.58657E+005    1.50903E+007    3.45024E+005    4.78257E+004   -2.26416E+004    4.16269E+005
            4558    1.57931E+007    1.57185E+007    1.57185E+007    8.71798E+003   -1.56733E+005    1.58752E+007   -5.19016E+006    1.57912E+007   -1.52346E+005    1.57097E+007    1.31252E+004    4.78488E+004   -2.50465E+004    3.68646E+005
            4559    1.63955E+007    1.61639E+007    1.61639E+007   -2.16319E+005   -2.46742E+005    1.64107E+007   -5.23362E+006    1.63954E+007   -2.18868E+005    1.61602E+007   -2.40479E+005    4.59640E+004   -7.94107E+003    2.42486E+005
            4560    1.67004E+007    1.64000E+007    1.64000E+007   -2.30758E+005   -3.69282E+005    1.67693E+007   -5.26665E+006    1.66992E+007   -2.30859E+005    1.63994E+007   -3.68592E+005    4.53952E+004   -5.33858E+003    8.82329E+004
            4561    1.20663E+007    1.30109E+007    1.30109E+007    1.75839E+006    2.69064E+005    1.27418E+007   -5.01277E+006    1.18568E+007    2.88709E+005    1.29784E+007    1.77126E+006    6.19451E+004   -1.65897E+005    6.02416E+005
            4562    1.31973E+007    1.37725E+007    1.37725E+007    1.22641E+006    8.54083E+003    1.37640E+007   -5.00249E+006    1.30699E+007    1.11034E+004    1.37336E+007    1.26279E+006    7.72043E+004   -4.70317E+004    6.94309E+005
            4563    1.41036E+007    1.46158E+007    1.46158E+007    8.40277E+005    2.05643E+005    1.44102E+007   -5.22059E+006    1.40714E+007    2.16240E+005    1.45764E+007    8.69123E+005    9.33434E+004   -7.43531E+004    7.31150E+005
            4564    1.50464E+007    1.53560E+007    1.53560E+007    4.58895E+005    1.64614E+005    1.51914E+007   -5.32651E+006    1.50400E+007    1.73802E+005    1.53204E+007    4.85331E+005    1.03870E+005   -4.43325E+004    7.20844E+005
            4565    1.58394E+007    1.60423E+007    1.60423E+007    2.87870E+005    1.19309E+005    1.59230E+007   -5.48316E+006    1.58374E+007    2.74454E+005    1.60187E+007    1.56331E+005    1.08030E+005   -4.26522E+004    6.02996E+005
            4566    1.64202E+007    1.65199E+007    1.65199E+007    2.94302E+005   -8.83409E+004    1.66082E+007   -5.57528E+006    1.64102E+007    2.93488E+005    1.65092E+007   -7.68170E+004    1.16601E+005   -2.21850E+004    4.04940E+005
            4567    1.67264E+007    1.67858E+007    1.67858E+007    3.33879E+005   -2.02200E+005    1.69880E+007   -5.63916E+006    1.67071E+007    3.34430E+005    1.67839E+007   -2.00791E+005    1.19456E+005   -1.20333E+004    1.36292E+005
            4568    1.23904E+007    1.32691E+007    1.32691E+007    1.74687E+006    1.62987E+005    1.31062E+007   -5.05967E+006    1.21595E+007    1.84698E+005    1.31917E+007    1.80256E+006    6.93593E+004   -1.78136E+005    9.40706E+005
            4569    1.35775E+007    1.40452E+007    1.40452E+007    1.25920E+006   -2.05165E+005    1.42504E+007   -5.03308E+006    1.33981E+007   -2.01852E+005    1.39714E+007    1.32965E+006    1.05517E+005   -5.37711E+004    9.63666E+005
            4570    1.45469E+007    1.49147E+007    1.49147E+007    8.65567E+005   -8.35463E+004    1.49982E+007   -5.23223E+006    1.44770E+007   -7.26978E+004    1.48377E+007    9.31680E+005    1.15110E+005   -8.89976E+004    1.03206E+006
            4571    1.56477E+007    1.57451E+007    1.57451E+007    4.52649E+005   -2.35037E+005    1.59802E+007   -5.32092E+006    1.56136E+007   -2.30118E+005    1.56811E+007    5.11727E+005    1.08571E+005   -4.68438E+004    9.81974E+005
            4572    1.65377E+007    1.64764E+007    1.64764E+007    1.36324E+005   -2.52091E+005    1.67285E+007   -5.45353E+006    1.65274E+007   -2.45503E+005    1.64344E+007    1.71716E+005    1.01917E+005   -4.28051E+004    8.21438E+005
            4573    1.72465E+007    1.70204E+007    1.70204E+007   -1.10949E+005   -3.39015E+005    1.73594E+007   -5.52347E+006    1.72431E+007   -3.36548E+005    1.70027E+007   -9.57373E+004    9.04328E+004   -1.84217E+004    5.42812E+005
            4574    1.76073E+007    1.73094E+007    1.73094E+007   -2.31807E+005   -3.63081E+005    1.76725E+007   -5.57152E+006    1.76062E+007   -3.62259E+005    1.73071E+007   -2.30299E+005    8.55052E+004   -6.42320E+003    1.83396E+005
            4575    1.26502E+007    1.36219E+007    1.36219E+007    1.81134E+006    2.72746E+005    1.33492E+007   -5.23533E+006    1.24371E+007    2.93530E+005    1.35132E+007    1.89922E+006    1.00001E+005   -1.66591E+005    1.12589E+006
            4576    1.36308E+007    1.43454E+007    1.43454E+007    1.45518E+006    7.84580E+004    1.42670E+007   -5.29302E+006    1.34731E+007    9.15250E+004    1.42248E+007    1.56278E+006    1.62213E+005   -1.10068E+005    1.23361E+006
            4577    1.46714E+007    1.53504E+007    1.53504E+007    1.08574E+006    3.03605E+005    1.50468E+007   -5.57991E+006    1.46243E+007    3.30942E+005    1.52291E+007    1.17969E+006    1.98782E+005   -1.19976E+005    1.29820E+006
            4578    1.57237E+007    1.62678E+007    1.62678E+007    7.68525E+005    3.28891E+005    1.59389E+007   -5.78840E+006    1.57099E+007    3.63350E+005    1.61644E+007    8.37410E+005    2.38798E+005   -9.39009E+004    1.24208E+006
            4579    1.66494E+007    1.71341E+007    1.71341E+007    5.84101E+005    3.86989E+005    1.67471E+007   -6.03505E+006    1.66468E+007    5.09068E+005    1.70654E+007    5.30675E+005    2.65198E+005   -8.02703E+004    1.03550E+006
            4580    1.73307E+007    1.77647E+007    1.77647E+007    5.90425E+005    2.81689E+005    1.74830E+007   -6.21226E+006    1.73245E+007    5.83748E+005    1.77324E+007    3.20645E+005    2.97311E+005   -4.73825E+004    6.88801E+005
            4581    1.77219E+007    1.81335E+007    1.81335E+007    6.31238E+005    1.99826E+005    1.79337E+007   -6.32153E+006    1.77101E+007    6.34877E+005    1.81248E+007    2.04923E+005    3.09897E+005   -2.39153E+004    2.41724E+005
            4582    1.29439E+007    1.37692E+007    1.37692E+007    1.88342E+006   -2.16528E+004    1.37909E+007   -5.21034E+006    1.26227E+007   -2.57675E+003    1.36285E+007    2.00511E+006    7.18354E+004   -1.81994E+005    1.28599E+006
            4583    1.42291E+007    1.46469E+007    1.46469E+007    1.49020E+006   -4.54575E+005    1.51015E+007   -5.22751E+006    1.39254E+007   -4.48509E+005    1.44897E+007    1.64134E+006    7.22304E+004   -9.89364E+004    1.42872E+006
            4584    1.53406E+007    1.56950E+007    1.56950E+007    1.18381E+006   -3.58438E+005    1.60535E+007   -5.50680E+006    1.51647E+007   -3.44406E+005    1.55402E+007    1.32459E+006    1.39574E+005   -1.27568E+005    1.48678E+006
            4585    1.66880E+007    1.67730E+007    1.67730E+007    8.37080E+005   -5.77102E+005    1.73501E+007   -5.67766E+006    1.65524E+007   -5.70017E+005    1.66426E+007    9.60454E+005    1.07597E+005   -8.64146E+004    1.43312E+006
            4586    1.78555E+007    1.77727E+007    1.77727E+007    5.77687E+005   -6.77002E+005    1.84497E+007   -5.89114E+006    1.77559E+007   -6.72286E+005    1.76885E+007    6.57182E+005    9.56583E+004   -6.65485E+004    1.19734E+006
            4587    1.88006E+007    1.85440E+007    1.85440E+007    3.77872E+005   -8.32577E+005    1.93766E+007   -6.02977E+006    1.87127E+007   -8.31128E+005    1.85084E+007    4.12065E+005    6.40125E+004   -3.60515E+004    8.01625E+005
            4588    1.93349E+007    1.89959E+007    1.89959E+007    2.95224E+005   -9.16267E+005    1.99122E+007   -6.12496E+006    1.92493E+007   -9.16059E+005    1.89918E+007    2.99144E+005    4.61636E+004   -1.03937E+004    2.74174E+005
            4589    1.27689E+007    1.38153E+007    1.38153E+007    1.98546E+006    2.78923E+005    1.35363E+007   -5.35988E+006    1.25085E+007    2.83199E+005    1.36358E+007    2.16065E+006   -1.43182E+005   -8.42278E+004    1.43919E+006
            4590    1.36869E+007    1.47584E+007    1.47584E+007    1.92167E+006    3.55936E+005    1.44025E+007   -5.67867E+006    1.34832E+007    3.74236E+005    1.45581E+007    2.10363E+006    1.92149E+005   -1.35632E+005    1.58342E+006
            4591    1.48130E+007    1.60878E+007    1.60878E+007    1.80221E+006    7.98512E+005    1.52893E+007   -6.22951E+006    1.47362E+007    8.70931E+005    1.58812E+007    1.93643E+006    3.59004E+005   -2.06483E+005    1.67933E+006
            4592    1.61119E+007    1.74584E+007    1.74584E+007    1.75609E+006    9.65913E+005    1.64925E+007   -6.72680E+006    1.60682E+007    1.07027E+006    1.72738E+007    1.83631E+006    5.46327E+005   -1.92920E+005    1.61844E+006
            4593    1.73533E+007    1.88665E+007    1.88665E+007    1.79027E+006    1.24873E+006    1.76178E+007   -7.30183E+006    1.73343E+007    1.41917E+006    1.87248E+007    1.76156E+006    7.13036E+005   -1.81295E+005    1.39509E+006
            4594    1.83904E+007    2.00196E+007    2.00196E+007    1.79621E+006    1.46662E+006    1.85530E+007   -7.76082E+006    1.83838E+007    1.63906E+006    1.99297E+007    1.71372E+006    8.61270E+005   -1.16867E+005    9.58194E+005
            4595    1.89692E+007    2.07009E+007    2.07009E+007    1.81614E+006    1.64836E+006    1.90526E+007   -8.05514E+006    1.89676E+007    1.83262E+006    2.06461E+007    1.68674E+006    9.55798E+005   -4.81170E+004    3.52440E+005
            4596    2.23660E+007    2.04457E+007    2.04457E+007    1.71201E+006   -4.31670E+006    2.47624E+007   -5.94701E+006    2.04146E+007   -4.19171E+006    2.03150E+007    1.71771E+006   -1.75385E+006    2.03432E+003    3.30661E+005
            4597    2.13265E+007    1.95717E+007    1.95717E+007    1.66037E+006   -4.01984E+006    2.35915E+007   -5.73741E+006    1.95129E+007   -3.90206E+006    1.94083E+007    1.70601E+006   -1.65228E+006    1.95911E+004    9.18854E+005
            4598    1.96972E+007    1.81568E+007    1.81568E+007    1.58749E+006   -3.62136E+006    2.17782E+007   -5.37431E+006    1.80476E+007   -3.51430E+006    1.79510E+007    1.68626E+006   -1.49096E+006    5.44967E+004    1.30782E+006
            4599    1.79219E+007    1.66099E+007    1.66099E+007    1.50777E+006   -3.19430E+006    1.98042E+007   -4.97446E+006    1.64461E+007   -3.09562E+006    1.63649E+007    1.65413E+006   -1.32949E+006    9.42909E+004    1.53057E+006
            4600    1.63075E+007    1.51221E+007    1.51221E+007    1.47390E+006   -2.93723E+006    1.80593E+007   -4.55291E+006    1.48739E+007   -2.84057E+006    1.48602E+007    1.63915E+006   -1.19231E+006    1.66986E+005    1.58082E+006
            4601    1.50858E+007    1.39418E+007    1.39418E+007    1.46347E+006   -2.82346E+006    1.67653E+007   -4.19395E+006    1.36109E+007   -2.71939E+006    1.36762E+007    1.62505E+006   -1.10889E+006    2.52103E+005    1.55372E+006
            4602    1.44282E+007    1.29188E+007    1.29188E+007    1.58661E+006   -3.32367E+006    1.62425E+007   -3.72725E+006    1.23264E+007   -3.17242E+006    1.26780E+007    1.67614E+006   -1.12414E+006    4.96653E+005    1.38440E+006
            4603    1.47919E+007    1.40539E+007    1.40539E+007    1.72575E+006   -2.34787E+006    1.64018E+007   -4.47727E+006    1.34404E+007   -2.19860E+006    1.37736E+007    1.85678E+006    1.15289E+006   -4.06853E+005    1.58429E+006
            4604    1.30246E+007    1.29457E+007    1.29457E+007    1.78677E+006   -1.36587E+006    1.43115E+007   -4.45552E+006    1.21207E+007   -1.31424E+006    1.26469E+007    2.03387E+006    6.39594E+005   -1.88695E+005    1.72485E+006
            4605    1.21383E+007    1.22685E+007    1.22685E+007    1.88107E+006   -1.07477E+006    1.33433E+007   -4.35826E+006    1.12852E+007   -1.03494E+006    1.20869E+007    2.02284E+006    3.43495E+005   -2.67454E+005    1.33687E+006
            4606    1.16588E+007    1.20235E+007    1.20235E+007    2.06775E+006   -8.02359E+005    1.28258E+007   -4.42962E+006    1.08203E+007   -7.80983E+005    1.19393E+007    2.13052E+006    2.05168E+005   -2.13271E+005    8.97626E+005
            4607    1.24907E+007    1.33449E+007    1.33449E+007    1.69054E+006    1.59018E+005    1.31858E+007   -5.06481E+006    1.22768E+007    1.79915E+005    1.32676E+007    1.74691E+006   -7.89874E+004    1.70479E+005    9.44690E+005
            4608    1.37610E+007    1.41535E+007    1.41535E+007    1.11992E+006   -2.34624E+005    1.43882E+007   -5.01294E+006    1.36098E+007   -2.32677E+005    1.40880E+007    1.18356E+006   -8.44170E+004    3.89637E+004    9.18995E+005
            4609    1.46150E+007    1.49133E+007    1.49133E+007    7.42564E+005   -1.08904E+005    1.50222E+007   -5.18231E+006    1.45591E+007   -1.02679E+005    1.48624E+007    7.87171E+005   -8.65626E+004    6.48217E+004    8.43580E+005
            4610    1.55257E+007    1.55454E+007    1.55454E+007    3.33641E+005   -2.76205E+005    1.58216E+007   -5.20096E+006    1.54987E+007   -2.73932E+005    1.55053E+007    3.71504E+005   -6.93586E+004    3.12132E+004    7.77569E+005
            4611    1.62660E+007    1.61255E+007    1.61255E+007    1.66463E+004   -2.93058E+005    1.64186E+007   -5.28304E+006    1.62593E+007   -2.89355E+005    1.61033E+007    3.51615E+004   -4.62827E+004    3.14079E+004    5.96239E+005
            4612    1.68232E+007    1.65133E+007    1.65133E+007   -2.29060E+005   -3.89569E+005    1.69029E+007   -5.29824E+006    1.68215E+007   -3.88389E+005    1.65038E+007   -2.20691E+005   -2.74107E+004    1.28143E+004    3.98830E+005
            4613    1.71099E+007    1.67260E+007    1.67260E+007   -3.55333E+005   -4.12186E+005    1.71382E+007   -5.31950E+006    1.71096E+007   -4.10810E+005    1.67251E+007   -3.55740E+005   -1.49951E+004    8.58463E+003    1.27782E+005
            4614    1.28968E+007    1.38720E+007    1.38720E+007    1.70426E+006    3.52571E+005    1.35194E+007   -5.30961E+006    1.27360E+007    3.87975E+005    1.37433E+007    1.79760E+006   -1.19303E+005    2.02603E+005    1.24332E+006
            4615    1.38801E+007    1.45660E+007    1.45660E+007    1.32689E+006    1.23176E+005    1.44428E+007   -5.33867E+006    1.37620E+007    1.33043E+005    1.44705E+007    1.41243E+006   -1.72882E+005    8.34208E+004    1.10897E+006
            4616    1.46756E+007    1.53373E+007    1.53373E+007    9.90286E+005    3.53841E+005    1.49834E+007   -5.56047E+006    1.46445E+007    3.86785E+005    1.52421E+007    1.05247E+006   -2.14149E+005    1.18457E+005    1.14840E+006
            4617    1.55915E+007    1.61020E+007    1.61020E+007    6.54483E+005    3.70445E+005    1.57316E+007   -5.70898E+006    1.55857E+007    4.08541E+005    1.60290E+007    6.89367E+005   -2.28860E+005    7.80914E+004    1.03716E+006
            4618    1.63082E+007    1.67428E+007    1.67428E+007    5.71845E+005    3.00754E+005    1.64420E+007   -5.87179E+006    1.63031E+007    5.52412E+005    1.66931E+007    3.69884E+005   -2.57172E+005    6.26581E+004    8.65161E+005
            4619    1.68772E+007    1.72405E+007    1.72405E+007    6.25142E+005    1.13130E+005    1.71274E+007   -5.99294E+006    1.68598E+007    6.26158E+005    1.72181E+007    1.34598E+005   -2.78778E+005    3.39217E+004    5.52480E+005
            4620    1.71470E+007    1.74876E+007    1.74876E+007    6.87815E+005    1.32343E+004    1.74743E+007   -6.06288E+006    1.71171E+007    6.92619E+005    1.74803E+007    1.57516E+004   -2.94749E+005    1.23828E+004    1.93964E+005
            4621    1.36703E+007    1.44061E+007    1.44061E+007    1.67881E+006   -4.38700E+004    1.44500E+007   -5.34701E+006    1.34228E+007   -3.41252E+004    1.42843E+007    1.79085E+006   -9.36212E+004    1.17539E+005    1.23711E+006
            4622    1.44266E+007    1.48106E+007    1.48106E+007    1.43961E+006   -4.79518E+005    1.52901E+007   -5.25691E+006    1.41352E+007   -4.73307E+005    1.46749E+007    1.56908E+006   -1.29510E+005    8.78612E+004    1.33570E+006
            4623    1.55193E+007    1.57961E+007    1.57961E+007    1.07397E+006   -4.13179E+005    1.62093E+007   -5.48564E+006    1.53578E+007   -4.03629E+005    1.56638E+007    1.19673E+006   -1.27896E+005    1.01753E+005    1.38531E+006
            4624    1.66376E+007    1.66115E+007    1.66115E+007    6.57226E+005   -6.34081E+005    1.72456E+007   -5.54489E+006    1.65243E+007   -6.28792E+005    1.64957E+007    7.67738E+005   -8.15292E+004    7.32268E+004    1.35260E+006
            4625    1.76788E+007    1.74491E+007    1.74491E+007    3.21640E+005   -7.33754E+005    1.81829E+007   -5.67901E+006    1.76078E+007   -7.29683E+005    1.73775E+007    3.89170E+005   -2.71562E+004    6.35683E+004    1.10499E+006
            4626    1.84366E+007    1.80161E+007    1.80161E+007    9.17336E+004   -8.93101E+005    1.89092E+007   -5.73826E+006    1.83772E+007   -8.91961E+005    1.79863E+007    1.20397E+005    2.46050E+004    3.39915E+004    7.29872E+005
            4627    1.88259E+007    1.83176E+007    1.83176E+007   -2.48693E+004   -9.57033E+005    1.92747E+007   -5.77858E+006    1.87739E+007   -9.56703E+005    1.83142E+007   -2.17937E+004    5.36205E+004    1.36700E+004    2.44347E+005
            4628    1.28135E+007    1.41879E+007    1.41879E+007    2.23968E+006    6.56340E+005    1.35315E+007   -5.69464E+006    1.25905E+007    6.97153E+005    1.40628E+007    2.32393E+006   -2.50895E+005    2.14957E+005    1.19896E+006
            4629    1.39132E+007    1.52001E+007    1.52001E+007    2.04204E+006    6.38335E+005    1.45618E+007   -5.96017E+006    1.37525E+007    6.93725E+005    1.50296E+007    2.15720E+006   -2.86281E+005    2.31523E+005    1.47091E+006
            4630    1.48594E+007    1.61791E+007    1.61791E+007    1.81488E+006    8.69647E+005    1.53095E+007   -6.28788E+006    1.47916E+007    9.95134E+005    1.59802E+007    1.88828E+006   -4.90775E+005    2.51257E+005    1.62516E+006
            4631    1.62540E+007    1.75783E+007    1.75783E+007    1.64631E+006    1.02047E+006    1.65579E+007   -6.74837E+006    1.62268E+007    1.17867E+006    1.74013E+007    1.66515E+006   -6.02920E+005    2.00847E+005    1.57715E+006
            4632    1.73741E+007    1.88137E+007    1.88137E+007    1.64263E+006    1.24343E+006    1.75703E+007   -7.23325E+006    1.73638E+007    1.48268E+006    1.86767E+007    1.54040E+006   -7.92877E+005    1.39373E+005    1.32556E+006
            4633    1.82702E+007    1.97969E+007    1.97969E+007    1.71807E+006    1.34118E+006    1.84557E+007   -7.61872E+006    1.82614E+007    1.70883E+006    1.97053E+007    1.44199E+006   -9.34494E+005    8.95895E+004    8.96039E+005
            4634    1.87615E+007    2.03337E+007    2.03337E+007    1.79205E+006    1.35984E+006    1.89738E+007   -7.82852E+006    1.87502E+007    1.84105E+006    2.02726E+007    1.37188E+006   -1.01478E+006    3.58882E+004    3.20661E+005
            4635    2.19458E+007    2.03930E+007    2.03930E+007    1.64567E+006   -3.74619E+006    2.41392E+007   -6.09750E+006    2.03740E+007   -3.64952E+006    2.02902E+007    1.65183E+006    1.52359E+006   -6.10549E+002    3.43017E+005
            4636    2.10767E+007    1.95971E+007    1.95971E+007    1.59755E+006   -3.58858E+006    2.31857E+007   -5.86868E+006    1.95623E+007   -3.49513E+006    1.94569E+007    1.64433E+006    1.45897E+006   -1.64691E+004    9.29840E+005
            4637    1.96638E+007    1.83275E+007    1.83275E+007    1.50785E+006   -3.29183E+006    2.16193E+007   -5.51451E+006    1.82749E+007   -3.20369E+006    1.81398E+007    1.60744E+006    1.34368E+006   -5.40767E+004    1.32120E+006
            4638    1.79790E+007    1.67965E+007    1.67965E+007    1.40022E+006   -2.96228E+006    1.97588E+007   -5.07815E+006    1.67248E+007   -2.88087E+006    1.65763E+007    1.53903E+006    1.17616E+006   -1.24196E+005    1.51982E+006
            4639    1.65033E+007    1.53708E+007    1.53708E+007    1.30770E+006   -2.79756E+006    1.81684E+007   -4.62700E+006    1.52899E+007   -2.71222E+006    1.51336E+007    1.45965E+006    1.06325E+006   -2.09849E+005    1.57145E+006
            4640    1.52360E+007    1.40189E+007    1.40189E+007    1.32860E+006   -2.87856E+006    1.68975E+007   -4.15632E+006    1.38359E+007   -2.77595E+006    1.38247E+007    1.42019E+006    9.01144E+005   -4.01078E+005    1.37653E+006
            4641    1.53298E+007    1.38444E+007    1.38444E+007    1.42148E+006   -3.28743E+006    1.71319E+007   -3.99282E+006    1.35534E+007   -3.11071E+006    1.36676E+007    1.42162E+006    1.08905E+006   -6.26205E+005    1.19160E+006
            4642    1.89661E+007    2.07067E+007    2.07067E+007    1.82485E+006    1.65749E+006    1.90492E+007   -8.06301E+006    1.89644E+007    1.84242E+006    2.06517E+007    1.69490E+006    9.54789E+005    4.67998E+004   -3.57983E+005
            4643    1.93336E+007    1.90050E+007    1.90050E+007    3.04023E+005   -9.04567E+005    1.99096E+007   -6.13482E+006    1.92484E+007   -9.04321E+005    1.90003E+007    3.08466E+005    5.15297E+004    1.08705E+004   -2.91868E+005
            4644    1.77263E+007    1.81347E+007    1.81347E+007    6.24009E+005    2.00258E+005    1.79344E+007   -6.31965E+006    1.77149E+007    6.27518E+005    1.81256E+007    2.05787E+005    3.07403E+005    2.37459E+004   -2.55903E+005
            4645    1.75967E+007    1.73029E+007    1.73029E+007   -2.27917E+005   -3.59025E+005    1.76619E+007   -5.57197E+006    1.75956E+007   -3.57890E+005    1.73001E+007   -2.26319E+005    8.71768E+004    8.59703E+003   -2.00973E+005
            4646    1.67206E+007    1.67800E+007    1.67800E+007    3.31936E+005   -2.00325E+005    1.69803E+007   -5.63721E+006    1.67015E+007    3.32477E+005    1.67779E+007   -1.98705E+005    1.18603E+005    1.18629E+004   -1.48974E+005
            4647    1.66939E+007    1.63946E+007    1.63946E+007   -2.30510E+005   -3.67134E+005    1.67617E+007   -5.26566E+006    1.66926E+007   -2.30720E+005    1.63939E+007   -3.66251E+005    4.57212E+004    6.50067E+003   -9.57846E+004
            4648    1.62277E+007    1.62167E+007    1.62167E+007    2.76205E+005   -2.83696E+005    1.65004E+007   -5.40308E+006    1.62060E+007    2.76116E+005    1.62167E+007   -2.83534E+005    1.31304E+004    7.44462E+003   -3.20233E+004
            4649    1.65049E+007    1.61811E+007    1.61811E+007   -2.54213E+005   -3.92552E+005    1.65737E+007   -5.17812E+006    1.65036E+007   -2.54423E+005    1.61811E+007   -3.92327E+005    8.09034E+003    5.43500E+003    1.37362E+004
            4650    1.63172E+007    1.63710E+007    1.63710E+007    3.71170E+005   -2.45955E+005    1.66170E+007   -5.49875E+006    1.62909E+007    3.71631E+005    1.63701E+007   -2.45459E+005   -9.49918E+004    7.51868E+003    8.07979E+004
            4651    1.83696E+007    2.00096E+007    2.00096E+007    1.81279E+006    1.47200E+006    1.85376E+007   -7.76481E+006    1.83625E+007    1.64888E+006    1.99179E+007    1.72764E+006    8.60989E+005    1.21554E+005   -9.74701E+005
            4652    1.87769E+007    1.85393E+007    1.85393E+007    3.94681E+005   -8.11698E+005    1.93510E+007   -6.04076E+006    1.86894E+007   -8.10300E+005    1.85019E+007    4.30715E+005    6.97524E+004    3.42265E+004   -8.20649E+005
            4653    1.73109E+007    1.77411E+007    1.77411E+007    5.81466E+005    2.82723E+005    1.74584E+007   -6.20176E+006    1.73051E+007    5.72485E+005    1.77069E+007    3.25888E+005    2.95271E+005    5.10651E+004   -7.12845E+005
            4654    1.72105E+007    1.69911E+007    1.69911E+007   -1.02711E+005   -3.33769E+005    1.73248E+007   -5.51820E+006    1.72070E+007   -3.31260E+005    1.69724E+007   -8.65671E+004    8.99421E+004    1.87378E+004   -5.57394E+005
            4655    1.63913E+007    1.64940E+007    1.64940E+007    2.93653E+005   -8.18238E+004    1.65758E+007   -5.56860E+006    1.63816E+007    2.92610E+005    1.64827E+007   -6.95045E+004    1.16596E+005    2.35332E+004   -4.15955E+005
            4656    1.63772E+007    1.61481E+007    1.61481E+007   -2.16600E+005   -2.41697E+005    1.63898E+007   -5.22992E+006    1.63772E+007   -2.19893E+005    1.61443E+007   -2.34637E+005    4.54764E+004    7.93139E+003   -2.44250E+005
            4657    1.59531E+007    1.59887E+007    1.59887E+007    2.42835E+005   -1.63754E+005    1.61525E+007   -5.35593E+006    1.59414E+007    2.42408E+005    1.59881E+007   -1.62656E+005    1.36228E+004    1.32658E+004   -1.03146E+005
            4658    1.62289E+007    1.59745E+007    1.59745E+007   -2.39281E+005   -2.69347E+005    1.62439E+007   -5.15530E+006    1.62288E+007   -2.40046E+005    1.59742E+007   -2.68218E+005    3.06693E+003    4.74837E+003    7.69274E+004
            4659    1.60757E+007    1.61697E+007    1.61697E+007    3.30248E+005   -1.32279E+005    1.63020E+007   -5.45589E+006    1.60607E+007    3.30166E+005    1.61664E+007   -1.28948E+005   -9.12200E+004    1.55483E+004    2.10737E+005
            4660    1.73160E+007    1.88262E+007    1.88262E+007    1.78917E+006    1.24402E+006    1.75821E+007   -7.28645E+006    1.72967E+007    1.41227E+006    1.86823E+007    1.76475E+006    7.07670E+005    1.81137E+005   -1.40846E+006
            4661    1.77840E+007    1.77185E+007    1.77185E+007    5.93338E+005   -6.58193E+005    1.83767E+007   -5.88454E+006    1.76845E+007   -6.53100E+005    1.76317E+007    6.75044E+005    9.86649E+004    6.90420E+004   -1.21292E+006
            4662    1.65837E+007    1.70674E+007    1.70674E+007    5.83215E+005    3.85879E+005    1.66815E+007   -6.01216E+006    1.65811E+007    4.99436E+005    1.69963E+007    5.40735E+005    2.62061E+005    8.15710E+004   -1.05302E+006
            4663    1.64667E+007    1.64117E+007    1.64117E+007    1.49560E+005   -2.52075E+005    1.66638E+007   -5.43640E+006    1.64556E+007   -2.45472E+005    1.63690E+007    1.85649E+005    1.00552E+005    4.37587E+004   -8.26624E+005
            4664    1.57887E+007    1.59977E+007    1.59977E+007    2.89757E+005    1.29550E+005    1.58682E+007   -5.47235E+006    1.57869E+007    2.75405E+005    1.59742E+007    1.67450E+005    1.06280E+005    4.27333E+004   -6.01456E+005
            4665    1.57662E+007    1.56934E+007    1.56934E+007    1.51733E+004   -1.59190E+005    1.58526E+007   -5.18314E+006    1.57640E+007   -1.55060E+005    1.56850E+007    1.95006E+004    4.62943E+004    2.50369E+004   -3.61221E+005
            4666    1.54344E+007    1.55798E+007    1.55798E+007    2.37595E+005    5.49569E+004    1.55249E+007   -5.29079E+006    1.54319E+007    2.33133E+005    1.55789E+007    6.03288E+004    1.01897E+004    2.81371E+004   -1.18447E+005
            4667    1.56867E+007    1.55876E+007    1.55876E+007   -2.28530E+004   -1.74353E+005    1.57619E+007   -5.13013E+006    1.56851E+007   -1.71588E+005    1.55867E+007   -2.47504E+004   -3.48757E+003    2.02516E+004    1.16341E+005
            4668    1.55874E+007    1.57822E+007    1.57822E+007    3.16366E+005    7.59799E+004    1.57062E+007   -5.39151E+006    1.55832E+007    3.11412E+005    1.57733E+007    8.98696E+004   -8.86445E+004    3.37466E+004    3.63854E+005
            4669    1.60574E+007    1.73933E+007    1.73933E+007    1.75157E+006    9.50153E+005    1.64431E+007   -6.69833E+006    1.60123E+007    1.05448E+006    1.72067E+007    1.83379E+006    5.36251E+005    1.96180E+005   -1.62765E+006
            4670    1.65831E+007    1.66829E+007    1.66829E+007    8.51446E+005   -5.61287E+005    1.72442E+007   -5.65770E+006    1.64469E+007   -5.54001E+005    1.65512E+007    9.75889E+005    1.07688E+005    8.77245E+004   -1.43528E+006
            4671    1.56188E+007    1.61688E+007    1.61688E+007    7.83573E+005    3.26619E+005    1.58422E+007   -5.75968E+006    1.56037E+007    3.61171E+005    1.60648E+007    8.53052E+005    2.35834E+005    9.66594E+004   -1.24215E+006
            4672    1.55616E+007    1.56660E+007    1.56660E+007    4.68505E+005   -2.35652E+005    1.59017E+007   -5.29963E+006    1.55257E+007   -2.31052E+005    1.56032E+007    5.26743E+005    1.05012E+005    4.59491E+004   -9.70256E+005
            4673    1.49894E+007    1.53059E+007    1.53059E+007    4.70800E+005    1.66849E+005    1.51390E+007   -5.31451E+006    1.49824E+007    1.75881E+005    1.52715E+007    4.96123E+005    1.02313E+005    4.49188E+004   -7.06381E+005
            4674    1.49995E+007    1.50812E+007    1.50812E+007    3.39063E+005   -1.63034E+005    1.52442E+007   -5.08574E+006    1.49806E+007   -1.61847E+005    1.50702E+007    3.48872E+005    4.60596E+004    2.17149E+004   -4.00007E+005
            4675    1.47357E+007    1.49935E+007    1.49935E+007    3.75063E+005    1.43207E+005    1.48503E+007   -5.17059E+006    1.47316E+007    1.46303E+005    1.49925E+007    3.73001E+005    1.08075E+004    2.64885E+004   -1.22506E+005
            4676    1.49901E+007    1.50401E+007    1.50401E+007    2.88798E+005   -1.77877E+005    1.52180E+007   -5.05035E+006    1.49738E+007   -1.77284E+005    1.50377E+007    2.90657E+005   -1.13935E+004    1.63677E+004    1.89870E+005
            4677    1.49382E+007    1.52324E+007    1.52324E+007    3.93317E+005    1.97071E+005    1.50353E+007   -5.27426E+006    1.49353E+007    2.03931E+005    1.52182E+007    4.00691E+005   -8.29297E+004    3.23802E+004    4.52209E+005
            4678    1.47509E+007    1.60179E+007    1.60179E+007    1.80299E+006    7.83937E+005    1.52340E+007   -6.20163E+006    1.46714E+007    8.54887E+005    1.58108E+007    1.93920E+006    3.53379E+005    2.06759E+005   -1.67814E+006
            4679    1.52347E+007    1.55958E+007    1.55958E+007    1.19826E+006   -3.56717E+005    1.59526E+007   -5.47913E+006    1.50546E+007   -3.42656E+005    1.54424E+007    1.33764E+006    1.37046E+005    1.28768E+005   -1.47447E+006
            4680    1.45699E+007    1.52566E+007    1.52566E+007    1.10090E+006    3.05123E+005    1.49514E+007   -5.55420E+006    1.45209E+007    3.31509E+005    1.51380E+007    1.19310E+006    1.96578E+005    1.19050E+005   -1.27874E+006
            4681    1.44741E+007    1.48449E+007    1.48449E+007    8.77549E+005   -8.77118E+004    1.49326E+007   -5.21157E+006    1.44014E+007   -7.72759E+004    1.47708E+007    9.41157E+005    1.11771E+005    8.83955E+004   -1.00953E+006
            4682    1.40638E+007    1.45822E+007    1.45822E+007    8.47351E+005    2.11170E+005    1.43711E+007   -5.21358E+006    1.40313E+007    2.21463E+005    1.45451E+007    8.74162E+005    9.08182E+004    7.36370E+004   -7.08109E+005
            4683    1.40595E+007    1.43931E+007    1.43931E+007    7.36841E+005   -3.74837E+004    1.44306E+007   -5.03083E+006    1.40114E+007   -3.31012E+004    1.43810E+007    7.44558E+005    4.35792E+004    5.60145E+004   -4.04330E+005
            4684    1.38818E+007    1.43446E+007    1.43446E+007    7.54220E+005    1.88730E+005    1.41559E+007   -5.09586E+006    1.38558E+007    1.94367E+005    1.43441E+007    7.49118E+005    3.94578E+003    5.61492E+004   -8.51579E+004
            4685    1.40933E+007    1.44008E+007    1.44008E+007    6.89743E+005   -4.58856E+004    1.44467E+007   -5.01488E+006    1.40500E+007   -4.23918E+004    1.43967E+007    6.90381E+005   -2.04090E+004    5.00395E+004    2.37248E+005
            4686    1.41270E+007    1.46125E+007    1.46125E+007    7.51122E+005    2.33931E+005    1.43785E+007   -5.19917E+006    1.41057E+007    2.44520E+005    1.45900E+007    7.62941E+005   -8.28476E+004    6.84728E+004    5.51496E+005
            4687    1.36372E+007    1.47108E+007    1.47108E+007    1.93260E+006    3.52388E+005    1.43584E+007   -5.66527E+006    1.34289E+007    3.70865E+005    1.45138E+007    2.11115E+006    1.93621E+005    1.36994E+005   -1.56690E+006
            4688    1.41651E+007    1.45843E+007    1.45843E+007    1.49737E+006   -4.56086E+005    1.50404E+007   -5.20853E+006    1.38572E+007   -4.50042E+005    1.44306E+007    1.64508E+006    6.87128E+004    9.96513E+004   -1.40945E+006
            4689    1.35599E+007    1.42829E+007    1.42829E+007    1.46651E+006    8.50862E+004    1.41978E+007   -5.27816E+006    1.34003E+007    9.79899E+004    1.41655E+007    1.57100E+006    1.61249E+005    1.09694E+005   -1.21322E+006
            4690    1.35453E+007    1.40102E+007    1.40102E+007    1.26364E+006   -2.12856E+005    1.42230E+007   -5.02032E+006    1.33624E+007   -2.09839E+005    1.39395E+007    1.33133E+006    1.01395E+005    5.15110E+004   -9.42369E+005
            4691    1.31893E+007    1.37632E+007    1.37632E+007    1.22421E+006    7.78552E+003    1.37554E+007   -4.99839E+006    1.30622E+007    1.02865E+004    1.37260E+007    1.25891E+006    7.71762E+004    4.63488E+004   -6.78326E+005
            4692    1.31726E+007    1.36184E+007    1.36184E+007    1.14732E+006   -1.58394E+005    1.37768E+007   -4.86912E+006    1.30258E+007   -1.57597E+005    1.36079E+007    1.15704E+006    3.88898E+004    2.89378E+004   -3.60314E+005
            4693    1.30412E+007    1.35814E+007    1.35814E+007    1.14278E+006    1.12064E+004    1.35701E+007   -4.91178E+006    1.29301E+007    1.20884E+004    1.35811E+007    1.14212E+006    6.89181E+003    3.14908E+004   -5.24370E+004
            4694    1.32189E+007    1.36442E+007    1.36442E+007    1.10649E+006   -1.64230E+005    1.38084E+007   -4.86214E+006    1.30805E+007   -1.63648E+005    1.36383E+007    1.11179E+006   -2.00821E+004    2.61139E+004    2.70763E+005
            4695    1.32638E+007    1.38165E+007    1.38165E+007    1.15605E+006    2.22368E+004    1.37943E+007   -4.99827E+006    1.31541E+007    2.39841E+004    1.37885E+007    1.18229E+006   -6.65900E+004    3.73537E+004    5.91383E+005
            4696    1.27649E+007    1.38119E+007    1.38119E+007    1.98463E+006    2.80605E+005    1.35313E+007   -5.35906E+006    1.25052E+007    2.84325E+005    1.36345E+007    2.15837E+006   -1.36744E+005    7.79156E+004   -1.43163E+006
            4697    1.29144E+007    1.37342E+007    1.37342E+007    1.88235E+006   -2.94627E+004    1.37637E+007   -5.19570E+006    1.25901E+007   -1.08450E+004    1.35949E+007    2.00303E+006    7.31470E+004    1.79849E+005   -1.27737E+006
            4698    1.26179E+007    1.35970E+007    1.35970E+007    1.81954E+006    2.79988E+005    1.33170E+007   -5.23217E+006    1.24039E+007    3.00380E+005    1.34911E+007    1.90501E+006    9.98262E+004    1.65057E+005   -1.10976E+006
            4699    1.23784E+007    1.32597E+007    1.32597E+007    1.75067E+006    1.64834E+005    1.30949E+007   -5.05840E+006    1.21467E+007    1.87295E+005    1.31843E+007    1.80361E+006    7.04751E+004    1.81319E+005   -9.27910E+005
            4700    1.20756E+007    1.30228E+007    1.30228E+007    1.75576E+006    2.75178E+005    1.27477E+007   -5.01792E+006    1.18689E+007    2.95376E+005    1.29913E+007    1.76705E+006    6.23774E+004    1.67755E+005   -5.93263E+005
            4701    1.20873E+007    1.29268E+007    1.29268E+007    1.65046E+006    1.65746E+005    1.27611E+007   -4.91434E+006    1.18796E+007    1.82135E+005    1.29193E+007    1.64159E+006    3.24958E+004    1.54046E+005   -2.90126E+005
            4702    1.20331E+007    1.29138E+007    1.29138E+007    1.63516E+006    2.46715E+005    1.26671E+007   -4.93189E+006    1.18508E+007    2.62600E+005    1.29138E+007    1.61930E+006   -4.76058E+003    1.47657E+005   -1.66840E+004
            4703    1.21167E+007    1.29467E+007    1.29467E+007    1.62796E+006    1.64915E+005    1.27818E+007   -4.91321E+006    1.19156E+007    1.81034E+005    1.29407E+007    1.61788E+006   -3.72693E+004    1.51484E+005    2.59668E+005
            4704    1.21306E+007    1.30785E+007    1.30785E+007    1.72669E+006    2.96007E+005    1.27825E+007   -5.03374E+006    1.19386E+007    3.19581E+005    1.30499E+007    1.73179E+006   -7.45285E+004    1.77348E+005    5.66999E+005
            4705    1.15035E+007    1.19319E+007    1.19319E+007    2.00552E+006   -6.75296E+005    1.26072E+007   -4.42071E+006    1.07665E+007   -6.57037E+005    1.19041E+007    2.01507E+006    1.30916E+005   -2.07026E+005    5.14180E+005
            4706    1.14603E+007    1.19338E+007    1.19338E+007    1.90172E+006   -5.55962E+005    1.24898E+007   -4.42652E+006    1.08433E+007   -5.44190E+005    1.19290E+007    1.89478E+006    7.21535E+004   -1.65472E+005    2.11413E+005
            4707    1.14761E+007    1.19437E+007    1.19437E+007    1.80705E+006   -5.16373E+005    1.24601E+007   -4.41146E+006    1.09280E+007   -5.05471E+005    1.19437E+007    1.79615E+006    5.13324E+003   -1.58765E+005   -4.37649E+002
            4708    1.14661E+007    1.19294E+007    1.19294E+007    1.89323E+006   -5.67207E+005    1.24966E+007   -4.41848E+006    1.08481E+007   -5.54343E+005    1.19246E+007    1.88524E+006   -6.29328E+004   -1.74204E+005   -2.14631E+005
            4709    1.15074E+007    1.19264E+007    1.19264E+007    2.00451E+006   -6.88766E+005    1.26152E+007   -4.41404E+006    1.07634E+007   -6.70465E+005    1.18989E+007    2.01367E+006   -1.31290E+005   -2.07760E+005   -5.10715E+005
            4710    1.16841E+007    1.19956E+007    1.19956E+007    2.03595E+006   -8.66052E+005    1.28616E+007   -4.38849E+006    1.08278E+007   -8.38588E+005    1.19166E+007    2.08746E+006   -2.10210E+005   -2.49319E+005   -8.68910E+005
            4711    1.21840E+007    1.22873E+007    1.22873E+007    1.89342E+006   -1.12097E+006    1.34083E+007   -4.35326E+006    1.12985E+007   -1.07978E+006    1.21298E+007    2.00977E+006   -3.73880E+005   -2.69047E+005   -1.23669E+006
            4712    1.29652E+007    1.27040E+007    1.27040E+007    1.83541E+006   -1.64666E+006    1.43507E+007   -4.29759E+006    1.18428E+007   -1.57066E+006    1.25220E+007    1.94145E+006   -6.19250E+005   -3.54810E+005   -1.30720E+006
            4713    1.37145E+007    1.25237E+007    1.25237E+007    1.77606E+006   -2.92249E+006    1.54462E+007   -3.79242E+006    1.16862E+007   -2.76862E+006    1.23402E+007    1.80564E+006   -8.82059E+005   -6.19326E+005   -1.22637E+006
            4714    2.23740E+007    2.04630E+007    2.04630E+007    1.70937E+006   -4.30290E+006    2.47659E+007   -5.95649E+006    2.04348E+007   -4.17787E+006    2.03321E+007    1.71521E+006   -1.75429E+006   -1.45112E+003   -3.34865E+005
            4715    2.13286E+007    1.95568E+007    1.95568E+007    1.66059E+006   -4.04401E+006    2.36008E+007   -5.72447E+006    1.94984E+007   -3.92592E+006    1.93925E+007    1.70678E+006   -1.65481E+006   -1.90342E+004   -9.23740E+005
            4716    1.96814E+007    1.81289E+007    1.81289E+007    1.59223E+006   -3.63987E+006    2.17688E+007   -5.36042E+006    1.80144E+007   -3.53048E+006    1.79204E+007    1.69133E+006   -1.50570E+006   -5.76114E+004   -1.31031E+006
            4717    1.78758E+007    1.65620E+007    1.65620E+007    1.50685E+006   -3.19476E+006    1.97567E+007   -4.95803E+006    1.63960E+007   -3.09514E+006    1.63150E+007    1.65419E+006   -1.33072E+006   -9.98596E+004   -1.53603E+006
            4718    1.62543E+007    1.50727E+007    1.50727E+007    1.47010E+006   -2.92824E+006    1.80009E+007   -4.53817E+006    1.48243E+007   -2.83075E+006    1.48098E+007    1.63542E+006   -1.18927E+006   -1.74046E+005   -1.58306E+006
            4719    1.50477E+007    1.39045E+007    1.39045E+007    1.46170E+006   -2.81993E+006    1.67245E+007   -4.18211E+006    1.35724E+007   -2.71599E+006    1.36421E+007    1.62021E+006   -1.09689E+006   -2.61086E+005   -1.54493E+006
            4720    1.44817E+007    1.29363E+007    1.29363E+007    1.58248E+006   -3.37258E+006    1.63088E+007   -3.71538E+006    1.23462E+007   -3.21775E+006    1.26968E+007    1.66711E+006   -1.13957E+006   -5.06203E+005   -1.37365E+006


  Minimum           9.48863E+006    8.86695E+006    8.86695E+006   -2.20478E+006   -8.19759E+006    1.03293E+007   -8.06301E+006    8.98383E+006   -7.51892E+006    8.67227E+006   -2.10079E+006   -3.72511E+006   -6.51642E+005   -2.35197E+006
      At Element            3527            3347            3347            3815            4360            3763            4642            3345            4360            4484            3815            4360             341            4273

  Maximum           2.23740E+007    2.07067E+007    2.07067E+007    2.23968E+006    1.65749E+006    2.47659E+007   -5.97116E+005    2.04348E+007    1.84242E+006    2.06517E+007    2.32393E+006    3.72511E+006    6.51642E+005    2.36212E+006
      At Element            4714            4642            4642            4628            4642            4714            4287            4714            4642            4642            4628             348            4353            4392

           Total    6.41516E+010    5.78418E+010    5.78418E+010   -2.49300E+009   -9.30868E+009    6.71505E+010   -1.53467E+010    6.28866E+010   -8.06937E+009    5.71932E+010   -3.08367E+009    0.00000E+000    0.00000E+000    3.25822E+006


