********************************************************************************
Field Output Report, written Sun Apr 16 02:25:55 2023

Source 1
---------

   ODB: C:/Temp/YY_displacement.odb
   Step: Loading_step
   Frame: Increment      1: Step Time =    1.000

Loc 1 : Centroidal values from source 1

Output sorted by column "Element Label".

Field Output reported at element centroid for region: PART-1-1.Region_2

         Element         S.Mises     S.Max. Prin  S.Max. Prin(a)     S.Mid. Prin     S.Min. Prin        S.Tresca      S.Pressure     S.Third Inv           S.S11           S.S22           S.S33           S.S12           S.S13           S.S23
           Label          @Loc 1          @Loc 1          @Loc 1          @Loc 1          @Loc 1          @Loc 1          @Loc 1          @Loc 1          @Loc 1          @Loc 1          @Loc 1          @Loc 1          @Loc 1          @Loc 1
-------------------------------------------------------------------------------------------------------------------------------------------------------------------------------------------------------------------------------------------------
            4721    7.98810E+006    7.76497E+006    7.76497E+006    6.88073E+005   -8.96749E+005    8.66172E+006   -2.51877E+006    7.62226E+006    6.48136E+005    7.67262E+006   -7.64456E+005   -8.09102E+005    4.28729E+005    1.04775E+005
            4722    9.44809E+006    9.45744E+006    9.45744E+006    1.02106E+006   -7.51325E+005    1.02088E+007   -3.24239E+006    9.06267E+006    9.69312E+005    9.27018E+006   -5.12310E+005   -1.15650E+006    4.95443E+005    6.10780E+005
            4723    1.08245E+007    1.13342E+007    1.13342E+007    1.56151E+006   -3.00458E+005    1.16347E+007   -4.19843E+006    1.04551E+007    1.40120E+006    1.10178E+007    1.76301E+005   -1.58226E+006    6.34668E+005    9.47310E+005
            4724    1.20583E+007    1.33731E+007    1.33731E+007    2.35542E+006    4.91323E+005    1.28818E+007   -5.40661E+006    1.17275E+007    1.99244E+006    1.28421E+007    1.38524E+006   -2.14337E+006    6.80279E+005    1.36121E+006
            4725    9.93547E+006    1.01891E+007    1.01891E+007    5.06409E+005    1.87306E+004    1.01703E+007   -3.57140E+006    9.90849E+006    4.88973E+004    1.01105E+007    5.54760E+005   -4.89175E+005   -9.09538E+004    7.22978E+005
            4726    8.93557E+006    9.29560E+006    9.29560E+006    5.99266E+005    1.38617E+005    9.15699E+006   -3.34450E+006    8.90880E+006    2.52113E+005    9.28501E+006    4.96365E+005   -2.17189E+005   -2.00555E+005    2.12674E+005
            4727    8.41700E+006    8.45047E+006    8.45047E+006    1.55395E+005   -8.33685E+004    8.53384E+006   -2.84083E+006    8.40938E+006   -4.13181E+004    8.36565E+006    1.98162E+005   -3.37460E+005   -1.08420E+005    7.63269E+005
            4728    7.34437E+006    7.61129E+006    7.61129E+006    5.02774E+005    5.18379E+004    7.55945E+006   -2.72197E+006    7.31313E+006    1.77930E+005    7.59503E+006    3.92936E+005   -1.87410E+005   -2.07362E+005    2.83138E+005
            4729    7.14479E+006    7.01633E+006    7.01633E+006   -2.00972E+004   -2.32111E+005    7.24844E+006   -2.25471E+006    7.13771E+006   -3.80685E+004    6.93509E+006   -1.32899E+005   -2.43128E+005   -9.54679E+004    7.18380E+005
            4730    5.80995E+006    6.02427E+006    6.02427E+006    4.61815E+005   -4.99789E+003    6.02927E+006   -2.16036E+006    5.76753E+006    1.06958E+005    6.01209E+006    3.62042E+005   -1.32922E+005   -2.02699E+005    2.23515E+005
            4731    5.54256E+006    5.33808E+006    5.33808E+006   -6.95455E+004   -3.30225E+005    5.66830E+006   -1.64610E+006    5.52874E+006   -1.11937E+005    5.26604E+006   -2.15792E+005   -8.88697E+004   -1.08481E+005    6.24255E+005
            4732    4.62950E+006    4.79974E+006    4.79974E+006    3.83056E+005   -1.66623E+004    4.81640E+006   -1.72204E+006    4.59044E+006    8.29185E+004    4.77231E+006    3.10901E+005   -1.29690E+005   -1.80151E+005    3.22065E+005
            4733    3.64429E+006    3.72007E+006    3.72007E+006    2.42572E+005   -7.07895E+004    3.79086E+006   -1.29728E+006    3.61380E+006    8.51186E+003    3.69587E+006    1.87468E+005   -4.50656E+004   -1.39880E+005    2.87130E+005
            4734    2.33004E+006    2.33103E+006    2.33103E+006    7.73866E+004   -6.85555E+004    2.39958E+006   -7.79952E+005    2.31972E+006   -3.89141E+004    2.32202E+006    5.67508E+004   -5.94513E+003   -5.91742E+004    1.42799E+005
            4735    4.28924E+006    4.17223E+006    4.17223E+006    2.11080E+004   -2.42928E+005    4.41516E+006   -1.31680E+006    4.27090E+006   -7.82758E+003    4.05831E+006   -1.00070E+005   -9.17515E+004   -1.01722E+005    6.89019E+005
            4736    2.87562E+006    2.83844E+006    2.83844E+006   -4.29907E+003   -6.89717E+004    2.90741E+006   -9.21722E+005    2.87398E+006   -2.11848E+004    2.80542E+006   -1.90692E+004   -2.48661E+004   -3.13808E+004    3.05859E+005
            4737    3.50457E+006    3.48378E+006    3.48378E+006    1.40960E+004   -5.46644E+004    3.53844E+006   -1.14774E+006    3.50305E+006    1.45732E+004    3.45516E+006   -2.65235E+004   -4.13400E+004   -2.61363E+003    3.14181E+005
            4738    4.14143E+006    4.09039E+006    4.09039E+006    2.80825E+004   -1.25867E+005    4.21626E+006   -1.33087E+006    4.13498E+006    2.70920E+004    4.08119E+006   -1.15677E+005   -7.34621E+004    1.54810E+004    1.82229E+005
            4739    4.40862E+006    4.38808E+006    4.38808E+006    6.60978E+004   -1.02349E+005    4.49043E+006   -1.45061E+006    4.40137E+006    5.20027E+004    4.38387E+006   -8.40466E+004   -8.91756E+004    5.14127E+004   -1.01948E+005
            4740    4.16053E+006    4.19722E+006    4.19722E+006    7.26305E+004    1.64937E+003    4.19557E+006   -1.42383E+006    4.15917E+006    5.56700E+004    4.17851E+006    3.73175E+004   -9.44254E+004    3.75491E+004   -2.61557E+005
            4741    4.73269E+006    4.47395E+006    4.47395E+006   -2.60009E+004   -4.61392E+005    4.93534E+006   -1.32885E+006    4.68731E+006   -2.29194E+004    4.39626E+006   -3.86785E+005   -1.45707E+005   -4.70934E+004    5.93992E+005
            4742    4.65250E+006    4.37578E+006    4.37578E+006    3.01009E+004   -5.32387E+005    4.90817E+006   -1.29117E+006    4.57506E+006    1.66052E+004    4.37118E+006   -5.14289E+005   -1.39404E+005    9.96742E+004   -2.33159E+004
            4743    4.21922E+006    4.05403E+006    4.05403E+006    3.60799E+004   -3.41136E+005    4.39517E+006   -1.24966E+006    4.18103E+006    1.05861E+004    3.97047E+006   -2.32081E+005   -9.67331E+004    1.14018E+005   -5.87163E+005
            4744    3.80197E+006    3.76834E+006    3.76834E+006    1.10005E+005   -1.62593E+005    3.93093E+006   -1.23858E+006    3.77989E+006    4.90631E+004    3.57863E+006    8.80594E+004   -9.33457E+004    1.40062E+005   -8.26290E+005
            4745    4.33711E+006    4.29140E+006    4.29140E+006    5.70519E+005   -4.71935E+005    4.76333E+006   -1.46333E+006    4.04055E+006    4.16604E+005    3.47514E+006    4.98235E+005   -2.14052E+005    5.50322E+005   -1.69832E+006
            4746    5.15310E+006    4.90928E+006    4.90928E+006    5.28299E+005   -7.68288E+005    5.67757E+006   -1.55643E+006    4.76492E+006    4.11016E+005    4.36307E+006   -1.04797E+005   -2.98757E+005    5.47375E+005   -1.57739E+006
            4747    5.91241E+006    5.45360E+006    5.45360E+006    4.76210E+005   -1.08180E+006    6.53539E+006   -1.61600E+006    5.42096E+006    3.65889E+005    5.19153E+006   -7.09404E+005   -3.52753E+005    5.36325E+005   -1.16738E+006
            4748    6.75906E+006    6.31780E+006    6.31780E+006    4.93611E+005   -1.09362E+006    7.41142E+006   -1.90593E+006    6.31900E+006    3.92847E+005    6.23333E+006   -9.08396E+005   -5.20584E+005    5.05845E+005   -4.82965E+005
            4749    1.06361E+007    1.10932E+007    1.10932E+007    6.62741E+005    2.62745E+005    1.08305E+007   -4.00623E+006    1.06192E+007    3.51097E+005    1.10836E+007    5.84018E+005   -2.63090E+005   -1.65866E+005    1.78896E+005
            4750    1.13924E+007    1.19142E+007    1.19142E+007    9.94646E+005    1.01435E+005    1.18128E+007   -4.33676E+006    1.13133E+007    1.38484E+005    1.18417E+007    1.03006E+006   -6.40626E+005   -7.79415E+004    6.35576E+005
            4751    1.30133E+007    1.53427E+007    1.53427E+007    3.49065E+006    1.41725E+006    1.39255E+007   -6.75021E+006    1.26336E+007    2.67355E+006    1.45840E+007    2.99311E+006   -2.76155E+006    6.51540E+005    1.53177E+006
            4752    1.20766E+007    1.26286E+007    1.26286E+007    7.19391E+005    3.91248E+005    1.22373E+007   -4.57973E+006    1.20665E+007    4.37988E+005    1.26202E+007    6.81022E+005   -2.97428E+005   -1.09542E+005    1.12682E+005
            4753    1.26213E+007    1.34124E+007    1.34124E+007    1.45506E+006    2.18234E+005    1.31942E+007   -5.02858E+006    1.24839E+007    2.66033E+005    1.33485E+007    1.47119E+006   -7.87977E+005   -5.17565E+004    4.43360E+005
            4754    1.35657E+007    1.69366E+007    1.69366E+007    4.83536E+006    2.27219E+006    1.46644E+007   -8.01471E+006    1.30040E+007    3.35658E+006    1.60021E+007    4.68543E+006   -3.34757E+006    4.74180E+005    1.27311E+006
            4755    1.29250E+007    1.35419E+007    1.35419E+007    7.52704E+005    4.85125E+005    1.30568E+007   -4.92657E+006    1.29188E+007    4.98075E+005    1.35338E+007    7.47832E+005   -3.21455E+005   -3.74160E+004    4.35778E+004
            4756    1.33279E+007    1.42756E+007    1.42756E+007    1.73715E+006    2.78169E+005    1.39974E+007   -5.43030E+006    1.31465E+007    3.32560E+005    1.42193E+007    1.73906E+006   -8.69971E+005   -2.20543E+004    1.57753E+005
            4757    1.37667E+007    1.78190E+007    1.78190E+007    5.82461E+006    2.78714E+006    1.50318E+007   -8.81023E+006    1.29803E+007    3.80237E+006    1.68178E+007    5.81055E+006   -3.71352E+006    1.78674E+005    5.03452E+005
            4758    4.05858E+006    4.08596E+006    4.08596E+006    7.54562E+004   -1.90426E+004    4.10501E+006   -1.38079E+006    4.05611E+006    5.39373E+004    4.06785E+006    2.05903E+004    9.38609E+004    4.69835E+004    2.53364E+005
            4759    3.71117E+006    3.67826E+006    3.67826E+006    1.11679E+005   -1.62315E+005    3.84058E+006   -1.20921E+006    3.68831E+006    4.48826E+004    3.47608E+006    1.06666E+005    8.61651E+004    1.43475E+005    8.41401E+005
            4760    4.27474E+006    4.23264E+006    4.23264E+006    5.69977E+005   -4.64359E+005    4.69700E+006   -1.44609E+006    3.97831E+006    4.20249E+005    3.39761E+006    5.20403E+005    2.15280E+005    5.50678E+005    1.69785E+006
            4761    3.60086E+006    3.64554E+006    3.64554E+006    8.27137E+004    7.80828E+003    3.63773E+006   -1.24535E+006    3.59911E+006    4.29360E+004    3.62821E+006    6.49177E+004    7.76171E+004    4.24316E+004    2.35862E+005
            4762    3.11648E+006    3.20680E+006    3.20680E+006    2.30665E+005   -3.32308E+004    3.24003E+006   -1.13475E+006    3.09119E+006    6.75331E+004    3.02714E+006    3.09558E+005    6.86350E+004    1.48190E+005    7.14337E+005
            4763    3.26948E+006    3.43562E+006    3.43562E+006    6.27252E+005   -1.53580E+005    3.58920E+006   -1.30310E+006    3.04892E+006    3.91027E+005    2.56843E+006    9.49834E+005    1.30940E+005    5.12614E+005    1.41576E+006
            4764    3.20571E+006    3.25976E+006    3.25976E+006    9.82160E+004    1.16511E+004    3.24811E+006   -1.12321E+006    3.20308E+006    3.80035E+004    3.25442E+006    7.72059E+004    4.28747E+004    4.12540E+004    1.22673E+005
            4765    2.56807E+006    2.73853E+006    2.73853E+006    3.76347E+005    5.00276E+003    2.73352E+006   -1.03996E+006    2.50659E+006    6.65692E+004    2.67530E+006    3.78008E+005    3.57455E+004    1.44555E+005    3.82294E+005
            4766    2.09615E+006    2.47130E+006    2.47130E+006    8.93166E+005    9.29012E+004    2.37840E+006   -1.15246E+006    1.69751E+006    3.51690E+005    1.95173E+006    1.15394E+006    6.33015E+004    4.60482E+005    7.80083E+005
            4767    3.08039E+006    3.13176E+006    3.13176E+006    9.80446E+004    6.72370E+003    3.12504E+006   -1.07884E+006    3.07735E+006    3.28046E+004    3.13170E+006    7.20290E+004   -6.48117E+003    4.12696E+004   -1.24867E+004
            4768    2.36466E+006    2.56994E+006    2.56994E+006    4.52872E+005    1.80367E+004    2.55190E+006   -1.01362E+006    2.27209E+006    7.35975E+004    2.56882E+006    3.98428E+005   -8.28314E+002    1.45213E+005   -4.90954E+004
            4769    1.43503E+006    1.71582E+006    1.71582E+006    1.36797E+006    1.38841E+005    1.57698E+006   -1.07421E+006   -1.33514E+006    3.17471E+005    1.71134E+006    1.19381E+006   -5.99451E+003    4.34025E+005   -3.96542E+004
            4770    3.27078E+006    3.32650E+006    3.32650E+006    9.74996E+004    1.54732E+004    3.31103E+006   -1.14649E+006    3.26847E+006    3.94302E+004    3.31822E+006    8.18219E+004   -5.09556E+004    3.93851E+004   -1.55265E+005
            4771    2.66646E+006    2.82572E+006    2.82572E+006    3.51415E+005    1.62152E+003    2.82410E+006   -1.05958E+006    2.61410E+006    6.87163E+004    2.74179E+006    3.68245E+005   -4.37434E+004    1.46645E+005   -4.49215E+005
            4772    2.22435E+006    2.58300E+006    2.58300E+006    8.49465E+005    7.49260E+004    2.50807E+006   -1.16913E+006    1.88297E+006    3.54408E+005    2.01381E+006    1.13917E+006   -6.55630E+004    4.64047E+005   -8.60538E+005
            4773    3.71259E+006    3.74539E+006    3.74539E+006    7.34962E+004   -6.60335E+003    3.75199E+006   -1.27076E+006    3.71065E+006    4.12558E+004    3.72727E+006    4.37588E+004   -8.76861E+004    4.55041E+004   -2.42618E+005
            4774    3.27778E+006    3.33992E+006    3.33992E+006    1.89632E+005   -5.19793E+004    3.39190E+006   -1.15919E+006    3.25765E+006    5.74840E+004    3.14625E+006    2.73834E+005   -6.97645E+004    1.41064E+005   -7.63867E+005
            4775    3.37443E+006    3.53375E+006    3.53375E+006    6.22398E+005   -1.64657E+005    3.69840E+006   -1.33050E+006    3.15786E+006    3.97478E+005    2.65823E+006    9.35783E+005   -1.45851E+005    5.17000E+005   -1.45342E+006
            4776    1.30154E+007    1.53481E+007    1.53481E+007    3.49413E+006    1.42030E+006    1.39278E+007   -6.75417E+006    1.26356E+007    2.67867E+006    1.45878E+007    2.99605E+006   -2.76485E+006   -6.51442E+005   -1.53251E+006
            4777    1.13980E+007    1.19164E+007    1.19164E+007    9.92768E+005    9.68974E+004    1.18195E+007   -4.33536E+006    1.13184E+007    1.33603E+005    1.18457E+007    1.02672E+006   -6.34730E+005    8.03296E+004   -6.25838E+005
            4778    1.06587E+007    1.11171E+007    1.11171E+007    6.63173E+005    2.64839E+005    1.08523E+007   -4.01504E+006    1.06419E+007    3.51841E+005    1.11075E+007    5.85730E+005   -2.63885E+005    1.64373E+005   -1.76319E+005
            4779    1.35597E+007    1.69384E+007    1.69384E+007    4.84253E+006    2.28052E+006    1.46579E+007   -8.02050E+006    1.29983E+007    3.36611E+006    1.60008E+007    4.69459E+006   -3.35226E+006   -4.70882E+005   -1.27432E+006
            4780    1.26259E+007    1.34065E+007    1.34065E+007    1.44035E+006    2.10842E+005    1.31956E+007   -5.01922E+006    1.24901E+007    2.57801E+005    1.33435E+007    1.45636E+006   -7.80878E+005    5.17758E+004   -4.42308E+005
            4781    1.20876E+007    1.26409E+007    1.26409E+007    7.19341E+005    3.93715E+005    1.22472E+007   -4.58465E+006    1.20778E+007    4.39958E+005    1.26325E+007    6.81455E+005   -2.97361E+005    1.08500E+005   -1.12518E+005
            4782    1.37646E+007    1.78208E+007    1.78208E+007    5.82983E+006    2.79067E+006    1.50302E+007   -8.81377E+006    1.29770E+007    3.80711E+006    1.68181E+007    5.81615E+006   -3.71663E+006   -1.76492E+005   -4.99295E+005
            4783    1.33273E+007    1.42688E+007    1.42688E+007    1.72774E+006    2.74401E+005    1.39944E+007   -5.42364E+006    1.31472E+007    3.28166E+005    1.42129E+007    1.72984E+006   -8.65402E+005    1.71622E+004   -1.62712E+005
            4784    1.29255E+007    1.35424E+007    1.35424E+007    7.53198E+005    4.84848E+005    1.30575E+007   -4.92681E+006    1.29192E+007    4.97859E+005    1.35343E+007    7.48311E+005   -3.22387E+005    3.75276E+004   -4.36329E+004
            4785    4.03897E+006    4.15333E+006    4.15333E+006    3.20182E+005   -6.39978E+004    4.21733E+006   -1.46984E+006    3.99755E+006    2.57810E+004    4.14031E+006    2.43423E+005    3.88557E+004   -1.64685E+005   -2.20697E+005
            4786    4.88295E+006    5.04738E+006    5.04738E+006    4.10443E+005   -4.90987E+004    5.09648E+006   -1.80291E+006    4.83394E+006    4.67243E+004    5.03832E+006    3.23674E+005    5.14126E+004   -1.88522E+005   -1.98594E+005
            4787    5.95691E+006    6.16684E+006    6.16684E+006    4.76997E+005   -2.53117E+004    6.19215E+006   -2.20618E+006    5.90898E+006    8.02215E+004    6.16011E+006    3.78200E+005    6.91257E+004   -2.06262E+005   -1.83143E+005
            4788    7.33481E+006    7.58652E+006    7.58652E+006    5.17581E+005    1.20091E+004    7.57451E+006   -2.70537E+006    7.29545E+006    1.28601E+005    7.58252E+006    4.04995E+005    8.59012E+004   -2.14048E+005   -1.44667E+005
            4789    8.95949E+006    9.26269E+006    9.26269E+006    5.47224E+005    7.76424E+004    9.18505E+006   -3.29585E+006    8.93174E+006    1.94842E+005    9.25922E+006    4.33494E+005    1.06822E+005   -2.04144E+005   -1.37302E+005
            4790    4.44154E+006    4.43688E+006    4.43688E+006    1.25651E+005   -1.24397E+005    4.56128E+006   -1.47938E+006    4.42566E+006   -7.04511E+003    4.35665E+006    8.85300E+004    8.71202E+004   -1.37411E+005   -5.81353E+005
            4791    5.30544E+006    5.36127E+006    5.36127E+006    2.02914E+005   -7.99424E+004    5.44121E+006   -1.82808E+006    5.28843E+006    3.22848E+004    5.29572E+006    1.56230E+005    1.38315E+005   -1.53219E+005   -5.63646E+005
            4792    6.35662E+006    6.47257E+006    6.47257E+006    2.82702E+005   -3.86200E+004    6.51119E+006   -2.23888E+006    6.33831E+006    6.03869E+004    6.42852E+006    2.27745E+005    1.89753E+005   -1.60826E+005   -4.84995E+005
            4793    7.71934E+006    7.92217E+006    7.92217E+006    3.86751E+005    3.11971E+004    7.89098E+006   -2.78004E+006    7.70089E+006    1.21208E+005    7.88533E+006    3.33585E+005    2.56362E+005   -1.64975E+005   -4.58871E+005
            4794    9.23870E+006    9.56266E+006    9.56266E+006    5.35394E+005    1.26144E+005    9.43652E+006   -3.40807E+006    9.21827E+006    1.96645E+005    9.53298E+006    4.94574E+005    3.22210E+005   -1.58346E+005   -4.05145E+005
            4795    4.99035E+006    4.89539E+006    4.89539E+006    1.09845E+005   -2.77222E+005    5.17261E+006   -1.57600E+006    4.95641E+006    1.17584E+005    4.78134E+006   -1.70908E+005    1.93431E+005   -4.06460E+004   -7.31917E+005
            4796    5.94672E+006    5.86482E+006    5.86482E+006    1.18868E+005   -2.64137E+005    6.12896E+006   -1.90652E+006    5.91887E+006    1.32268E+005    5.77487E+006   -1.87587E+005    2.75486E+005   -3.57632E+004   -6.79653E+005
            4797    7.15218E+006    7.18613E+006    7.18613E+006    2.06349E+005   -1.26798E+005    7.31293E+006   -2.42190E+006    7.13469E+006    2.29006E+005    7.09010E+006   -5.34222E+004    3.95509E+005   -3.70532E+004   -7.27579E+005
            4798    8.35273E+006    8.59887E+006    8.59887E+006    2.98801E+005    1.94450E+005    8.40442E+006   -3.03071E+006    8.35126E+006    3.29403E+005    8.50038E+006    2.62330E+005    5.23648E+005   -2.99581E+004   -7.36051E+005
            4799    9.77264E+006    1.02980E+007    1.02980E+007    6.21546E+005    4.31857E+005    9.86611E+006   -3.78379E+006    9.76850E+006    4.83248E+005    1.01936E+007    6.74498E+005    6.77564E+005   -2.30585E+004   -7.42720E+005
            4800    5.73760E+006    5.32141E+006    5.32141E+006   -2.36257E+004   -7.41246E+005    6.06265E+006   -1.51885E+006    5.63531E+006   -2.93647E+004    5.30201E+006   -7.16113E+005    2.29211E+005    9.42680E+004   -2.44444E+005
            4801    7.24605E+006    6.79796E+006    6.79796E+006    9.05347E+004   -8.87384E+005    7.68535E+006   -2.00037E+006    7.09531E+006    8.40899E+004    6.74998E+006   -8.32957E+005    4.19880E+005    1.50538E+005   -4.16476E+005
            4802    8.47173E+006    8.17287E+006    8.17287E+006    1.62538E+005   -6.95023E+005    8.86789E+006   -2.54680E+006    8.37324E+006    1.34993E+005    8.07771E+006   -5.72320E+005    6.00665E+005    1.89400E+005   -6.77026E+005
            4803    9.79582E+006    9.83609E+006    9.83609E+006    4.06712E+005   -2.89066E+005    1.01252E+007   -3.31791E+006    9.73999E+006    3.05586E+005    9.68241E+006   -3.42638E+004    8.61895E+005    2.26337E+005   -8.84805E+005
            4804    1.10631E+007    1.15846E+007    1.15846E+007    9.25545E+005    1.57501E+005    1.14271E+007   -4.22256E+006    1.10029E+007    5.07064E+005    1.13612E+007    7.99383E+005    1.16860E+006    2.39888E+005   -1.06422E+006
            4805    1.28100E+007    1.42301E+007    1.42301E+007    2.96604E+006    2.95203E+005    1.39349E+007   -5.83045E+006    1.21597E+007    2.54876E+006    1.35828E+007    1.35974E+006    2.49785E+006    1.00967E+006   -1.41847E+006
            4806    1.15749E+007    1.20402E+007    1.20402E+007    2.03569E+006   -6.37407E+005    1.26776E+007   -4.47949E+006    1.08473E+007    1.82283E+006    1.16790E+007   -6.33337E+004    1.82558E+006    9.45626E+005   -8.17734E+005
            4807    1.01771E+007    1.00563E+007    1.00563E+007    1.40785E+006   -1.15824E+006    1.12145E+007   -3.43529E+006    9.40700E+006    1.27759E+006    9.86391E+006   -8.35620E+005    1.29916E+006    8.36749E+005   -1.56548E+005
            4808    8.77833E+006    8.38109E+006    8.38109E+006    9.82100E+005   -1.31842E+006    9.69951E+006   -2.68159E+006    8.05719E+006    9.01352E+005    8.24806E+006   -1.10463E+006    9.36475E+005    6.88864E+005    2.99444E+005
            4809    7.24914E+006    6.84751E+006    6.84751E+006    7.20456E+005   -1.15509E+006    8.00260E+006   -2.13763E+006    6.66971E+006    6.38348E+005    6.69109E+006   -9.16559E+005    6.42821E+005    5.95566E+005    7.70608E+005
            4810    6.10710E+006    5.65623E+006    5.65623E+006    5.21507E+005   -1.09714E+006    6.75337E+006   -1.69353E+006    5.59316E+006    4.12347E+005    5.36634E+006   -6.98089E+005    4.18105E+005    5.76920E+005    1.22441E+006
            4811    5.14864E+006    4.87062E+006    4.87062E+006    5.20947E+005   -8.14035E+005    5.68465E+006   -1.52584E+006    4.73520E+006    3.99986E+005    4.28001E+006   -1.02469E+005    2.83619E+005    5.60321E+005    1.63999E+006
            4812    4.19916E+006    4.05010E+006    4.05010E+006    7.84876E+004   -3.44575E+005    4.39467E+006   -1.26134E+006    4.15080E+006    4.10690E+004    3.95034E+006   -2.07402E+005    1.12482E+005    1.44572E+005    6.36852E+005
            4813    4.29789E+006    4.28933E+006    4.28933E+006    5.91610E+004   -7.32184E+004    4.36255E+006   -1.42509E+006    4.29330E+006    4.83223E+004    4.28410E+006   -5.71441E+004    9.11543E+004    4.16940E+004    1.18432E+005
            4814    4.54675E+006    4.31520E+006    4.31520E+006    2.39582E+004   -4.49946E+005    4.76514E+006   -1.29640E+006    4.49068E+006    1.36822E+004    4.30691E+006   -4.31383E+005    1.42373E+005    8.72451E+004    1.27353E+005
            4815    4.15218E+006    4.12271E+006    4.12271E+006    4.25192E+004   -9.78783E+004    4.22059E+006   -1.35579E+006    4.14683E+006    3.81441E+004    4.11930E+006   -9.00839E+004    7.15426E+004    2.58720E+004   -9.59816E+004
            4816    3.74847E+006    3.71128E+006    3.71128E+006    1.18378E+004   -8.43538E+004    3.79564E+006   -1.21292E+006    3.74569E+006    1.20964E+004    3.69375E+006   -6.70815E+004    4.67919E+004    2.47367E+003   -2.53017E+005
            4817    3.16032E+006    3.12684E+006    3.12684E+006   -3.81601E+003   -6.23472E+004    3.18918E+006   -1.02022E+006    3.15910E+006   -1.49334E+004    3.09635E+006   -2.07466E+004    2.44032E+004   -2.56422E+004   -3.08581E+005
            4818    2.55727E+006    2.53959E+006    2.53959E+006    2.27135E+004   -5.62627E+004    2.59585E+006   -8.35346E+005    2.55453E+006   -3.09091E+004    2.51690E+006    2.00469E+004    1.12183E+004   -3.80672E+004   -2.38632E+005
            4819    2.17313E+006    2.16707E+006    2.16707E+006    5.43547E+004   -6.18298E+004    2.22890E+006   -7.19864E+005    2.16613E+006   -4.12006E+004    2.16338E+006    3.74149E+004    2.42573E+003   -4.45308E+004   -8.85403E+004
            4820    4.53069E+006    4.32150E+006    4.32150E+006    2.43786E+004   -4.11268E+005    4.73277E+006   -1.31154E+006    4.48320E+006    2.38660E+004    4.28516E+006   -3.74411E+005    1.42279E+005    3.48799E+004   -3.86566E+005
            4821    4.15473E+006    4.05038E+006    4.05038E+006    2.54978E+004   -2.23033E+005    4.27341E+006   -1.28428E+006    4.13795E+006    2.62288E+004    3.94019E+006   -1.13578E+005    1.15038E+005   -4.54227E+004   -6.65830E+005
            4822    3.62967E+006    3.61040E+006    3.61040E+006    7.75774E+004   -1.08915E+005    3.71932E+006   -1.19302E+006    3.61886E+006   -4.73816E+003    3.52908E+006    5.47225E+004    6.05769E+004   -1.02905E+005   -5.32422E+005
            4823    3.24798E+006    3.29433E+006    3.29433E+006    1.91522E+005   -8.15761E+004    3.37591E+006   -1.13476E+006    3.22200E+006   -1.18262E+004    3.28178E+006    1.34326E+005    2.05865E+004   -1.20482E+005   -1.97269E+005
            4824    4.62522E+006    4.79565E+006    4.79565E+006    3.83441E+005   -1.65963E+004    4.81224E+006   -1.72083E+006    4.58605E+006    8.27379E+004    4.76802E+006    3.11734E+005   -1.29817E+005    1.80135E+005   -3.23184E+005
            4825    5.81720E+006    6.03259E+006    6.03259E+006    4.63948E+005   -4.81036E+003    6.03740E+006   -2.16391E+006    5.77448E+006    1.07169E+005    6.02052E+006    3.64033E+005   -1.32525E+005    2.03216E+005   -2.22441E+005
            4826    7.38412E+006    7.65325E+006    7.65325E+006    5.06021E+005    5.30897E+004    7.60016E+006   -2.73745E+006    7.35277E+006    1.79510E+005    7.63711E+006    3.95741E+005   -1.87928E+005    2.08100E+005   -2.82478E+005
            4827    8.98062E+006    9.34474E+006    9.34474E+006    6.02861E+005    1.43040E+005    9.20170E+006   -3.36355E+006    8.95408E+006    2.56369E+005    9.33415E+006    5.00119E+005   -2.18399E+005    2.00197E+005   -2.12433E+005
            4828    5.54434E+006    5.33967E+006    5.33967E+006   -7.06725E+004   -3.29599E+005    5.66927E+006   -1.64647E+006    5.53072E+006   -1.12736E+005    5.26806E+006   -2.15921E+005   -8.83326E+004    1.07675E+005   -6.22565E+005
            4829    7.15906E+006    7.03147E+006    7.03147E+006   -2.07116E+004   -2.29872E+005    7.26134E+006   -2.26030E+006    7.15218E+006   -3.80526E+004    6.95001E+006   -1.31073E+005   -2.44266E+005    9.43902E+004   -7.19856E+005
            4830    8.43396E+006    8.47142E+006    8.47142E+006    1.63929E+005   -8.35702E+004    8.55499E+006   -2.85059E+006    8.42579E+006   -4.23349E+004    8.38682E+006    2.07291E+005   -3.38973E+005    1.08926E+005   -7.62142E+005
            4831    9.95211E+006    1.02052E+007    1.02052E+007    5.12112E+005    1.29031E+004    1.01923E+007   -3.57675E+006    9.92388E+006    4.35163E+004    1.01269E+007    5.59820E+005   -4.86741E+005    9.44939E+004   -7.23837E+005
            4832    1.20576E+007    1.33745E+007    1.33745E+007    2.35869E+006    4.92678E+005    1.28818E+007   -5.40861E+006    1.17261E+007    1.99675E+006    1.28427E+007    1.38639E+006   -2.14418E+006   -6.80445E+005   -1.36336E+006
            4833    1.08224E+007    1.13333E+007    1.13333E+007    1.55976E+006   -2.97661E+005    1.16309E+007   -4.19846E+006    1.04548E+007    1.40004E+006    1.10172E+007    1.78114E+005   -1.58070E+006   -6.32801E+005   -9.47497E+005
            4834    9.44968E+006    9.46319E+006    9.46319E+006    1.02247E+006   -7.45675E+005    1.02089E+007   -3.24666E+006    9.06623E+006    9.72047E+005    9.27534E+006   -5.07406E+005   -1.15728E+006   -4.92766E+005   -6.14350E+005
            4835    8.00003E+006    7.77925E+006    7.77925E+006    6.88459E+005   -8.93607E+005    8.67286E+006   -2.52470E+006    7.63608E+006    6.49311E+005    7.68648E+006   -7.61681E+005   -8.11448E+005   -4.27180E+005   -1.09011E+005
            4836    6.76929E+006    6.32553E+006    6.32553E+006    4.95077E+005   -1.09831E+006    7.42384E+006   -1.90743E+006    6.32638E+006    3.94736E+005    6.24102E+006   -9.13465E+005   -5.22037E+005   -5.06533E+005    4.82144E+005
            4837    5.91581E+006    5.45758E+006    5.45758E+006    4.77013E+005   -1.08145E+006    6.53902E+006   -1.61771E+006    5.42438E+006    3.66325E+005    5.19472E+006   -7.07902E+005   -3.53380E+005   -5.37335E+005    1.16931E+006
            4838    5.14829E+006    4.90772E+006    4.90772E+006    5.29547E+005   -7.63981E+005    5.67170E+006   -1.55776E+006    4.76164E+006    4.11259E+005    4.36082E+006   -9.87921E+004   -2.98460E+005   -5.48111E+005    1.57721E+006
            4839    4.33976E+006    4.29451E+006    4.29451E+006    5.70203E+005   -4.71197E+005    4.76571E+006   -1.46451E+006    4.04403E+006    4.15838E+005    3.48063E+006    4.97055E+005   -2.13857E+005   -5.49802E+005    1.69694E+006
            4840    3.80552E+006    3.77107E+006    3.77107E+006    1.10919E+005   -1.64812E+005    3.93588E+006   -1.23906E+006    3.78294E+006    4.92753E+004    3.58059E+006    8.73098E+004   -9.40092E+004   -1.41631E+005    8.28237E+005
            4841    4.16262E+006    4.20025E+006    4.20025E+006    7.42087E+004    1.99604E+003    4.19826E+006   -1.42549E+006    4.16121E+006    5.63452E+004    4.18146E+006    3.86504E+004   -9.42164E+004   -3.83841E+004    2.62337E+005
            4842    4.22790E+006    4.06318E+006    4.06318E+006    3.84619E+004   -3.42164E+005    4.40535E+006   -1.25316E+006    4.18909E+006    1.26327E+004    3.97909E+006   -2.32244E+005   -9.73584E+004   -1.15234E+005    5.89586E+005
            4843    4.40854E+006    4.38628E+006    4.38628E+006    6.55797E+004   -1.05129E+005    4.49141E+006   -1.44891E+006    4.40109E+006    5.14963E+004    4.38202E+006   -8.67804E+004   -8.92162E+004   -5.17906E+004    1.03159E+005
            4844    4.66333E+006    4.38161E+006    4.38161E+006    2.91578E+004   -5.40309E+005    4.92191E+006   -1.29015E+006    4.58413E+006    1.57298E+004    4.37696E+006   -5.22235E+005   -1.39734E+005   -1.00250E+005    2.60080E+004
            4845    4.14882E+006    4.09813E+006    4.09813E+006    2.88135E+004   -1.25876E+005    4.22400E+006   -1.33369E+006    4.14233E+006    2.77803E+004    4.08920E+006   -1.15910E+005   -7.42281E+004   -1.58270E+004   -1.78996E+005
            4846    4.73725E+006    4.47811E+006    4.47811E+006   -2.57831E+004   -4.62298E+005    4.94040E+006   -1.33001E+006    4.69169E+006   -2.27358E+004    4.40005E+006   -3.87294E+005   -1.46066E+005    4.76451E+004   -5.95656E+005
            4847    3.51426E+006    3.49354E+006    3.49354E+006    1.44436E+004   -5.48447E+004    3.54839E+006   -1.15105E+006    3.51272E+006    1.49177E+004    3.46514E+006   -2.69177E+004   -4.19324E+004    2.23561E+003   -3.13351E+005
            4848    2.88092E+006    2.84345E+006    2.84345E+006   -4.38003E+003   -6.94599E+004    2.91291E+006   -9.23204E+005    2.87927E+006   -2.10456E+004    2.81031E+006   -1.96516E+004   -2.51024E+004    3.14140E+004   -3.06726E+005
            4849    2.32837E+006    2.32926E+006    2.32926E+006    7.68227E+004   -6.82592E+004    2.39752E+006   -7.79273E+005    2.31816E+006   -3.89333E+004    2.32008E+006    5.66687E+004   -6.05402E+003    5.87349E+004   -1.44055E+005
            4850    4.28994E+006    4.17295E+006    4.17295E+006    2.10577E+004   -2.42849E+005    4.41580E+006   -1.31705E+006    4.27162E+006   -7.80370E+003    4.05886E+006   -9.99007E+004   -9.13772E+004    1.01538E+005   -6.89639E+005
            4851    3.63792E+006    3.71321E+006    3.71321E+006    2.41466E+005   -7.07500E+004    3.78396E+006   -1.29464E+006    3.60759E+006    8.18595E+003    3.68902E+006    1.86727E+005   -4.50867E+004    1.39341E+005   -2.86870E+005
            4852    1.36574E+007    1.63319E+007    1.63319E+007    4.23444E+006    1.52177E+006    1.48102E+007   -7.36271E+006    1.30304E+007    3.41994E+006    1.53174E+007    3.35076E+006    3.27273E+006    9.17773E+005   -1.77824E+006
            4853    1.22744E+007    1.34010E+007    1.34010E+007    1.83988E+006    5.20117E+005    1.28809E+007   -5.25368E+006    1.21132E+007    8.10318E+005    1.31199E+007    1.83083E+006    1.52913E+006    2.26199E+005   -1.07813E+006
            4854    1.11620E+007    1.20332E+007    1.20332E+007    1.17091E+006    5.93874E+005    1.14394E+007   -4.59934E+006    1.11284E+007    6.62432E+005    1.19284E+007    1.20717E+006    8.55902E+005   -2.41864E+003   -6.61107E+005
            4855    1.08615E+007    1.13364E+007    1.13364E+007    7.11339E+005    2.53069E+005    1.10834E+007   -4.10028E+006    1.08397E+007    2.99993E+005    1.13100E+007    6.90808E+005    4.06126E+005   -1.29555E+005   -3.44314E+005
            4856    1.06671E+007    1.10489E+007    1.10489E+007    5.88260E+005    1.86669E+005    1.08623E+007   -3.94129E+006    1.06501E+007    2.83596E+005    1.10463E+007    4.93925E+005    1.30733E+005   -1.72119E+005   -1.00839E+005
            4857    1.40597E+007    1.80320E+007    1.80320E+007    5.76119E+006    2.69082E+006    1.53412E+007   -8.82800E+006    1.32736E+007    4.29242E+006    1.67300E+007    5.46161E+006    3.99774E+006    6.68018E+005   -1.51364E+006
            4858    1.31946E+007    1.49239E+007    1.49239E+007    2.87788E+006    8.21981E+005    1.41019E+007   -6.20792E+006    1.28269E+007    1.12056E+006    1.46129E+007    2.89032E+006    1.88176E+006    1.76720E+005   -8.33724E+005
            4859    1.23820E+007    1.36047E+007    1.36047E+007    1.73110E+006    7.70279E+005    1.28344E+007   -5.36869E+006    1.22977E+007    8.58619E+005    1.34987E+007    1.74878E+006    1.04680E+006    6.33832E+003   -4.87968E+005
            4860    1.22544E+007    1.28945E+007    1.28945E+007    9.14814E+005    3.82742E+005    1.25118E+007   -4.73070E+006    1.22284E+007    4.13052E+005    1.28703E+007    9.08779E+005    4.94022E+005   -8.42178E+004   -2.34533E+005
            4861    1.21335E+007    1.25949E+007    1.25949E+007    6.14688E+005    3.13749E+005    1.22811E+007   -4.50777E+006    1.21251E+007    3.66514E+005    1.25924E+007    5.64425E+005    1.56684E+005   -1.13670E+005   -7.57309E+004
            4862    1.41482E+007    1.89833E+007    1.89833E+007    6.92373E+006    3.40903E+006    1.55743E+007   -9.77202E+006    1.31109E+007    4.87315E+006    1.75460E+007    6.89688E+006    4.46579E+006    2.36641E+005   -6.11915E+005
            4863    1.36806E+007    1.57923E+007    1.57923E+007    3.53849E+006    1.03164E+006    1.47606E+007   -6.78746E+006    1.31488E+007    1.33749E+006    1.54832E+007    3.54173E+006    2.08619E+006    6.18907E+004   -3.22177E+005
            4864    1.30463E+007    1.44648E+007    1.44648E+007    2.04867E+006    8.68494E+005    1.35963E+007   -5.79399E+006    1.29254E+007    9.63499E+005    1.43675E+007    2.05094E+006    1.13091E+006    2.62814E+003   -1.77913E+005
            4865    1.30621E+007    1.38041E+007    1.38041E+007    1.04893E+006    4.55294E+005    1.33488E+007   -5.10277E+006    1.30317E+007    4.78076E+005    1.37815E+007    1.04870E+006    5.39529E+005   -2.73908E+004   -9.40168E+004
            4866    1.30025E+007    1.35250E+007    1.35250E+007    6.32094E+005    4.15529E+005    1.31095E+007   -4.85754E+006    1.29985E+007    4.25202E+005    1.35227E+007    6.24697E+005    1.70944E+005   -3.97639E+004   -2.37312E+004
            4867    4.27745E+006    4.23287E+006    4.23287E+006    5.68764E+005   -4.67514E+005    4.70039E+006   -1.44471E+006    3.98005E+006    4.20047E+005    3.39637E+006    5.17708E+005    2.16018E+005   -5.50907E+005   -1.69988E+006
            4868    3.70399E+006    3.67210E+006    3.67210E+006    1.10608E+005   -1.59589E+005    3.83169E+006   -1.20771E+006    3.68172E+006    4.41992E+004    3.47092E+006    1.07998E+005    8.57819E+004   -1.41950E+005   -8.38478E+005
            4869    4.04867E+006    4.07656E+006    4.07656E+006    7.49861E+004   -1.76132E+004    4.09417E+006   -1.37798E+006    4.04628E+006    5.34524E+004    4.05829E+006    2.21846E+004    9.37022E+004   -4.64606E+004   -2.54247E+005
            4870    3.26801E+006    3.43562E+006    3.43562E+006    6.29173E+005   -1.52274E+005    3.58789E+006   -1.30417E+006    3.04698E+006    3.92858E+005    2.56714E+006    9.52518E+005    1.31197E+005   -5.13388E+005   -1.41583E+006
            4871    3.11200E+006    3.20245E+006    3.20245E+006    2.30502E+005   -3.28591E+004    3.23531E+006   -1.13336E+006    3.08678E+006    6.68342E+004    3.02404E+006    3.09216E+005    6.82985E+004   -1.47535E+005   -7.11377E+005
            4872    3.59018E+006    3.63494E+006    3.63494E+006    8.30161E+004    7.68117E+003    3.62725E+006   -1.24188E+006    3.58840E+006    4.28517E+004    3.61785E+006    6.49297E+004    7.71107E+004   -4.25662E+004   -2.33763E+005
            4873    2.09281E+006    2.46714E+006    2.46714E+006    8.93644E+005    9.20113E+004    2.37513E+006   -1.15093E+006    1.69166E+006    3.50275E+005    1.94639E+006    1.15613E+006    6.31086E+004   -4.60974E+005   -7.78820E+005
            4874    2.56525E+006    2.73600E+006    2.73600E+006    3.77973E+005    4.47435E+003    2.73152E+006   -1.03948E+006    2.50298E+006    6.66209E+004    2.67325E+006    3.78578E+005    3.48344E+004   -1.45430E+005   -3.80679E+005
            4875    3.20137E+006    3.25542E+006    3.25542E+006    9.82275E+004    1.16307E+004    3.24379E+006   -1.12176E+006    3.19873E+006    3.78715E+004    3.25025E+006    7.71621E+004    4.20828E+004   -4.11688E+004   -1.20694E+005
            4876    1.43542E+006    1.71772E+006    1.71772E+006    1.36881E+006    1.40013E+005    1.57771E+006   -1.07551E+006   -1.33491E+006    3.19034E+005    1.71161E+006    1.19590E+006   -6.62822E+003   -4.34651E+005    4.64405E+004
            4877    2.36514E+006    2.57082E+006    2.57082E+006    4.53246E+005    1.84373E+004    2.55238E+006   -1.01417E+006    2.27260E+006    7.37633E+004    2.56962E+006    3.99117E+005   -2.20092E+003   -1.44975E+005    5.07262E+004
            4878    3.08199E+006    3.13338E+006    3.13338E+006    9.80135E+004    6.78581E+003    3.12659E+006   -1.07939E+006    3.07895E+006    3.29626E+004    3.13330E+006    7.19166E+004   -7.01120E+003   -4.12898E+004    1.39041E+004
            4879    2.23775E+006    2.59354E+006    2.59354E+006    8.43338E+005    7.21953E+004    2.52135E+006   -1.16969E+006    1.90238E+006    3.54332E+005    2.01598E+006    1.13876E+006   -6.60802E+004   -4.64803E+005    8.70509E+005
            4880    2.66751E+006    2.82614E+006    2.82614E+006    3.50615E+005    1.10510E+003    2.82504E+006   -1.05929E+006    2.61525E+006    6.86606E+004    2.74165E+006    3.67549E+005   -4.43872E+004   -1.47075E+005    4.50747E+005
            4881    3.27990E+006    3.33497E+006    3.33497E+006    9.65212E+004    1.51433E+004    3.31983E+006   -1.14888E+006    3.27762E+006    3.92834E+004    3.32660E+006    8.07526E+004   -5.16901E+004   -3.93018E+004    1.56230E+005
            4882    3.38336E+006    3.54204E+006    3.54204E+006    6.22943E+005   -1.66118E+005    3.70816E+006   -1.33296E+006    3.16625E+006    3.98315E+005    2.66896E+006    9.31595E+005   -1.46065E+005   -5.17028E+005    1.45509E+006
            4883    3.27331E+006    3.33717E+006    3.33717E+006    1.92084E+005   -5.08297E+004    3.38800E+006   -1.15948E+006    3.25294E+006    5.81571E+004    3.14139E+006    2.78880E+005   -6.98976E+004   -1.41791E+005    7.67051E+005
            4884    3.72301E+006    3.75637E+006    3.75637E+006    7.40267E+004   -6.03221E+003    3.76240E+006   -1.27479E+006    3.72108E+006    4.16206E+004    3.73824E+006    4.45013E+004   -8.83677E+004   -4.55458E+004    2.42791E+005
            4885    1.06588E+007    1.10381E+007    1.10381E+007    5.85679E+005    1.84171E+005    1.08539E+007   -3.93598E+006    1.06418E+007    2.81507E+005    1.10355E+007    4.90910E+005    1.30565E+005    1.72334E+005    9.96657E+004
            4886    1.08632E+007    1.13390E+007    1.13390E+007    7.11337E+005    2.54698E+005    1.10843E+007   -4.10168E+006    1.08416E+007    3.01954E+005    1.13124E+007    6.90666E+005    4.07552E+005    1.29810E+005    3.45666E+005
            4887    1.11796E+007    1.20553E+007    1.20553E+007    1.17717E+006    5.96832E+005    1.14585E+007   -4.60978E+006    1.11457E+007    6.66812E+005    1.19489E+007    1.21367E+006    8.63578E+005    9.60433E+002    6.66674E+005
            4888    1.22869E+007    1.34310E+007    1.34310E+007    1.86683E+006    5.30619E+005    1.29004E+007   -5.27615E+006    1.21218E+007    8.29512E+005    1.31448E+007    1.85417E+006    1.54531E+006   -2.33988E+005    1.08677E+006
            4889    1.36664E+007    1.63526E+007    1.63526E+007    4.25268E+006    1.52978E+006    1.48229E+007   -7.37837E+006    1.30350E+007    3.43154E+006    1.53343E+007    3.36927E+006    3.28195E+006   -9.20980E+005    1.77871E+006
            4890    1.21314E+007    1.25923E+007    1.25923E+007    6.13775E+005    3.13549E+005    1.22787E+007   -4.50654E+006    1.21231E+007    3.67070E+005    1.25898E+007    5.62710E+005    1.54349E+005    1.14220E+005    7.66428E+004
            4891    1.22503E+007    1.28867E+007    1.28867E+007    9.10032E+005    3.79894E+005    1.25068E+007   -4.72554E+006    1.22245E+007    4.10211E+005    1.28629E+007    9.03532E+005    4.88780E+005    8.53180E+004    2.33171E+005
            4892    1.23805E+007    1.35978E+007    1.35978E+007    1.72574E+006    7.64754E+005    1.28330E+007   -5.36275E+006    1.22962E+007    8.52543E+005    1.34923E+007    1.74339E+006    1.04329E+006   -6.66713E+003    4.87959E+005
            4893    1.32057E+007    1.49649E+007    1.49649E+007    2.91289E+006    8.48682E+005    1.41163E+007   -6.24217E+006    1.28352E+007    1.15595E+006    1.46459E+007    2.92463E+006    1.90820E+006   -1.79977E+005    8.40982E+005
            4894    1.40718E+007    1.80641E+007    1.80641E+007    5.79091E+006    2.70570E+006    1.53584E+007   -8.85357E+006    1.32785E+007    4.32216E+006    1.67505E+007    5.48804E+006    4.01587E+006   -6.71946E+005    1.52161E+006
            4895    1.29981E+007    1.35205E+007    1.35205E+007    6.32765E+005    4.14803E+005    1.31057E+007   -4.85602E+006    1.29940E+007    4.24242E+005    1.35182E+007    6.25583E+005    1.70268E+005    3.93244E+004    2.30587E+004
            4896    1.30633E+007    1.38016E+007    1.38016E+007    1.04231E+006    4.54147E+005    1.33474E+007   -5.09935E+006    1.30334E+007    4.76705E+005    1.37793E+007    1.04207E+006    5.36739E+005    2.72346E+004    9.33549E+004
            4897    1.30485E+007    1.44693E+007    1.44693E+007    2.05048E+006    8.71123E+005    1.35981E+007   -5.79696E+006    1.29278E+007    9.66371E+005    1.43718E+007    2.05273E+006    1.13269E+006   -1.26182E+003    1.75635E+005
            4898    1.36700E+007    1.57873E+007    1.57873E+007    3.55008E+006    1.03400E+006    1.47533E+007   -6.79045E+006    1.31338E+007    1.34088E+006    1.54772E+007    3.55323E+006    2.08991E+006   -6.03707E+004    3.15452E+005
            4899    1.41416E+007    1.89778E+007    1.89778E+007    6.92311E+006    3.41123E+006    1.55666E+007   -9.77072E+006    1.31055E+007    4.87837E+006    1.75383E+007    6.89546E+006    4.46750E+006   -2.39482E+005    6.13491E+005
            4900    7.24232E+006    6.84308E+006    6.84308E+006    7.19990E+005   -1.15122E+006    7.99429E+006   -2.13728E+006    6.66512E+006    6.37358E+005    6.68667E+006   -9.12181E+005    6.42001E+005   -5.95488E+005   -7.70697E+005
            4901    8.77483E+006    8.37519E+006    8.37519E+006    9.82876E+005   -1.32205E+006    9.69723E+006   -2.67867E+006    8.05042E+006    9.00257E+005    8.24224E+006   -1.10648E+006    9.34835E+005   -6.92122E+005   -3.02082E+005
            4902    1.01896E+007    1.00721E+007    1.00721E+007    1.41641E+006   -1.15775E+006    1.12299E+007   -3.44359E+006    9.41548E+006    1.28519E+006    9.87826E+006   -8.32680E+005    1.30479E+006   -8.40888E+005    1.57764E+005
            4903    1.15885E+007    1.20619E+007    1.20619E+007    2.04742E+006   -6.31389E+005    1.26933E+007   -4.49265E+006    1.08586E+007    1.83037E+006    1.16986E+007   -5.10081E+004    1.83224E+006   -9.50842E+005    8.21086E+005
            4904    1.28132E+007    1.42437E+007    1.42437E+007    2.97309E+006    3.07285E+005    1.39364E+007   -5.84135E+006    1.21656E+007    2.55498E+006    1.35924E+007    1.37664E+006    2.50475E+006   -1.00679E+006    1.42550E+006
            4905    1.10675E+007    1.15872E+007    1.15872E+007    9.22988E+005    1.56356E+005    1.14308E+007   -4.22218E+006    1.10075E+007    5.11252E+005    1.13636E+007    7.91705E+005    1.17050E+006   -2.41479E+005    1.06384E+006
            4906    9.77300E+006    1.02980E+007    1.02980E+007    6.23110E+005    4.29684E+005    9.86827E+006   -3.78358E+006    9.76869E+006    4.83496E+005    1.01929E+007    6.74368E+005    6.81564E+005    1.77249E+004    7.44195E+005
            4907    9.24361E+006    9.57014E+006    9.57014E+006    5.36663E+005    1.29834E+005    9.44031E+006   -3.41221E+006    9.22343E+006    1.99224E+005    9.53991E+006    4.97501E+005    3.27758E+005    1.56637E+005    4.07074E+005
            4908    8.95878E+006    9.26272E+006    9.26272E+006    5.48415E+005    7.79982E+004    9.18472E+006   -3.29638E+006    8.93093E+006    1.95899E+005    9.25919E+006    4.34044E+005    1.07689E+005    2.04811E+005    1.38515E+005
            4909    9.77628E+006    9.81039E+006    9.81039E+006    4.04251E+005   -2.98143E+005    1.01085E+007   -3.30550E+006    9.71927E+006    3.05446E+005    9.65772E+006   -4.66641E+004    8.59101E+005   -2.27258E+005    8.80255E+005
            4910    8.35241E+006    8.59272E+006    8.59272E+006    2.99259E+005    1.82588E+005    8.41013E+006   -3.02486E+006    8.35058E+006    3.30033E+005    8.49336E+006    2.51171E+005    5.24267E+005    2.95363E+004    7.40626E+005
            4911    7.72191E+006    7.92316E+006    7.92316E+006    3.82453E+005    3.19750E+004    7.89119E+006   -2.77920E+006    7.70399E+006    1.21022E+005    7.88574E+006    3.30827E+005    2.58075E+005    1.63128E+005    4.62793E+005
            4912    7.33536E+006    7.58813E+006    7.58813E+006    5.19334E+005    1.24883E+004    7.57564E+006   -2.70665E+006    7.29581E+006    1.28419E+005    7.58405E+006    4.07484E+005    8.78986E+004    2.13980E+005    1.45275E+005
            4913    8.44232E+006    8.13679E+006    8.13679E+006    1.59401E+005   -7.04084E+005    8.84087E+006   -2.53070E+006    8.34210E+006    1.32310E+005    8.04342E+006   -5.83624E+005    5.96242E+005   -1.89763E+005    6.67350E+005
            4914    7.13721E+006    7.16427E+006    7.16427E+006    2.03529E+005   -1.37202E+005    7.30147E+006   -2.41020E+006    7.11887E+006    2.25964E+005    7.06857E+006   -6.39380E+004    3.94315E+005    3.31246E+004    7.25950E+005
            4915    6.37884E+006    6.49399E+006    6.49399E+006    2.80219E+005   -3.80003E+004    6.53199E+006   -2.24540E+006    6.36094E+006    6.23753E+004    6.44874E+006    2.25094E+005    1.92889E+005    1.60798E+005    4.92421E+005
            4916    5.98075E+006    6.19066E+006    6.19066E+006    4.75901E+005   -2.46375E+004    6.21529E+006   -2.21397E+006    5.93336E+006    8.12106E+004    6.18350E+006    3.77210E+005    7.00069E+004    2.06121E+005    1.89727E+005
            4917    7.24075E+006    6.79039E+006    6.79039E+006    9.18159E+004   -8.91951E+005    7.68234E+006   -1.99675E+006    7.08806E+006    8.56337E+004    6.74271E+006   -8.38089E+005    4.20181E+005   -1.50755E+005    4.12905E+005
            4918    5.94263E+006    5.85999E+006    5.85999E+006    1.19957E+005   -2.66397E+005    6.12638E+006   -1.90452E+006    5.91428E+006    1.33357E+005    5.77000E+006   -1.89809E+005    2.75286E+005    3.53882E+004    6.79714E+005
            4919    5.32143E+006    5.37563E+006    5.37563E+006    1.98850E+005   -7.95249E+004    5.45516E+006   -1.83165E+006    5.30501E+006    3.24858E+004    5.31064E+006    1.51836E+005    1.40949E+005    1.51523E+005    5.61549E+005
            4920    4.90726E+006    5.07397E+006    5.07397E+006    4.14455E+005   -4.82486E+004    5.12222E+006   -1.81339E+006    4.85782E+006    4.77606E+004    5.06535E+006    3.27070E+005    5.25040E+004    1.89422E+005    1.93664E+005
            4921    5.73727E+006    5.31967E+006    5.31967E+006   -2.31364E+004   -7.43943E+005    6.06361E+006   -1.51753E+006    5.63405E+006   -2.89220E+004    5.30028E+006   -7.18768E+005    2.30592E+005   -9.50603E+004    2.42927E+005
            4922    4.98167E+006    4.89098E+006    4.89098E+006    1.10196E+005   -2.69811E+005    5.16079E+006   -1.57712E+006    4.94890E+006    1.17726E+005    4.77640E+006   -1.62767E+005    1.92690E+005    4.31295E+004    7.32886E+005
            4923    4.45252E+006    4.44524E+006    4.44524E+006    1.23583E+005   -1.27516E+005    4.57276E+006   -1.48044E+006    4.43655E+006   -8.76414E+003    4.36540E+006    8.46688E+004    8.54678E+004    1.37749E+005    5.81011E+005
            4924    4.05620E+006    4.17314E+006    4.17314E+006    3.24473E+005   -6.28076E+004    4.23595E+006   -1.47827E+006    4.01428E+006    2.70081E+004    4.15941E+006    2.48389E+005    4.01776E+004    1.65683E+005    2.27042E+005
            4925    3.26752E+006    3.31448E+006    3.31448E+006    1.93013E+005   -8.17542E+004    3.39623E+006   -1.14191E+006    3.24138E+006   -1.11705E+004    3.30177E+006    1.35138E+005    2.10105E+004    1.21468E+005    1.99052E+005
            4926    2.17910E+006    2.17286E+006    2.17286E+006    5.44370E+004   -6.22235E+004    2.23509E+006   -7.21692E+005    2.17206E+006   -4.12296E+004    2.16916E+006    3.71502E+004    2.21082E+003    4.49399E+004    8.88887E+004
            4927    3.62784E+006    3.60943E+006    3.60943E+006    7.96610E+004   -1.09106E+005    3.71854E+006   -1.19333E+006    3.61676E+006   -5.06163E+003    3.52800E+006    5.70517E+004    6.03860E+004    1.04164E+005    5.32546E+005
            4928    2.56205E+006    2.54494E+006    2.54494E+006    2.36578E+004   -5.60172E+004    2.60096E+006   -8.37528E+005    2.55926E+006   -3.02495E+004    2.52196E+006    2.08763E+004    1.17173E+004    3.85208E+004    2.40388E+005
            4929    4.14688E+006    4.04277E+006    4.04277E+006    2.45158E+004   -2.21758E+005    4.26453E+006   -1.28184E+006    4.13038E+006    2.49933E+004    3.93205E+006   -1.11514E+005    1.14143E+005    4.61945E+004    6.66848E+005
            4930    3.16426E+006    3.12949E+006    3.12949E+006   -5.14091E+003   -6.35801E+004    3.19307E+006   -1.02026E+006    3.16305E+006   -1.52866E+004    3.09925E+006   -2.31860E+004    2.44389E+004    2.48209E+004    3.07637E+005
            4931    4.52724E+006    4.31970E+006    4.31970E+006    2.53026E+004   -4.09079E+005    4.72877E+006   -1.31197E+006    4.48000E+006    2.47442E+004    4.28302E+006   -3.71842E+005    1.42842E+005   -3.50844E+004    3.88185E+005
            4932    3.74593E+006    3.71099E+006    3.71099E+006    1.24627E+004   -8.06205E+004    3.79161E+006   -1.21428E+006    3.74333E+006    1.27437E+004    3.69354E+006   -6.34550E+004    4.64475E+004   -2.14945E+003    2.52314E+005
            4933    4.15546E+006    4.12468E+006    4.12468E+006    4.16877E+004   -9.96476E+004    4.22433E+006   -1.35557E+006    4.15005E+006    3.74519E+004    4.12128E+006   -9.20166E+004    7.18988E+004   -2.56711E+004    9.52308E+004
            4934    4.29632E+006    4.28849E+006    4.28849E+006    6.00368E+004   -7.26186E+004    4.36111E+006   -1.42530E+006    4.29171E+006    4.89614E+004    4.28301E+006   -5.60663E+004    9.10662E+004   -4.21496E+004   -1.22768E+005
            4935    4.54476E+006    4.31276E+006    4.31276E+006    2.44084E+004   -4.51029E+005    4.76379E+006   -1.29538E+006    4.48830E+006    1.39928E+004    4.30428E+006   -4.32129E+005    1.42290E+005   -8.78709E+004   -1.30896E+005
            4936    4.19020E+006    4.04234E+006    4.04234E+006    7.70463E+004   -3.41367E+005    4.38371E+006   -1.25934E+006    4.14280E+006    4.00048E+004    3.94175E+006   -2.03737E+005    1.11529E+005   -1.43171E+005   -6.38982E+005
            4937    5.15129E+006    4.87315E+006    4.87315E+006    5.21911E+005   -8.14706E+005    5.68785E+006   -1.52678E+006    4.73700E+006    4.02078E+005    4.28248E+006   -1.04208E+005    2.84379E+005   -5.59572E+005   -1.64066E+006
            4938    6.11393E+006    5.65856E+006    5.65856E+006    5.20384E+005   -1.10332E+006    6.76188E+006   -1.69187E+006    5.59720E+006    4.11053E+005    5.36889E+006   -7.04324E+005    4.17509E+005   -5.77610E+005   -1.22505E+006
            4939    7.52578E+006    7.26631E+006    7.26631E+006    1.20491E+006   -1.15715E+006    8.42346E+006   -2.43802E+006    6.61124E+006    1.20959E+006    7.06954E+006   -9.65064E+005   -1.07959E+006    5.96912E+005    2.94557E+005
            4940    8.70819E+006    8.72852E+006    8.72852E+006    1.69968E+006   -1.01320E+006    9.74171E+006   -3.13834E+006    7.66728E+006    1.73504E+006    8.38898E+006   -7.09009E+005   -1.43417E+006    6.56250E+005    7.87250E+005
            4941    9.86858E+006    1.04198E+007    1.04198E+007    2.36269E+006   -5.87349E+005    1.10072E+007   -4.06505E+006    8.79132E+006    2.40528E+006    9.88282E+006   -9.29476E+004   -1.87300E+006    7.61175E+005    1.19596E+006
            4942    1.08071E+007    1.22994E+007    1.22994E+007    3.27459E+006    3.23255E+005    1.19762E+007   -5.29909E+006    9.83735E+006    3.33038E+006    1.14791E+007    1.08779E+006   -2.38024E+006    7.84193E+005    1.65801E+006
            4943    1.08588E+007    1.24326E+007    1.24326E+007    1.91207E+006    1.26453E+006    1.11681E+007   -5.20307E+006    1.08152E+007    1.57682E+006    1.21259E+007    1.90651E+006   -1.77866E+006    4.77337E+004    4.09083E+005
            4944    1.02849E+007    1.13988E+007    1.13988E+007    1.64704E+006    6.53038E+005    1.07458E+007   -4.56631E+006    1.01760E+007    8.14714E+005    1.13910E+007    1.49319E+006   -2.60905E+005   -3.63661E+005    1.08668E+005
            4945    9.16106E+006    1.01833E+007    1.01833E+007    1.24512E+006    8.14541E+005    9.36876E+006   -4.08099E+006    9.13825E+006    1.03700E+006    9.94837E+006    1.25759E+006   -1.39353E+006   -4.03870E+003    4.48662E+005
            4946    8.38952E+006    9.16798E+006    9.16798E+006    1.33505E+006    3.15114E+005    8.85286E+006   -3.60605E+006    8.24831E+006    5.17820E+005    9.16009E+006    1.14024E+006   -1.86045E+005   -4.07751E+005    1.67750E+005
            4947    7.68018E+006    8.21737E+006    8.21737E+006    6.16331E+005    4.60428E+005    7.75694E+006   -3.09804E+006    7.67661E+006    6.05071E+005    8.05368E+006    6.35380E+005   -1.03607E+006   -3.35853E+004    4.10077E+005
            4948    6.60677E+006    7.12904E+006    7.12904E+006    1.08445E+006    7.60368E+004    7.05300E+006   -2.76318E+006    6.43020E+006    2.99312E+005    7.12450E+006    8.65722E+005   -1.05971E+005   -4.19709E+005    1.27964E+005
            4949    5.97545E+006    6.18505E+006    6.18505E+006    2.64627E+005    1.56057E+005    6.02899E+006   -2.20191E+006    5.97323E+006    2.45615E+005    6.09051E+006    2.69608E+005   -6.65789E+005   -7.50615E+004    3.34709E+005
            4950    5.17763E+006    5.48146E+006    5.48146E+006    8.14840E+005   -8.83377E+004    5.56980E+006   -2.06932E+006    4.99577E+006    1.58261E+005    5.46859E+006    5.81112E+005   -3.97369E+004   -4.04547E+005    2.44433E+005
            4951    4.05001E+006    4.15648E+006    4.15648E+006    4.89332E+005   -1.90371E+005    4.34685E+006   -1.48515E+006    3.91859E+006    3.42551E+004    4.14060E+006    2.80587E+005   -8.15524E+004   -3.24276E+005    2.27963E+005
            4952    2.64328E+006    2.58783E+006    2.58783E+006    1.31665E+005   -2.09459E+005    2.79728E+006   -8.36678E+005    2.59307E+006   -1.47443E+005    2.58362E+006    7.38591E+004   -4.22009E+004   -1.32552E+005    9.24220E+004
            4953    4.50029E+006    4.53998E+006    4.53998E+006    1.65143E+005   -7.60636E+004    4.61605E+006   -1.54302E+006    4.48572E+006    4.85412E+004    4.46913E+006    1.11391E+005   -3.06703E+005   -1.52049E+005    4.59479E+005
            4954    3.07175E+006    3.01463E+006    3.01463E+006    3.34261E+004   -1.40295E+005    3.15493E+006   -9.69255E+005    3.06067E+006   -8.58614E+004    2.99395E+006   -3.20145E+002   -9.25492E+004   -8.65707E+004    2.29790E+005
            4955    3.65330E+006    3.60157E+006    3.60157E+006    1.51141E+004   -1.15089E+005    3.71666E+006   -1.16720E+006    3.64807E+006    3.20853E+003    3.57820E+006   -7.98106E+004   -1.52007E+005   -5.59606E+004    2.47415E+005
            4956    4.15406E+006    4.14568E+006    4.14568E+006    1.06474E+005   -1.14419E+005    4.26009E+006   -1.37924E+006    4.14081E+006    1.07210E+005    4.12996E+006   -9.94431E+004   -2.23503E+005    4.27277E+004    1.21469E+005
            4957    4.32633E+006    4.35253E+006    4.35253E+006    1.98659E+005   -1.27782E+005    4.48031E+006   -1.47447E+006    4.29849E+006    1.82232E+005    4.33616E+006   -9.49872E+004   -2.38147E+005    1.00550E+005   -1.05181E+005
            4958    3.98888E+006    4.10044E+006    4.10044E+006    2.50577E+005   -1.42564E+004    4.11470E+006   -1.44559E+006    3.96903E+006    2.27107E+005    4.07403E+006    3.56207E+004   -2.23674E+005    1.04746E+005   -2.28040E+005
            4959    4.69776E+006    4.71419E+006    4.71419E+006    2.43167E+005   -1.81472E+005    4.89566E+006   -1.59196E+006    4.65429E+006    1.87657E+005    4.64960E+006   -6.13683E+004   -4.46870E+005    1.48902E+005    3.27256E+005
            4960    4.60809E+006    4.44869E+006    4.44869E+006    3.62785E+005   -5.46139E+005    4.99482E+006   -1.42178E+006    4.39958E+006    2.18361E+005    4.40561E+006   -3.58643E+005   -3.93881E+005    3.77956E+005   -1.39566E+005
            4961    4.12230E+006    4.06946E+006    4.06946E+006    4.88968E+005   -4.37107E+005    4.50657E+006   -1.37377E+006    3.87775E+006    2.98520E+005    3.95162E+006   -1.28821E+005   -2.98701E+005    4.44921E+005   -5.89609E+005
            4962    3.65270E+006    3.70309E+006    3.70309E+006    5.61657E+005   -3.04988E+005    4.00808E+006   -1.31992E+006    3.40967E+006    3.46452E+005    3.51011E+006    1.03203E+005   -2.47851E+005    4.55121E+005   -7.52568E+005
            4963    4.05146E+006    3.63793E+006    3.63793E+006    7.33656E+005   -9.90397E+005    4.62833E+006   -1.12706E+006    3.04512E+006    6.62016E+005    3.03391E+006   -3.14737E+005   -2.84460E+005    6.30147E+005   -1.42403E+006
            4964    4.92763E+006    4.27741E+006    4.27741E+006    7.44956E+005   -1.35183E+006    5.62924E+006   -1.22351E+006    3.70384E+006    6.81733E+005    3.87436E+006   -8.85551E+005   -4.18751E+005    6.72956E+005   -1.25749E+006
            4965    5.73831E+006    4.90366E+006    4.90366E+006    7.37513E+005   -1.64155E+006    6.54521E+006   -1.33321E+006    4.40397E+006    6.80404E+005    4.67612E+006   -1.35689E+006   -5.62590E+005    6.86355E+005   -8.77252E+005
            4966    6.52902E+006    5.91065E+006    5.91065E+006    8.57094E+005   -1.46116E+006    7.37181E+006   -1.76886E+006    5.48113E+006    8.23907E+005    5.76125E+006   -1.27857E+006   -8.23126E+005    6.45931E+005   -2.34859E+005
            4967    1.22828E+007    1.37456E+007    1.37456E+007    1.91824E+006    1.05302E+006    1.26926E+007   -5.57228E+006    1.22140E+007    1.16478E+006    1.37349E+007    1.81722E+006   -3.56079E+005   -2.81034E+005    8.05375E+004
            4968    1.24990E+007    1.47207E+007    1.47207E+007    2.64215E+006    1.83988E+006    1.28808E+007   -6.40091E+006    1.24409E+007    2.23380E+006    1.43366E+007    2.63231E+006   -2.16028E+006    6.34950E+004    3.64693E+005
            4969    1.13215E+007    1.41187E+007    1.41187E+007    4.33179E+006    1.71941E+006    1.23993E+007   -6.72331E+006    1.06111E+007    4.41086E+006    1.29994E+007    2.75962E+006   -2.91222E+006    7.03248E+005    1.87764E+006
            4970    1.39757E+007    1.57557E+007    1.57557E+007    2.13931E+006    1.44643E+006    1.43093E+007   -6.44714E+006    1.39370E+007    1.50635E+006    1.57421E+007    2.09295E+006   -4.35747E+005   -1.75192E+005    5.15650E+004
            4971    1.38654E+007    1.66664E+007    1.66664E+007    3.27060E+006    2.37489E+006    1.42915E+007   -7.43731E+006    1.38001E+007    2.82777E+006    1.62215E+007    3.26267E+006   -2.46941E+006    6.02617E+004    2.50789E+005
            4972    1.12981E+007    1.55532E+007    1.55532E+007    5.34931E+006    3.41145E+006    1.21417E+007   -8.10464E+006    1.09148E+007    5.47113E+006    1.42535E+007    4.58926E+006   -3.35922E+006    4.97432E+005    1.57048E+006
            4973    1.49657E+007    1.69409E+007    1.69409E+007    2.26564E+006    1.70079E+006    1.52401E+007   -6.96910E+006    1.49417E+007    1.72228E+006    1.69253E+007    2.25976E+006   -4.86776E+005   -5.82226E+004    2.08420E+004
            4974    1.46512E+007    1.77953E+007    1.77953E+007    3.62047E+006    2.71021E+006    1.50851E+007   -8.04200E+006    1.45874E+007    3.18980E+006    1.73165E+007    3.61969E+006   -2.64314E+006    1.86252E+004    8.64987E+004
            4975    1.10223E+007    1.63204E+007    1.63204E+007    5.96067E+006    4.73747E+006    1.15829E+007   -9.00616E+006    1.08680E+007    6.16694E+006    1.49985E+007    5.85301E+006   -3.62052E+006    1.81403E+005    6.32384E+005
            4976    3.88112E+006    3.97450E+006    3.97450E+006    2.45310E+005   -4.25354E+004    4.01703E+006   -1.39242E+006    3.85700E+006    2.15498E+005    3.94854E+006    1.32317E+004    2.17414E+005    1.15369E+005    2.23446E+005
            4977    3.53727E+006    3.58960E+006    3.58960E+006    5.78426E+005   -3.05948E+005    3.89555E+006   -1.28736E+006    3.27439E+006    3.61867E+005    3.38651E+006    1.13705E+005    2.30812E+005    4.60982E+005    7.64707E+005
            4978    4.00168E+006    3.56806E+006    3.56806E+006    7.20276E+005   -1.00718E+006    4.57524E+006   -1.09372E+006    2.97035E+006    6.47310E+005    2.96023E+006   -3.26379E+005    2.75527E+005    6.30581E+005    1.41928E+006
            4979    3.37107E+006    3.48109E+006    3.48109E+006    2.45421E+005   -1.07516E+004    3.49184E+006   -1.23859E+006    3.34906E+006    2.00649E+005    3.45980E+006    5.53108E+004    1.68651E+005    1.14871E+005    2.01904E+005
            4980    2.90858E+006    3.05691E+006    3.05691E+006    6.26594E+005   -1.65744E+005    3.22265E+006   -1.17259E+006    2.64898E+006    3.66749E+005    2.89322E+006    2.57786E+005    1.58124E+005    4.26291E+005    6.24348E+005
            4981    2.98203E+006    2.81434E+006    2.81434E+006    6.87119E+005   -5.94202E+005    3.40854E+006   -9.69084E+005    2.22267E+006    5.89424E+005    2.17678E+006    1.41044E+005    1.62816E+005    5.55335E+005    1.21864E+006
            4982    2.94475E+006    3.05707E+006    3.05707E+006    2.42728E+005   -2.71051E+003    3.05978E+006   -1.09903E+006    2.92160E+006    1.80469E+005    3.05044E+006    6.61810E+004    8.86468E+004    1.11644E+005    1.04506E+005
            4983    2.36614E+006    2.56773E+006    2.56773E+006    6.74993E+005   -8.50388E+004    2.65277E+006   -1.05256E+006    2.06345E+006    3.52229E+005    2.51232E+006    2.93130E+005    7.57305E+004    3.92340E+005    3.27862E+005
            4984    1.85124E+006    1.95516E+006    1.95516E+006    7.12367E+005   -1.72459E+005    2.12761E+006   -8.31688E+005    1.22031E+006    5.03122E+005    1.59780E+006    3.94142E+005    7.12790E+004    4.80199E+005    6.80829E+005
            4985    2.81185E+006    2.91784E+006    2.91784E+006    2.38774E+005   -1.02278E+004    2.92807E+006   -1.04880E+006    2.78688E+006    1.70536E+005    2.91775E+006    5.81007E+004   -1.15605E+004    1.11133E+005   -1.04714E+004
            4986    2.17191E+006    2.39529E+006    2.39529E+006    7.04083E+005   -5.40765E+004    2.44936E+006   -1.01510E+006    1.83668E+006    3.48064E+005    2.39415E+006    3.03077E+005   -7.83152E+003    3.78660E+005   -4.58220E+004
            4987    1.19650E+006    1.36275E+006    1.36275E+006    9.08191E+005    5.58425E+003    1.35717E+006   -7.58842E+005   -9.71592E+005    4.54361E+005    1.36200E+006    4.60171E+005   -6.50926E+003    4.51618E+005   -1.86996E+004
            4988    3.01096E+006    3.12866E+006    3.12866E+006    2.45368E+005    4.48967E+003    3.12417E+006   -1.12617E+006    2.98917E+006    1.86156E+005    3.11869E+006    7.36693E+004   -1.08790E+005    1.11008E+005   -1.30580E+005
            4989    2.46866E+006    2.66045E+006    2.66045E+006    6.61727E+005   -9.90567E+004    2.75951E+006   -1.07437E+006    2.18055E+006    3.52831E+005    2.58484E+006    2.85452E+005   -9.75266E+004    3.97655E+005   -3.89264E+005
            4990    1.94573E+006    2.03819E+006    2.03819E+006    7.04820E+005   -1.94530E+005    2.23272E+006   -8.49493E+005    1.34328E+006    5.13221E+005    1.64652E+006    3.88734E+005   -8.24991E+004    4.84847E+005   -7.34681E+005
            4991    3.50121E+006    3.59354E+006    3.59354E+006    2.29996E+005   -3.07578E+004    3.62430E+006   -1.26426E+006    3.47927E+006    1.90044E+005    3.57012E+006    3.26145E+004   -1.87929E+005    1.14883E+005   -2.09057E+005
            4992    3.06601E+006    3.20546E+006    3.20546E+006    6.20340E+005   -1.81917E+005    3.38738E+006   -1.21463E+006    2.81497E+006    3.74740E+005    3.02507E+006    2.44072E+005   -1.72570E+005    4.30509E+005   -6.75129E+005
            4993    3.04943E+006    2.88885E+006    2.88885E+006    6.97951E+005   -5.93854E+005    3.48270E+006   -9.97648E+005    2.30067E+006    6.02133E+005    2.25405E+006    1.36757E+005   -1.78353E+005    5.63169E+005   -1.22989E+006
            4994    1.13236E+007    1.41223E+007    1.41223E+007    4.33252E+006    1.72106E+006    1.24012E+007   -6.72529E+006    1.06139E+007    4.41125E+006    1.30020E+007    2.76263E+006   -2.91327E+006   -7.02569E+005   -1.87978E+006
            4995    1.25153E+007    1.47381E+007    1.47381E+007    2.64391E+006    1.84043E+006    1.28977E+007   -6.40749E+006    1.24571E+007    2.23102E+006    1.43563E+007    2.63516E+006   -2.15762E+006   -6.02986E+004   -3.51670E+005
            4996    1.23099E+007    1.37774E+007    1.37774E+007    1.92129E+006    1.05919E+006    1.27182E+007   -5.58597E+006    1.22417E+007    1.16943E+006    1.37668E+007    1.82172E+006   -3.55720E+005    2.78661E+005   -7.91680E+004
            4997    1.12877E+007    1.55578E+007    1.55578E+007    5.35824E+006    3.43020E+006    1.21276E+007   -8.11541E+006    1.09080E+007    5.47941E+006    1.42576E+007    4.60923E+006   -3.36078E+006   -4.93376E+005   -1.56482E+006
            4998    1.38789E+007    1.66675E+007    1.66675E+007    3.25306E+006    2.36663E+006    1.43008E+007   -7.42905E+006    1.38150E+007    2.81711E+006    1.62248E+007    3.24522E+006   -2.46413E+006   -5.94562E+004   -2.49568E+005
            4999    1.39874E+007    1.57688E+007    1.57688E+007    2.14004E+006    1.44847E+006    1.43203E+007   -6.45244E+006    1.39488E+007    1.50748E+006    1.57553E+007    2.09449E+006   -4.34186E+005    1.73657E+005   -5.26849E+004
            5000    1.10135E+007    1.63204E+007    1.63204E+007    5.96502E+006    4.74960E+006    1.15708E+007   -9.01168E+006    1.08611E+007    6.17221E+006    1.49991E+007    5.86373E+006   -3.62143E+006   -1.75891E+005   -6.13364E+005
            5001    1.46571E+007    1.77919E+007    1.77919E+007    3.60817E+006    2.70342E+006    1.50885E+007   -8.03449E+006    1.45940E+007    3.18238E+006    1.73140E+007    3.60708E+006   -2.64057E+006   -2.20124E+004   -9.72550E+004
            5002    1.49640E+007    1.69397E+007    1.69397E+007    2.26628E+006    1.70108E+006    1.52386E+007   -6.96902E+006    1.49400E+007    1.72224E+006    1.69242E+007    2.26063E+006   -4.85065E+005    5.70826E+004   -1.96805E+004
            5003    4.52839E+006    4.71930E+006    4.71930E+006    6.38983E+005   -1.52755E+005    4.87205E+006   -1.73517E+006    4.36859E+006    7.92209E+004    4.71165E+006    4.14653E+005    6.49011E+004   -3.62538E+005   -1.64682E+005
            5004    5.51778E+006    5.88509E+006    5.88509E+006    8.93806E+005   -4.00211E+004    5.92511E+006   -2.24629E+006    5.33564E+006    1.89818E+005    5.87926E+006    6.69802E+005    1.03077E+005   -4.03814E+005   -1.36177E+005
            5005    6.76944E+006    7.34065E+006    7.34065E+006    1.13857E+006    1.19425E+005    7.22123E+006   -2.86622E+006    6.59352E+006    3.37476E+005    7.33545E+006    9.25726E+005    1.47222E+005   -4.18184E+005   -1.07439E+005
            5006    8.37250E+006    9.18806E+006    9.18806E+006    1.38050E+006    3.46632E+005    8.84142E+006   -3.63840E+006    8.22705E+006    5.47923E+005    9.18299E+006    1.18427E+006    1.92776E+005   -4.07679E+005   -6.87782E+004
            5007    1.02504E+007    1.13609E+007    1.13609E+007    1.62169E+006    6.66243E+005    1.06947E+007   -4.54962E+006    1.01495E+007    8.34618E+005    1.13549E+007    1.45937E+006    2.42429E+005   -3.60711E+005   -6.03643E+004
            5008    4.76508E+006    4.95010E+006    4.95010E+006    4.48280E+005   -4.05666E+004    4.99066E+006   -1.78594E+006    4.70817E+006    1.48514E+005    4.89162E+006    3.17673E+005    2.91023E+005   -2.60236E+005   -4.18496E+005
            5009    5.75330E+006    6.12305E+006    6.12305E+006    6.85023E+005    9.92863E+004    6.02376E+006   -2.30245E+006    5.68563E+006    2.83990E+005    6.06696E+006    5.56403E+005    4.01341E+005   -2.86799E+005   -3.78078E+005
            5010    6.98211E+006    7.57759E+006    7.57759E+006    9.48226E+005    2.89437E+005    7.28815E+006   -2.93842E+006    6.91166E+006    4.62149E+005    7.52342E+006    8.29678E+005    5.34478E+005   -2.86571E+005   -2.85755E+005
            5011    8.54805E+006    9.44456E+006    9.44456E+006    1.26142E+006    5.73217E+005    8.87135E+006   -3.75973E+006    8.48538E+006    7.35161E+005    9.38068E+006    1.16336E+006    6.93061E+005   -2.69743E+005   -2.47373E+005
            5012    1.03149E+007    1.15936E+007    1.15936E+007    1.64559E+006    9.47220E+005    1.06463E+007   -4.72879E+006    1.02615E+007    1.09227E+006    1.15193E+007    1.57477E+006    8.51863E+005   -2.34964E+005   -2.07271E+005
            5013    5.15814E+006    5.22009E+006    5.22009E+006    1.61574E+005   -3.22130E+004    5.25230E+006   -1.78315E+006    5.14994E+006    1.82014E+005    5.13319E+006    3.42433E+004    4.08248E+005   -9.15454E+004   -5.20774E+005
            5014    6.22176E+006    6.42999E+006    6.42999E+006    2.71074E+005    1.47224E+005    6.28276E+006   -2.28276E+006    6.21899E+006    3.34026E+005    6.33650E+006    1.77762E+005    6.21832E+005   -5.38117E+004   -4.28005E+005
            5015    7.56583E+006    8.04016E+006    8.04016E+006    5.04913E+005    4.44121E+005    7.59604E+006   -2.99640E+006    7.56528E+006    5.96646E+005    7.90985E+006    4.82705E+005    8.78143E+005   -2.82202E+004   -4.46029E+005
            5016    8.97249E+006    9.86165E+006    9.86165E+006    1.00265E+006    7.79830E+005    9.08182E+006   -3.88138E+006    8.96626E+006    9.46835E+005    9.68996E+006    1.00734E+006    1.15326E+006    2.50648E+003   -4.46649E+005
            5017    1.06166E+007    1.20322E+007    1.20322E+007    1.64385E+006    1.20134E+006    1.08309E+007   -4.95914E+006    1.05958E+007    1.42488E+006    1.18091E+007    1.64345E+006    1.46642E+006    2.94795E+004   -4.64687E+005
            5018    5.74925E+006    5.61176E+006    5.61176E+006    4.65208E+005   -5.93129E+005    6.20489E+006   -1.82795E+006    5.52368E+006    4.21119E+005    5.51234E+006   -4.49619E+005    7.17431E+005    3.53293E+005   -8.84245E+004
            5019    7.22163E+006    7.17875E+006    7.17875E+006    7.78451E+005   -6.50553E+005    7.82930E+006   -2.43555E+006    6.89268E+006    7.68781E+005    6.99277E+006   -4.54902E+005    1.07579E+006    4.45887E+005   -2.78038E+005
            5020    8.46586E+006    8.81638E+006    8.81638E+006    1.24333E+006   -3.23407E+005    9.13979E+006   -3.24543E+006    8.13003E+006    1.24087E+006    8.50139E+006   -5.95744E+003    1.48551E+006    5.15236E+005   -5.57313E+005
            5021    9.76462E+006    1.07379E+007    1.07379E+007    1.88572E+006    2.63951E+005    1.04740E+007   -4.29587E+006    9.45448E+006    1.87494E+006    1.02595E+007    7.53162E+005    1.96476E+006    5.71089E+005   -7.79713E+005
            5022    1.10067E+007    1.28479E+007    1.28479E+007    2.72602E+006    1.13051E+006    1.17174E+007   -5.56813E+006    1.07419E+007    2.70036E+006    1.21699E+007    1.83411E+006    2.49421E+006    5.65259E+005   -9.83067E+005
            5023    1.11485E+007    1.22363E+007    1.22363E+007    3.57129E+006   -3.41128E+005    1.25774E+007   -5.15547E+006    9.40671E+006    3.64529E+006    1.12913E+007    5.29874E+005    2.46198E+006    9.64874E+005   -1.94299E+006
            5024    1.03526E+007    1.03933E+007    1.03933E+007    2.60092E+006   -1.35368E+006    1.17470E+007   -3.88019E+006    8.38115E+006    2.64669E+006    9.81773E+006   -8.23849E+005    1.92615E+006    9.66889E+005   -1.27618E+006
            5025    9.26558E+006    8.72733E+006    8.72733E+006    1.87647E+006   -1.81500E+006    1.05423E+007   -2.92960E+006    7.31292E+006    1.89993E+006    8.39215E+006   -1.50329E+006    1.47809E+006    9.01464E+005   -5.86984E+005
            5026    8.11785E+006    7.35885E+006    7.35885E+006    1.41153E+006   -1.88948E+006    9.24833E+006   -2.29364E+006    6.31903E+006    1.41139E+006    7.14316E+006   -1.67364E+006    1.13088E+006    8.14710E+005   -7.80118E+004
            5027    6.86146E+006    6.10055E+006    6.10055E+006    1.05843E+006   -1.71318E+006    7.81373E+006   -1.81527E+006    5.36578E+006    1.01749E+006    5.92767E+006   -1.49936E+006    8.25818E+005    7.55608E+005    4.15664E+005
            5028    5.89120E+006    5.04276E+006    5.04276E+006    7.83766E+005   -1.68043E+006    6.72319E+006   -1.38203E+006    4.49044E+006    7.27464E+005    4.80275E+006   -1.38412E+006    6.04043E+005    7.23319E+005    8.88820E+005
            5029    4.92172E+006    4.22869E+006    4.22869E+006    7.36743E+005   -1.40032E+006    5.62901E+006   -1.18837E+006    3.63389E+006    6.75057E+005    3.78454E+006   -8.94482E+005    4.06617E+005    6.83930E+005    1.33056E+006
            5030    4.10907E+006    4.03885E+006    4.03885E+006    4.99036E+005   -4.67248E+005    4.50609E+006   -1.35688E+006    3.84075E+006    3.11078E+005    3.90668E+006   -1.47126E+005    3.08138E+005    4.61827E+005    6.25534E+005
            5031    4.19689E+006    4.25023E+006    4.25023E+006    2.15111E+005   -9.16051E+004    4.34183E+006   -1.45791E+006    4.17156E+006    1.94407E+005    4.23244E+006   -5.31195E+004    2.39061E+005    1.04568E+005    1.19821E+005
            5032    4.48512E+006    4.40502E+006    4.40502E+006    4.33671E+005   -4.59477E+005    4.86449E+006   -1.45974E+006    4.27812E+006    2.83703E+005    4.35025E+006   -2.54745E+005    4.05486E+005    3.90042E+005    2.23803E+005
            5033    4.14625E+006    4.15717E+006    4.15717E+006    1.29336E+005   -9.81422E+004    4.25531E+006   -1.39612E+006    4.13218E+006    1.27996E+005    4.14526E+006   -8.48985E+004    2.14459E+005    4.98485E+004   -4.81815E+004
            5034    3.81787E+006    3.81192E+006    3.81192E+006    4.67717E+004   -5.65735E+004    3.86849E+006   -1.26737E+006    3.81472E+006    5.09488E+004    3.79688E+006   -4.57076E+004    1.71169E+005    1.14080E+004   -1.67786E+005
            5035    3.31958E+006    3.29170E+006    3.29170E+006    1.26962E+004   -6.70230E+004    3.35872E+006   -1.07912E+006    3.31743E+006   -4.28640E+004    3.27231E+006    7.93073E+003    1.31376E+005   -4.25228E+004   -2.14379E+005
            5036    2.81143E+006    2.75146E+006    2.75146E+006    5.78351E+004   -1.64562E+005    2.91602E+006   -8.81578E+005    2.79154E+006   -1.20031E+005    2.73798E+006    2.67880E+004    7.52957E+004   -9.22791E+004   -1.74568E+005
            5037    2.48778E+006    2.41346E+006    2.41346E+006    8.63327E+004   -2.08670E+005    2.62213E+006   -7.63708E+005    2.44797E+006   -1.62316E+005    2.41141E+006    4.20273E+004    2.47202E+004   -1.07796E+005   -6.44457E+004
            5038    4.54002E+006    4.47203E+006    4.47203E+006    2.05434E+005   -2.99244E+005    4.77127E+006   -1.45941E+006    4.47626E+006    1.69880E+005    4.42844E+006   -2.20106E+005    3.89055E+005    1.56897E+005   -2.12602E+005
            5039    4.26865E+006    4.26068E+006    4.26068E+006    9.11945E+004   -1.00669E+005    4.36135E+006   -1.41707E+006    4.25893E+006    8.86017E+004    4.18581E+006   -2.32040E+004    2.80968E+005   -9.43777E+004   -4.83098E+005
            5040    3.87890E+006    3.91438E+006    3.91438E+006    2.51161E+005   -1.49157E+005    4.06353E+006   -1.33879E+006    3.83201E+006    1.37841E+004    3.86362E+006    1.38978E+005    1.71149E+005   -2.13842E+005   -3.94070E+005
            5041    3.61494E+006    3.65066E+006    3.65066E+006    3.63587E+005   -2.20920E+005    3.87158E+006   -1.26444E+006    3.50625E+006   -3.37401E+004    3.64326E+006    1.83801E+005    5.15297E+004   -2.74777E+005   -1.47805E+005
            5042    5.17195E+006    5.47571E+006    5.47571E+006    8.14664E+005   -8.82454E+004    5.56395E+006   -2.06738E+006    4.98999E+006    1.57890E+005    5.46277E+006    5.81466E+005   -3.92975E+004    4.04220E+005   -2.45026E+005
            5043    6.61553E+006    7.14001E+006    7.14001E+006    1.08775E+006    7.74460E+004    7.06257E+006   -2.76840E+006    6.43853E+006    2.99878E+005    7.13553E+006    8.69798E+005   -1.06836E+005    4.19599E+005   -1.25982E+005
            5044    8.43751E+006    9.22496E+006    9.22496E+006    1.34412E+006    3.23611E+005    8.90135E+006   -3.63090E+006    8.29696E+006    5.26111E+005    9.21710E+006    1.14948E+006   -1.88515E+005    4.07649E+005   -1.65671E+005
            5045    1.03407E+007    1.14643E+007    1.14643E+007    1.65666E+006    6.62440E+005    1.08019E+007   -4.59447E+006    1.02323E+007    8.23916E+005    1.14565E+007    1.50296E+006   -2.60455E+005    3.63563E+005   -1.09143E+005
            5046    5.97951E+006    6.18834E+006    6.18834E+006    2.63183E+005    1.55925E+005    6.03242E+006   -2.20248E+006    5.97735E+006    2.45142E+005    6.09380E+006    2.68506E+005   -6.66584E+005    7.42121E+004   -3.33808E+005
            5047    7.69757E+006    8.23754E+006    8.23754E+006    6.18872E+005    4.63423E+005    7.77412E+006   -3.10661E+006    7.69404E+006    6.08853E+005    8.07291E+006    6.38072E+005   -1.03933E+006    3.35244E+004   -4.13808E+005
            5048    9.18173E+006    1.02144E+007    1.02144E+007    1.26138E+006    8.19833E+005    9.39454E+006   -4.09853E+006    9.15780E+006    1.04299E+006    9.97834E+006    1.27426E+006   -1.39953E+006    4.96866E+003   -4.47448E+005
            5049    1.08829E+007    1.24675E+007    1.24675E+007    1.92815E+006    1.27084E+006    1.11967E+007   -5.22217E+006    1.08381E+007    1.58260E+006    1.21599E+007    1.92403E+006   -1.78416E+006   -4.45348E+004   -4.07674E+005
            5050    1.08046E+007    1.22915E+007    1.22915E+007    3.27087E+006    3.17310E+005    1.19742E+007   -5.29324E+006    9.83300E+006    3.32690E+006    1.14717E+007    1.08109E+006   -2.37849E+006   -7.84132E+005   -1.65824E+006
            5051    9.86204E+006    1.04111E+007    1.04111E+007    2.35677E+006   -5.87852E+005    1.09989E+007   -4.06000E+006    8.78826E+006    2.39951E+006    9.87601E+006   -9.55166E+004   -1.87079E+006   -7.60442E+005   -1.18998E+006
            5052    8.70125E+006    8.72672E+006    8.72672E+006    1.69720E+006   -1.00505E+006    9.73177E+006   -3.13962E+006    7.66833E+006    1.73380E+006    8.38739E+006   -7.02318E+005   -1.43361E+006   -6.52714E+005   -7.86155E+005
            5053    7.53403E+006    7.27984E+006    7.27984E+006    1.20702E+006   -1.15122E+006    8.43106E+006   -2.44521E+006    6.62398E+006    1.21273E+006    7.08225E+006   -9.59341E+005   -1.08250E+006   -5.95365E+005   -2.97006E+005
            5054    6.53816E+006    5.91754E+006    5.91754E+006    8.58498E+005   -1.46503E+006    7.38257E+006   -1.77033E+006    5.48668E+006    8.26011E+005    5.76775E+006   -1.28276E+006   -8.24784E+005   -6.46220E+005    2.34704E+005
            5055    5.73480E+006    4.90252E+006    4.90252E+006    7.39509E+005   -1.63879E+006    6.54131E+006   -1.33441E+006    4.40029E+006    6.82608E+005    4.67409E+006   -1.35346E+006   -5.62579E+005   -6.86495E+005    8.79410E+005
            5056    4.91863E+006    4.27320E+006    4.27320E+006    7.46816E+005   -1.34569E+006    5.61889E+006   -1.22478E+006    3.69775E+006    6.83368E+005    3.86980E+006   -8.78837E+005   -4.18405E+005   -6.73031E+005    1.25661E+006
            5057    4.05501E+006    3.64281E+006    3.64281E+006    7.35611E+005   -9.89512E+005    4.63232E+006   -1.12964E+006    3.04846E+006    6.63604E+005    3.04080E+006   -3.15501E+005   -2.84930E+005   -6.30576E+005    1.42237E+006
            5058    3.65643E+006    3.70443E+006    3.70443E+006    5.60897E+005   -3.08263E+005    4.01269E+006   -1.31902E+006    3.41219E+006    3.45934E+005    3.51069E+006    1.00439E+005   -2.48303E+005   -4.56086E+005    7.54449E+005
            5059    3.99161E+006    4.10430E+006    4.10430E+006    2.53180E+005   -1.43342E+004    4.11863E+006   -1.44771E+006    3.97136E+006    2.28659E+005    4.07771E+006    3.67750E+004   -2.23994E+005   -1.06506E+005    2.29328E+005
            5060    4.13081E+006    4.07723E+006    4.07723E+006    4.90880E+005   -4.39393E+005    4.51662E+006   -1.37624E+006    3.88449E+006    3.01383E+005    3.95857E+006   -1.31242E+005   -3.00240E+005   -4.46048E+005    5.92134E+005
            5061    4.32632E+006    4.35067E+006    4.35067E+006    1.98436E+005   -1.30916E+005    4.48158E+006   -1.47273E+006    4.29798E+006    1.81577E+005    4.33419E+006   -9.75853E+004   -2.38315E+005   -1.01754E+005    1.06725E+005
            5062    4.61912E+006    4.45454E+006    4.45454E+006    3.61760E+005   -5.53799E+005    5.00834E+006   -1.42083E+006    4.40798E+006    2.17711E+005    4.41104E+006   -3.66257E+005   -3.95364E+005   -3.79798E+005    1.42295E+005
            5063    4.15960E+006    4.15168E+006    4.15168E+006    1.08418E+005   -1.15234E+005    4.26691E+006   -1.38162E+006    4.14604E+006    1.09124E+005    4.13601E+006   -1.00276E+005   -2.24238E+005   -4.33427E+004   -1.19529E+005
            5064    4.70165E+006    4.71953E+006    4.71953E+006    2.44571E+005   -1.79998E+005    4.89953E+006   -1.59470E+006    4.65823E+006    1.88789E+005    4.65466E+006   -5.93410E+004   -4.47736E+005   -1.48977E+005   -3.28543E+005
            5065    3.66146E+006    3.61031E+006    3.61031E+006    1.58561E+004   -1.14671E+005    3.72498E+006   -1.17050E+006    3.65622E+006    4.94105E+003    3.58695E+006   -8.03986E+004   -1.53308E+005    5.51291E+004   -2.46914E+005
            5066    3.07607E+006    3.01911E+006    3.01911E+006    3.32733E+004   -1.39879E+005    3.15899E+006   -9.70833E+005    3.06507E+006   -8.54438E+004    2.99824E+006   -2.96998E+002   -9.31275E+004    8.64424E+004   -2.30907E+005
            5067    2.64165E+006    2.58600E+006    2.58600E+006    1.30482E+005   -2.08970E+005    2.79497E+006   -8.35836E+005    2.59190E+006   -1.47583E+005    2.58168E+006    7.34076E+004   -4.26937E+004    1.31659E+005   -9.35245E+004
            5068    4.50122E+006    4.54115E+006    4.54115E+006    1.65164E+005   -7.56319E+004    4.61678E+006   -1.54356E+006    4.48669E+006    4.87693E+004    4.47023E+006    1.11685E+005   -3.06567E+005    1.51859E+005   -4.59985E+005
            5069    4.04252E+006    4.14773E+006    4.14773E+006    4.86709E+005   -1.90698E+005    4.33843E+006   -1.48125E+006    3.91176E+006    3.30316E+004    4.13182E+006    2.78891E+005   -8.14051E+004    3.23149E+005   -2.28060E+005
            5070    1.13544E+007    1.39817E+007    1.39817E+007    4.73002E+006    1.31048E+006    1.26712E+007   -6.67406E+006    1.00946E+007    4.83509E+006    1.26281E+007    2.55898E+006    3.01731E+006    8.47417E+005   -2.29540E+006
            5071    1.21135E+007    1.49783E+007    1.49783E+007    3.69043E+006    2.18066E+006    1.27977E+007   -6.94980E+006    1.18991E+007    3.64705E+006    1.41029E+007    3.09944E+006    3.02834E+006    5.02510E+005   -1.01937E+006
            5072    1.22265E+007    1.42753E+007    1.42753E+007    2.39746E+006    1.72767E+006    1.25477E+007   -6.13349E+006    1.21852E+007    2.01787E+006    1.39930E+007    2.38957E+006    1.80875E+006    5.87801E+004   -4.36465E+005
            5073    1.21764E+007    1.38896E+007    1.38896E+007    2.04684E+006    1.40497E+006    1.24846E+007   -5.78047E+006    1.21382E+007    1.53122E+006    1.37999E+007    2.01025E+006    1.03505E+006   -1.69415E+005   -1.73546E+005
            5074    1.22283E+007    1.36830E+007    1.36830E+007    1.87668E+006    1.07258E+006    1.26105E+007   -5.54410E+006    1.21686E+007    1.19492E+006    1.36756E+007    1.76172E+006    2.99734E+005   -2.82727E+005   -4.09334E+004
            5075    1.09190E+007    1.53082E+007    1.53082E+007    5.83426E+006    3.36652E+006    1.19416E+007   -8.16965E+006    1.02630E+007    6.01757E+006    1.37184E+007    4.77296E+006    3.48856E+006    5.89349E+005   -1.93519E+006
            5076    1.28716E+007    1.67535E+007    1.67535E+007    4.60158E+006    3.26634E+006    1.34871E+007   -8.20713E+006    1.27143E+007    4.57454E+006    1.57185E+007    4.32839E+006    3.47999E+006    3.55115E+005   -8.11793E+005
            5077    1.35780E+007    1.62513E+007    1.62513E+007    3.11350E+006    2.27226E+006    1.39791E+007   -7.21237E+006    1.35192E+007    2.62257E+006    1.59080E+007    3.10652E+006    2.13684E+006    5.97330E+004   -3.39702E+005
            5078    1.37768E+007    1.59072E+007    1.59072E+007    2.43160E+006    1.84773E+006    1.40595E+007   -6.72885E+006    1.37490E+007    1.96724E+006    1.58000E+007    2.41928E+006    1.21543E+006   -9.86329E+004   -1.19735E+005
            5079    1.39220E+007    1.56909E+007    1.56909E+007    2.07939E+006    1.47795E+006    1.42130E+007   -6.41609E+006    1.38927E+007    1.54196E+006    1.56818E+007    2.02451E+006    3.57644E+005   -1.74123E+005   -2.94567E+004
            5080    1.02644E+007    1.59461E+007    1.59461E+007    6.46715E+006    5.04466E+006    1.09014E+007   -9.15263E+006    1.00390E+007    6.79056E+006    1.43494E+007    6.31792E+006    3.76552E+006    2.08710E+005   -7.65240E+005
            5081    1.32559E+007    1.77569E+007    1.77569E+007    5.10416E+006    3.97054E+006    1.37863E+007   -8.94385E+006    1.31462E+007    5.09997E+006    1.66615E+007    5.07007E+006    3.71348E+006    1.25957E+005   -3.08681E+005
            5082    1.43519E+007    1.73820E+007    1.73820E+007    3.51248E+006    2.59190E+006    1.47901E+007   -7.82877E+006    1.42853E+007    2.95570E+006    1.70192E+007    3.51146E+006    2.28442E+006    2.41610E+004   -1.24045E+005
            5083    1.47014E+007    1.70880E+007    1.70880E+007    2.66767E+006    2.12076E+006    1.49672E+007   -7.29214E+006    1.46785E+007    2.23656E+006    1.69731E+007    2.66678E+006    1.30520E+006   -2.92067E+004   -5.26290E+004
            5084    1.49295E+007    1.68982E+007    1.68982E+007    2.19679E+006    1.75072E+006    1.51475E+007   -6.94857E+006    1.49145E+007    1.76800E+006    1.68882E+007    2.18951E+006    3.88895E+005   -5.68190E+004   -1.00413E+004
            5085    4.00749E+006    3.56999E+006    3.56999E+006    7.18180E+005   -1.01193E+006    4.58191E+006   -1.09208E+006    2.97445E+006    6.45643E+005    2.96047E+006   -3.29878E+005    2.75620E+005   -6.30470E+005   -1.42260E+006
            5086    3.52878E+006    3.58459E+006    3.58459E+006    5.79460E+005   -3.01069E+005    3.88566E+006   -1.28766E+006    3.26760E+006    3.61701E+005    3.38304E+006    1.18237E+005    2.29733E+005   -4.59781E+005   -7.60778E+005
            5087    3.86957E+006    3.96372E+006    3.96372E+006    2.44757E+005   -4.06565E+004    4.00438E+006   -1.38927E+006    3.84579E+006    2.15045E+005    3.93776E+006    1.50181E+004    2.16348E+005   -1.14676E+005   -2.23965E+005
            5088    2.97583E+006    2.81125E+006    2.81125E+006    6.87416E+005   -5.90008E+005    3.40126E+006   -9.69553E+005    2.21993E+006    5.90148E+005    2.17330E+006    1.45210E+005    1.63151E+005   -5.54682E+005   -1.21709E+006
            5089    2.90586E+006    3.05444E+006    3.05444E+006    6.27135E+005   -1.65505E+005    3.21994E+006   -1.17202E+006    2.64577E+006    3.66622E+005    2.89169E+006    2.57757E+005    1.57871E+005   -4.26387E+005   -6.22138E+005
            5090    3.36005E+006    3.46961E+006    3.46961E+006    2.44535E+005   -1.08411E+004    3.48045E+006   -1.23443E+006    3.33811E+006    1.99404E+005    3.44867E+006    5.52264E+004    1.67278E+005   -1.14665E+005   -1.99610E+005
            5091    1.83962E+006    1.94412E+006    1.94412E+006    7.11789E+005   -1.70451E+005    2.11457E+006   -8.28487E+005    1.20639E+006    5.01273E+005    1.58876E+006    3.95423E+005    7.12995E+004   -4.80247E+005   -6.75301E+005
            5092    2.36497E+006    2.56566E+006    2.56566E+006    6.75673E+005   -8.63815E+004    2.65204E+006   -1.05165E+006    2.06028E+006    3.52058E+005    2.51036E+006    2.92534E+005    7.52382E+004   -3.93265E+005   -3.27529E+005
            5093    2.94056E+006    3.05277E+006    3.05277E+006    2.42833E+005   -2.98957E+003    3.05576E+006   -1.09754E+006    2.91731E+006    1.80419E+005    3.04638E+006    6.58147E+004    8.67779E+004   -1.11660E+005   -1.02650E+005
            5094    1.19717E+006    1.36452E+006    1.36452E+006    9.08479E+005    6.34506E+003    1.35817E+006   -7.59781E+005   -9.70699E+005    4.55435E+005    1.36283E+006    4.61079E+005   -6.44014E+003   -4.51697E+005    3.02032E+004
            5095    2.17267E+006    2.39689E+006    2.39689E+006    7.05368E+005   -5.34218E+004    2.45031E+006   -1.01628E+006    1.83696E+006    3.49089E+005    2.39575E+006    3.03989E+005   -8.29465E+003   -3.78982E+005    4.56031E+004
            5096    2.81324E+006    2.91946E+006    2.91946E+006    2.38973E+005   -9.98214E+003    2.92944E+006   -1.04948E+006    2.78829E+006    1.70699E+005    2.91934E+006    5.84068E+004   -1.31197E+004   -1.11156E+005    1.17039E+004
            5097    1.96613E+006    2.05185E+006    2.05185E+006    7.01808E+005   -2.03893E+005    2.25574E+006   -8.49922E+005    1.36309E+006    5.13655E+005    1.65066E+006    3.85449E+005   -8.25383E+004   -4.86051E+005    7.48662E+005
            5098    2.46823E+006    2.65913E+006    2.65913E+006    6.61636E+005   -1.00215E+005    2.75934E+006   -1.07352E+006    2.17916E+006    3.52160E+005    2.58364E+006    2.84753E+005   -9.75002E+004   -3.98186E+005    3.88826E+005
            5099    3.02060E+006    3.13751E+006    3.13751E+006    2.44369E+005    3.83758E+003    3.13368E+006   -1.12857E+006    2.99894E+006    1.85966E+005    3.12732E+006    7.24331E+004   -1.10717E+005   -1.10657E+005    1.31817E+005
            5100    3.06544E+006    2.90145E+006    2.90145E+006    6.99716E+005   -5.99668E+005    3.50111E+006   -1.00050E+006    2.31157E+006    6.03678E+005    2.26763E+006    1.30186E+005   -1.79147E+005   -5.64482E+005    1.23341E+006
            5101    3.06046E+006    3.20056E+006    3.20056E+006    6.21451E+005   -1.81264E+005    3.38182E+006   -1.21358E+006    2.80860E+006    3.75120E+005    3.01842E+006    2.47198E+005   -1.71998E+005   -4.31240E+005    6.77793E+005
            5102    3.51199E+006    3.60526E+006    3.60526E+006    2.31205E+005   -3.00712E+004    3.63533E+006   -1.26880E+006    3.49003E+006    1.91401E+005    3.58177E+006    3.32253E+004   -1.89296E+005   -1.15033E+005    2.08965E+005
            5103    1.22183E+007    1.36693E+007    1.36693E+007    1.87281E+006    1.06885E+006    1.26005E+007   -5.53699E+006    1.21586E+007    1.19124E+006    1.36620E+007    1.75776E+006    2.98943E+005    2.82729E+005    3.90487E+004
            5104    1.21787E+007    1.38914E+007    1.38914E+007    2.04592E+006    1.40480E+006    1.24866E+007   -5.78070E+006    1.21406E+007    1.53174E+006    1.38013E+007    2.00907E+006    1.03766E+006    1.69842E+005    1.73582E+005
            5105    1.22334E+007    1.42913E+007    1.42913E+007    2.40690E+006    1.73631E+006    1.25549E+007   -6.14482E+006    1.21920E+007    2.03202E+006    1.40051E+007    2.39731E+006    1.82068E+006   -6.27601E+004    4.41751E+005
            5106    1.21085E+007    1.49855E+007    1.49855E+007    3.71164E+006    2.18686E+006    1.27987E+007   -6.96134E+006    1.18896E+007    3.67096E+006    1.41019E+007    3.11119E+006    3.03738E+006   -5.05671E+005    1.03526E+006
            5107    1.13523E+007    1.39888E+007    1.39888E+007    4.74291E+006    1.31845E+006    1.26704E+007   -6.68339E+006    1.00883E+007    4.84881E+006    1.26312E+007    2.57018E+006    3.02082E+006   -8.48129E+005    2.29863E+006
            5108    1.39214E+007    1.56882E+007    1.56882E+007    2.07788E+006    1.47537E+006    1.42129E+007   -6.41383E+006    1.38920E+007    1.53978E+006    1.56793E+007    2.02238E+006    3.53166E+005    1.75210E+005    3.11415E+004
            5109    1.37756E+007    1.59019E+007    1.59019E+007    2.42772E+006    1.84343E+006    1.40585E+007   -6.72435E+006    1.37477E+007    1.96179E+006    1.57965E+007    2.41477E+006    1.20511E+006    1.00571E+005    1.19889E+005
            5110    1.35742E+007    1.62473E+007    1.62473E+007    3.11124E+006    2.27372E+006    1.39736E+007   -7.21075E+006    1.35159E+007    2.62394E+006    1.59042E+007    3.10408E+006    2.13541E+006   -6.01665E+004    3.40449E+005
            5111    1.28509E+007    1.67484E+007    1.67484E+007    4.62482E+006    3.27652E+006    1.34719E+007   -8.21658E+006    1.26903E+007    4.59652E+006    1.57064E+007    4.34686E+006    3.48658E+006   -3.59003E+005    8.21683E+005
            5112    1.09103E+007    1.53021E+007    1.53021E+007    5.84827E+006    3.36384E+006    1.19383E+007   -8.17140E+006    1.02444E+007    6.02938E+006    1.37048E+007    4.78000E+006    3.48933E+006   -5.91714E+005    1.94894E+006
            5113    1.49248E+007    1.68938E+007    1.68938E+007    2.19805E+006    1.74995E+006    1.51438E+007   -6.94726E+006    1.49097E+007    1.76689E+006    1.68839E+007    2.19097E+006    3.85983E+005    5.61541E+004    9.51847E+003
            5114    1.47044E+007    1.70862E+007    1.70862E+007    2.66186E+006    2.11697E+006    1.49692E+007   -7.28835E+006    1.46816E+007    2.23186E+006    1.69722E+007    2.66097E+006    1.30008E+006    2.90834E+004    5.19224E+004
            5115    1.43520E+007    1.73835E+007    1.73835E+007    3.51419E+006    2.59303E+006    1.47904E+007   -7.83023E+006    1.42853E+007    2.95670E+006    1.70207E+007    3.51334E+006    2.28469E+006   -2.23022E+004    1.21312E+005
            5116    1.32401E+007    1.77454E+007    1.77454E+007    5.10787E+006    3.97553E+006    1.37699E+007   -8.94294E+006    1.31305E+007    5.10571E+006    1.66484E+007    5.07468E+006    3.71420E+006   -1.24691E+005    3.01835E+005
            5117    1.02519E+007    1.59240E+007    1.59240E+007    6.45556E+006    5.03643E+006    1.08875E+007   -9.13865E+006    1.00274E+007    6.78464E+006    1.43279E+007    6.30346E+006    3.76099E+006   -2.10184E+005    7.68640E+005
            5118    6.85959E+006    6.09879E+006    6.09879E+006    1.06047E+006   -1.71334E+006    7.81213E+006   -1.81531E+006    5.36040E+006    1.01807E+006    5.92681E+006   -1.49895E+006    8.25363E+005   -7.57290E+005   -4.09608E+005
            5119    8.12474E+006    7.35959E+006    7.35959E+006    1.41491E+006   -1.89821E+006    9.25780E+006   -2.29210E+006    6.31182E+006    1.41327E+006    7.14442E+006   -1.68140E+006    1.12954E+006   -8.17445E+005    8.18282E+004
            5120    9.28074E+006    8.74525E+006    8.74525E+006    1.88837E+006   -1.81548E+006    1.05607E+007   -2.93938E+006    7.31671E+006    1.91148E+006    8.40802E+006   -1.50135E+006    1.48202E+006   -9.03984E+005    5.96536E+005
            5121    1.03665E+007    1.04173E+007    1.04173E+007    2.61390E+006   -1.34536E+006    1.17626E+007   -3.89527E+006    8.39314E+006    2.65899E+006    9.83678E+006   -8.09967E+005    1.93325E+006   -9.68810E+005    1.28867E+006
            5122    1.11473E+007    1.22539E+007    1.22539E+007    3.58465E+006   -3.20616E+005    1.25745E+007   -5.17264E+006    9.41253E+006    3.65874E+006    1.13035E+007    5.55716E+005    2.46828E+006   -9.63461E+005    1.95003E+006
            5123    1.10049E+007    1.28388E+007    1.28388E+007    2.72506E+006    1.11922E+006    1.17196E+007   -5.56103E+006    1.07366E+007    2.70079E+006    1.21615E+007    1.82082E+006    2.49215E+006   -5.69218E+005    9.83061E+005
            5124    1.06091E+007    1.20240E+007    1.20240E+007    1.64435E+006    1.19949E+006    1.08245E+007   -4.95596E+006    1.05881E+007    1.42960E+006    1.17982E+007    1.64005E+006    1.47453E+006   -3.73551E+004    4.67442E+005
            5125    1.03146E+007    1.15961E+007    1.15961E+007    1.64515E+006    9.52765E+005    1.06433E+007   -4.73134E+006    1.02621E+007    1.09693E+006    1.15202E+007    1.57686E+006    8.61768E+005    2.30983E+005    2.07830E+005
            5126    1.02493E+007    1.13607E+007    1.13607E+007    1.62353E+006    6.66477E+005    1.06943E+007   -4.55024E+006    1.01480E+007    8.36336E+005    1.13545E+007    1.45989E+006    2.45747E+005    3.62272E+005    6.09034E+004
            5127    9.74360E+006    1.07018E+007    1.07018E+007    1.87245E+006    2.48100E+005    1.04537E+007   -4.27411E+006    9.43174E+006    1.86386E+006    1.02265E+007    7.31984E+005    1.95518E+006   -5.69910E+005    7.77783E+005
            5128    8.96570E+006    9.84700E+006    9.84700E+006    9.91025E+005    7.75460E+005    9.07154E+006   -3.87116E+006    8.95987E+006    9.45786E+005    9.67428E+006    9.93416E+005    1.15459E+006   -4.70060E+003    4.51406E+005
            5129    8.54794E+006    9.44289E+006    9.44289E+006    1.25589E+006    5.74760E+005    8.86813E+006   -3.75785E+006    8.48657E+006    7.35112E+005    9.37816E+006    1.16027E+006    6.97255E+005    2.66394E+005    2.50057E+005
            5130    8.37171E+006    9.18962E+006    9.18962E+006    1.38290E+006    3.48980E+005    8.84064E+006   -3.64050E+006    8.22623E+006    5.49433E+005    9.18443E+006    1.18764E+006    1.96029E+005    4.06924E+005    6.80444E+004
            5131    8.43398E+006    8.77154E+006    8.77154E+006    1.23611E+006   -3.38922E+005    9.11047E+006   -3.22291E+006    8.09311E+006    1.23134E+006    8.45952E+006   -2.21234E+004    1.47704E+006   -5.19504E+005    5.47571E+005
            5132    7.54570E+006    8.00831E+006    8.00831E+006    5.00371E+005    4.25394E+005    7.58291E+006   -2.97802E+006    7.54487E+006    5.89681E+005    7.87815E+006    4.66241E+005    8.76302E+005    2.28972E+004    4.45602E+005
            5133    7.00166E+006    7.60016E+006    7.60016E+006    9.46445E+005    2.95946E+005    7.30421E+006   -2.94752E+006    6.93319E+006    4.68717E+005    7.54443E+006    8.29403E+005    5.42103E+005    2.84466E+005    2.91669E+005
            5134    6.79671E+006    7.37115E+006    7.37115E+006    1.14104E+006    1.22749E+005    7.24840E+006   -2.87831E+006    6.62182E+006    3.40949E+005    7.36559E+006    9.28401E+005    1.50543E+005    4.18161E+005    1.13574E+005
            5135    7.21129E+006    7.16429E+006    7.16429E+006    7.79444E+005   -6.57173E+005    7.82147E+006   -2.42886E+006    6.87819E+006    7.69987E+005    6.97864E+006   -4.62063E+005    1.07386E+006   -4.47274E+005    2.75880E+005
            5136    6.21676E+006    6.42369E+006    6.42369E+006    2.70672E+005    1.45094E+005    6.27859E+006   -2.27982E+006    6.21390E+006    3.33564E+005    6.33033E+006    1.75560E+005    6.21325E+005    5.39085E+004    4.27212E+005
            5137    5.76915E+006    6.13853E+006    6.13853E+006    6.80029E+005    1.02215E+005    6.03632E+006   -2.30692E+006    5.70351E+006    2.84336E+005    6.08261E+006    5.53827E+005    4.05794E+005    2.82662E+005    3.73877E+005
            5138    5.54574E+006    5.92048E+006    5.92048E+006    9.03435E+005   -3.43715E+004    5.95485E+006   -2.26318E+006    5.36298E+006    1.95439E+005    5.91496E+006    6.79140E+005    1.05540E+005    4.04779E+005    1.28955E+005
            5139    5.74717E+006    5.60609E+006    5.60609E+006    4.62984E+005   -5.97451E+005    6.20354E+006   -1.82387E+006    5.52059E+006    4.18622E+005    5.50687E+006   -4.53866E+005    7.16592E+005   -3.54104E+005    8.63855E+004
            5140    5.15224E+006    5.22001E+006    5.22001E+006    1.66914E+005   -2.59586E+004    5.24597E+006   -1.78699E+006    5.14411E+006    1.85039E+005    5.13264E+006    4.32870E+004    4.08432E+005    9.54868E+004    5.22048E+005
            5141    4.77831E+006    4.96221E+006    4.96221E+006    4.48346E+005   -4.26389E+004    5.00485E+006   -1.78931E+006    4.72106E+006    1.47973E+005    4.90406E+006    3.15888E+005    2.89718E+005    2.61381E+005    4.18565E+005
            5142    4.54762E+006    4.74397E+006    4.74397E+006    6.47159E+005   -1.49240E+005    4.89321E+006   -1.74730E+006    4.38659E+006    8.28684E+004    4.73573E+006    4.23286E+005    6.68971E+004    3.64249E+005    1.71488E+005
            5143    3.63575E+006    3.67406E+006    3.67406E+006    3.68145E+005   -2.19842E+005    3.89390E+006   -1.27412E+006    3.52639E+006   -3.07604E+004    3.66661E+006    1.86509E+005    5.24587E+004    2.76735E+005    1.48526E+005
            5144    2.49330E+006    2.41928E+006    2.41928E+006    8.73901E+004   -2.08939E+005    2.62822E+006   -7.65910E+005    2.45321E+006   -1.61921E+005    2.41721E+006    4.24462E+004    2.48449E+004    1.08714E+005    6.49306E+004
            5145    3.87804E+006    3.91423E+006    3.91423E+006    2.54692E+005   -1.50501E+005    4.06473E+006   -1.33947E+006    3.82998E+006    1.30929E+004    3.86354E+006    1.41781E+005    1.70293E+005    2.15860E+005    3.93864E+005
            5146    2.81613E+006    2.75690E+006    2.75690E+006    5.90083E+004   -1.64196E+005    2.92109E+006   -8.83903E+005    2.79613E+006   -1.18649E+005    2.74325E+006    2.71053E+004    7.61840E+004    9.33113E+004    1.75574E+005
            5147    4.26233E+006    4.25401E+006    4.25401E+006    9.04115E+004   -1.00620E+005    4.35463E+006   -1.41460E+006    4.25268E+006    8.64383E+004    4.17887E+006   -2.15041E+004    2.79729E+005    9.56929E+004    4.84365E+005
            5148    3.32280E+006    3.29364E+006    3.29364E+006    9.80892E+003   -6.68007E+004    3.36044E+006   -1.07888E+006    3.32081E+006   -4.30771E+004    3.27441E+006    5.31508E+003    1.31550E+005    4.13344E+004    2.13248E+005
            5149    4.53647E+006    4.46982E+006    4.46982E+006    2.06438E+005   -2.97633E+005    4.76745E+006   -1.45954E+006    4.47281E+006    1.70938E+005    4.42599E+006   -2.18300E+005    3.89446E+005   -1.56637E+005    2.14308E+005
            5150    3.81565E+006    3.81211E+006    3.81211E+006    4.78150E+004   -5.29033E+004    3.86501E+006   -1.26901E+006    3.81265E+006    5.20422E+004    3.79713E+006   -4.21553E+004    1.70815E+005   -1.09904E+004    1.67262E+005
            5151    4.14820E+006    4.15869E+006    4.15869E+006    1.29619E+005   -9.91766E+004    4.25787E+006   -1.39638E+006    4.13397E+006    1.28046E+005    4.14675E+006   -8.56657E+004    2.15032E+005   -5.06177E+004    4.71476E+004
            5152    4.19351E+006    4.24756E+006    4.24756E+006    2.16116E+005   -9.11122E+004    4.33867E+006   -1.45752E+006    4.16807E+006    1.95159E+005    4.22959E+006   -5.21884E+004    2.38608E+005   -1.05134E+005   -1.23538E+005
            5153    4.48227E+006    4.40137E+006    4.40137E+006    4.33403E+005   -4.60477E+005    4.86185E+006   -1.45810E+006    4.27477E+006    2.83371E+005    4.34646E+006   -2.55532E+005    4.04420E+005   -3.90403E+005   -2.26618E+005
            5154    4.09777E+006    4.03109E+006    4.03109E+006    5.00070E+005   -4.62182E+005    4.49327E+006   -1.35632E+006    3.83100E+006    3.10708E+005    3.89849E+006   -1.40221E+005    3.06021E+005   -4.61382E+005   -6.26852E+005
            5155    4.93327E+006    4.23599E+006    4.23599E+006    7.36766E+005   -1.40639E+006    5.64239E+006   -1.18879E+006    3.64073E+006    6.75102E+005    3.79231E+006   -9.01041E+005    4.06938E+005   -6.84330E+005   -1.33179E+006
            5156    5.90973E+006    5.05102E+006    5.05102E+006    7.81346E+005   -1.69384E+006    6.74486E+006   -1.37951E+006    4.49991E+006    7.24589E+005    4.81158E+006   -1.39764E+006    6.04665E+005   -7.25162E+005   -8.88747E+005
            5157    7.48291E+006    7.24071E+006    7.24071E+006    1.22422E+006   -1.13833E+006    8.37904E+006   -2.44220E+006    6.56158E+006    1.27167E+006    7.09523E+006   -1.04031E+006   -8.94129E+005    3.94498E+005    3.67753E+005
            5158    8.66504E+006    8.76883E+006    8.76883E+006    1.71973E+006   -9.05166E+005    9.67399E+006   -3.19446E+006    7.69123E+006    1.77990E+006    8.52924E+006   -7.25750E+005   -1.10299E+006    4.11816E+005    8.52655E+005
            5159    9.80852E+006    1.05704E+007    1.05704E+007    2.42457E+006   -3.17354E+005    1.08877E+007   -4.22586E+006    8.88298E+006    2.49084E+006    1.02177E+007   -3.10222E+004   -1.35186E+006    4.53995E+005    1.23221E+006
            5160    1.07267E+007    1.25951E+007    1.25951E+007    3.38727E+006    8.16644E+005    1.17785E+007   -5.59967E+006    9.99782E+006    3.45274E+006    1.20790E+007    1.26731E+006   -1.61977E+006    4.46027E+005    1.68863E+006
            5161    9.78837E+006    1.22163E+007    1.22163E+007    2.78226E+006    2.10841E+006    1.01079E+007   -5.70232E+006    9.73598E+006    2.91672E+006    1.20003E+007    2.18999E+006   -1.25354E+006    5.78814E+004    6.94727E+005
            5162    1.03784E+007    1.23925E+007    1.23925E+007    2.27302E+006    1.77309E+006    1.06194E+007   -5.47952E+006    1.03513E+007    1.91801E+006    1.23474E+007    2.17317E+006   -6.78862E+005   -2.07025E+005    9.14098E+004
            5163    8.42257E+006    1.00880E+007    1.00880E+007    1.96024E+006    1.39876E+006    8.68926E+006   -4.48234E+006    8.38030E+006    2.07892E+006    9.88237E+006    1.48573E+006   -1.09292E+006    3.44103E+004    7.01900E+005
            5164    8.57066E+006    1.00138E+007    1.00138E+007    1.82797E+006    1.10425E+006    8.90957E+006   -4.31535E+006    8.50150E+006    1.26475E+006    9.97557E+006    1.70572E+006   -5.56309E+005   -2.82953E+005    1.36516E+005
            5165    7.24431E+006    8.22637E+006    8.22637E+006    1.27020E+006    7.24755E+005    7.50162E+006   -3.40711E+006    7.19789E+006    1.37701E+006    8.05440E+006    7.89920E+005   -9.06489E+005    4.54804E+003    6.22447E+005
            5166    6.84015E+006    7.80396E+006    7.80396E+006    1.44561E+006    5.66932E+005    7.23703E+006   -3.27217E+006    6.71142E+006    7.42487E+005    7.77755E+006    1.29647E+006   -4.20004E+005   -3.36272E+005    7.64422E+004
            5167    5.77577E+006    6.25718E+006    6.25718E+006    6.59639E+005    3.18305E+005    5.93887E+006   -2.41171E+006    5.75302E+006    7.36413E+005    6.13703E+006    3.61682E+005   -6.70204E+005   -1.61410E+004    4.76255E+005
            5168    5.42216E+006    5.98220E+006    5.98220E+006    1.05213E+006    1.74918E+005    5.80729E+006   -2.40308E+006    5.25896E+006    3.75417E+005    5.96174E+006    8.72094E+005   -2.71423E+005   -3.68650E+005    1.75203E+005
            5169    4.24693E+006    4.45505E+006    4.45505E+006    6.21729E+005   -1.10324E+005    4.56537E+006   -1.65548E+006    4.10136E+006    9.90924E+004    4.44021E+006    4.27146E+005   -1.43212E+005   -3.35385E+005    1.90273E+005
            5170    2.86702E+006    2.75301E+006    2.75301E+006    1.44329E+005   -3.16506E+005    3.06952E+006   -8.60278E+005    2.78185E+006   -2.67444E+005    2.74699E+006    1.01293E+005   -7.35801E+004   -1.42452E+005    1.02359E+005
            5171    4.54823E+006    4.72560E+006    4.72560E+006    2.44381E+005    1.13215E+005    4.61239E+006   -1.69440E+006    4.54397E+006    2.60164E+005    4.63326E+006    1.89773E+005   -4.10938E+005   -9.54568E+004    4.88407E+005
            5172    3.24812E+006    3.17510E+006    3.17510E+006    6.50833E+004   -1.95435E+005    3.37054E+006   -1.01492E+006    3.22449E+006   -1.62938E+005    3.14821E+006    5.94765E+004   -1.97572E+005   -8.34597E+004    2.12581E+005
            5173    3.68465E+006    3.73612E+006    3.73612E+006    9.18974E+004    1.23306E+004    3.72379E+006   -1.28012E+006    3.68272E+006    3.97242E+004    3.70059E+006    1.00030E+005   -2.97755E+005   -5.30055E+002    2.04809E+005
            5174    4.12457E+006    4.20929E+006    4.20929E+006    2.65113E+005   -7.46603E+004    4.28395E+006   -1.46658E+006    4.09291E+006    2.47122E+005    4.17421E+006   -2.15868E+004   -3.57938E+005    1.10604E+005    1.17754E+005
            5175    4.22809E+006    4.36580E+006    4.36580E+006    4.42116E+005   -1.12047E+005    4.47785E+006   -1.56529E+006    4.14521E+006    4.21511E+005    4.33480E+006   -6.04360E+004   -3.35754E+005    1.65860E+005   -8.94108E+004
            5176    3.86225E+006    4.08893E+006    4.08893E+006    5.30361E+005   -1.83163E+004    4.10725E+006   -1.53366E+006    3.77307E+006    5.05979E+005    4.05463E+006    4.03650E+004   -2.77486E+005    1.69377E+005   -2.14381E+005
            5177    4.72903E+006    4.72320E+006    4.72320E+006    4.60403E+005   -3.63720E+005    5.08692E+006   -1.60663E+006    4.56325E+006    4.50725E+005    4.61710E+006   -2.47938E+005   -5.29876E+005    1.82550E+005    4.70370E+005
            5178    4.59875E+006    4.35928E+006    4.35928E+006    5.46877E+005   -7.48129E+005    5.10741E+006   -1.38601E+006    4.15789E+006    4.86258E+005    4.30981E+006   -6.38040E+005   -4.37256E+005    3.61291E+005    1.79487E+004
            5179    4.05247E+006    3.90388E+006    3.90388E+006    6.12014E+005   -6.22191E+005    4.52607E+006   -1.29790E+006    3.59164E+006    5.42600E+005    3.81341E+006   -4.62301E+005   -3.39515E+005    3.94441E+005   -4.52811E+005
            5180    3.52659E+006    3.50406E+006    3.50406E+006    6.67964E+005   -4.44659E+005    3.94872E+006   -1.24245E+006    3.09309E+006    5.92843E+005    3.35905E+006   -2.24532E+005   -2.52608E+005    3.81369E+005   -6.39806E+005
            5181    3.87325E+006    3.41327E+006    3.41327E+006    5.56771E+005   -9.95306E+005    4.40858E+006   -9.91578E+005    3.04537E+006    5.24567E+005    2.87018E+006   -4.20016E+005   -2.26885E+005    4.46620E+005   -1.37106E+006
            5182    4.77364E+006    4.04951E+006    4.04951E+006    5.70070E+005   -1.39261E+006    5.44212E+006   -1.07566E+006    3.68649E+006    5.47539E+005    3.70233E+006   -1.02290E+006   -3.44928E+005    4.85341E+005   -1.20424E+006
            5183    5.63186E+006    4.73975E+006    4.73975E+006    6.08188E+005   -1.67523E+006    6.41498E+006   -1.22423E+006    4.39290E+006    5.94155E+005    4.56314E+006   -1.48459E+006   -4.64678E+005    4.90614E+005   -8.21268E+005
            5184    6.42594E+006    5.79642E+006    5.79642E+006    8.34317E+005   -1.46227E+006    7.25869E+006   -1.72282E+006    5.37896E+006    8.46914E+005    5.69685E+006   -1.37529E+006   -6.74854E+005    4.47550E+005   -1.71125E+005
            5185    1.22571E+007    1.48548E+007    1.48548E+007    2.72342E+006    2.47579E+006    1.23790E+007   -6.68467E+006    1.22514E+007    2.66764E+006    1.48029E+007    2.58343E+006   -7.90053E+005   -1.28118E+005    8.00389E+004
            5186    1.10793E+007    1.43382E+007    1.43382E+007    3.66667E+006    2.89179E+006    1.14464E+007   -6.96555E+006    1.10181E+007    3.81495E+006    1.41268E+007    2.95490E+006   -1.36807E+006    6.95539E+004    6.26888E+005
            5187    1.12120E+007    1.45951E+007    1.45951E+007    4.54447E+006    2.50255E+006    1.20926E+007   -7.21405E+006    1.07817E+007    4.60311E+006    1.39563E+007    3.08275E+006   -1.87052E+006    3.83247E+005    1.89358E+006
            5188    1.38292E+007    1.69290E+007    1.69290E+007    3.30385E+006    2.90437E+006    1.40246E+007   -7.71240E+006    1.38162E+007    3.35084E+006    1.68733E+007    2.91306E+006   -8.67540E+005   -6.10176E+004    5.36111E+004
            5189    1.21647E+007    1.61569E+007    1.61569E+007    4.44366E+006    3.58599E+006    1.25709E+007   -8.06217E+006    1.20964E+007    4.61013E+006    1.59625E+007    3.61388E+006   -1.43803E+006    4.97481E+004    4.43786E+005
            5190    1.11309E+007    1.61763E+007    1.61763E+007    5.69700E+006    4.49193E+006    1.16844E+007   -8.78841E+006    1.09827E+007    5.73564E+006    1.55560E+007    5.07363E+006   -2.06661E+006    2.56701E+005    1.58198E+006
            5191    1.47391E+007    1.81404E+007    1.81404E+007    3.71691E+006    3.10478E+006    1.50356E+007   -8.32070E+006    1.47104E+007    3.77343E+006    1.80834E+007    3.10527E+006   -9.04697E+005   -1.80973E+004    2.37413E+004
            5192    1.27906E+007    1.72020E+007    1.72020E+007    4.89319E+006    3.97872E+006    1.32233E+007   -8.69132E+006    1.27168E+007    5.06815E+006    1.70237E+007    3.98214E+006   -1.46389E+006    2.06977E+004    1.55220E+005
            5193    1.08036E+007    1.70149E+007    1.70149E+007    6.51222E+006    5.93369E+006    1.10812E+007   -9.82027E+006    1.07686E+007    6.48535E+006    1.65301E+007    6.44533E+006   -2.17390E+006    9.32786E+004    6.35710E+005
            5194    3.75549E+006    3.95941E+006    3.95941E+006    5.25126E+005   -5.07639E+004    4.01018E+006   -1.47792E+006    3.65417E+006    4.99017E+005    3.92771E+006    7.04491E+003    2.61189E+005    1.72154E+005    2.04421E+005
            5195    3.42339E+006    3.39242E+006    3.39242E+006    6.49060E+005   -4.44035E+005    3.83645E+006   -1.19915E+006    2.99122E+006    5.77168E+005    3.23684E+006   -2.16563E+005    2.38266E+005    3.72705E+005    6.62741E+005
            5196    3.82163E+006    3.34886E+006    3.34886E+006    5.38212E+005   -1.00266E+006    4.35152E+006   -9.61469E+005    2.99234E+006    5.06233E+005    2.79801E+006   -4.19830E+005    2.21369E+005    4.44103E+005    1.37041E+006
            5197    3.25250E+006    3.46392E+006    3.46392E+006    5.12356E+005   -2.30732E+004    3.48699E+006   -1.31773E+006    3.15105E+006    4.79020E+005    3.44169E+006    3.24876E+004    1.79953E+005    1.59302E+005    1.87724E+005
            5198    2.79596E+006    2.88503E+006    2.88503E+006    6.44986E+005   -2.48459E+005    3.13349E+006   -1.09385E+006    2.44239E+006    5.58341E+005    2.75692E+006   -3.37027E+004    1.50421E+005    3.24045E+005    5.62314E+005
            5199    2.81233E+006    2.62919E+006    2.62919E+006    5.00800E+005   -5.59073E+005    3.18827E+006   -8.56973E+005    2.29367E+006    4.51251E+005    2.03994E+006    7.97316E+004    1.32348E+005    3.85058E+005    1.17752E+006
            5200    2.84155E+006    3.04523E+006    3.04523E+006    4.83065E+005   -1.09300E+004    3.05616E+006   -1.17245E+006    2.74243E+006    4.43140E+005    3.03904E+006    3.51809E+004    8.64948E+004    1.42297E+005    9.49632E+004
            5201    2.27619E+006    2.43324E+006    2.43324E+006    6.15325E+005   -1.19625E+005    2.55287E+006   -9.76315E+005    1.98161E+006    5.02680E+005    2.38856E+006    3.77037E+004    7.17842E+004    2.82062E+005    3.04023E+005
            5202    1.69622E+006    1.81720E+006    1.81720E+006    5.19459E+005   -1.02131E+005    1.91933E+006   -7.44843E+005    1.40332E+006    3.85300E+005    1.48854E+006    3.60691E+005    6.01391E+004    3.29489E+005    6.57204E+005
            5203    2.71528E+006    2.90761E+006    2.90761E+006    4.68749E+005   -1.82008E+004    2.92581E+006   -1.11939E+006    2.61433E+006    4.26210E+005    2.90753E+006    2.44235E+004   -1.11323E+004    1.37613E+005   -9.41572E+003
            5204    2.08900E+006    2.27803E+006    2.27803E+006    6.16291E+005   -6.70689E+004    2.34510E+006   -9.42416E+005    1.81064E+006    4.86625E+005    2.27712E+006    6.35021E+004   -1.04347E+004    2.68303E+005   -4.12832E+004
            5205    1.03357E+006    1.26734E+006    1.26734E+006    6.97633E+005    7.42795E+004    1.19306E+006   -6.79750E+005   -4.41214E+005    3.39205E+005    1.26676E+006    4.33285E+005   -3.53303E+003    3.08317E+005   -1.91362E+004
            5206    2.90772E+006    3.11767E+006    3.11767E+006    4.88176E+005   -5.16109E+003    3.12283E+006   -1.20023E+006    2.81124E+006    4.49591E+005    3.10764E+006    4.34536E+004   -1.10673E+005    1.44807E+005   -1.23140E+005
            5207    2.36982E+006    2.51773E+006    2.51773E+006    6.22582E+005   -1.39328E+005    2.65706E+006   -1.00033E+006    2.06603E+006    5.14581E+005    2.45935E+006    2.70542E+004   -8.82685E+004    2.89774E+005   -3.52521E+005
            5208    1.79442E+006    1.89724E+006    1.89724E+006    5.16998E+005   -1.31222E+005    2.02846E+006   -7.61004E+005    1.49472E+006    3.95138E+005    1.53697E+006    3.50910E+005   -6.41973E+004    3.33485E+005   -7.11271E+005
            5209    3.38011E+006    3.57811E+006    3.57811E+006    5.06696E+005   -4.32424E+004    3.62136E+006   -1.34719E+006    3.27719E+006    4.75398E+005    3.55366E+006    1.25149E+004   -2.00540E+005    1.62706E+005   -1.91716E+005
            5210    2.95522E+006    3.02926E+006    3.02926E+006    6.50600E+005   -2.78983E+005    3.30824E+006   -1.13363E+006    2.59434E+006    5.70961E+005    2.88754E+006   -5.76236E+004   -1.71806E+005    3.30974E+005   -6.05063E+005
            5211    2.87743E+006    2.69771E+006    2.69771E+006    5.15985E+005   -5.63332E+005    3.26104E+006   -8.83453E+005    2.35262E+006    4.67717E+005    2.11276E+006    6.98810E+004   -1.41518E+005    3.90032E+005   -1.18943E+006
            5212    1.12149E+007    1.46015E+007    1.46015E+007    4.54949E+006    2.50511E+006    1.20964E+007   -7.21871E+006    1.07836E+007    4.60751E+006    1.39613E+007    3.08729E+006   -1.87280E+006   -3.84486E+005   -1.89583E+006
            5213    1.10898E+007    1.43535E+007    1.43535E+007    3.66928E+006    2.89845E+006    1.14551E+007   -6.97375E+006    1.10293E+007    3.81844E+006    1.41442E+007    2.95858E+006   -1.36658E+006   -6.75085E+004   -6.12797E+005
            5214    1.22843E+007    1.48893E+007    1.48893E+007    2.72987E+006    2.48393E+006    1.24054E+007   -6.70104E+006    1.22787E+007    2.67642E+006    1.48374E+007    2.58928E+006   -7.91477E+005    1.26940E+005   -7.81641E+004
            5215    1.11217E+007    1.61843E+007    1.61843E+007    5.71059E+006    4.51177E+006    1.16726E+007   -8.80223E+006    1.09750E+007    5.74788E+006    1.55632E+007    5.09565E+006   -2.06975E+006   -2.55704E+005   -1.57881E+006
            5216    1.21777E+007    1.61558E+007    1.61558E+007    4.43452E+006    3.56797E+006    1.25879E+007   -8.05277E+006    1.21081E+007    4.60046E+006    1.59625E+007    3.59535E+006   -1.43528E+006   -4.95887E+004   -4.40989E+005
            5217    1.38406E+007    1.69435E+007    1.69435E+007    3.30756E+006    2.90694E+006    1.40365E+007   -7.71931E+006    1.38275E+007    3.35467E+006    1.68879E+007    2.91542E+006   -8.67212E+005    6.04626E+004   -5.49096E+004
            5218    1.07963E+007    1.70177E+007    1.70177E+007    6.52082E+006    5.94498E+006    1.10727E+007   -9.82783E+006    1.07617E+007    6.49211E+006    1.65339E+007    6.45743E+006   -2.17564E+006   -9.13287E+004   -6.18331E+005
            5219    1.27961E+007    1.71966E+007    1.71966E+007    4.88667E+006    3.96429E+006    1.32323E+007   -8.68252E+006    1.27209E+007    5.06100E+006    1.70184E+007    3.96814E+006   -1.46223E+006   -2.21491E+004   -1.64773E+005
            5220    1.47382E+007    1.81397E+007    1.81397E+007    3.71596E+006    3.10616E+006    1.50336E+007   -8.32062E+006    1.47097E+007    3.77258E+006    1.80827E+007    3.10660E+006   -9.05144E+005    1.71721E+004   -2.41148E+004
            5221    4.70597E+006    5.06892E+006    5.06892E+006    8.10969E+005    1.61619E+004    5.05276E+006   -1.96535E+006    4.55127E+006    2.33204E+005    5.05917E+006    6.03676E+005    1.40867E+005   -3.56664E+005   -1.47912E+005
            5222    5.67759E+006    6.35044E+006    6.35044E+006    1.16654E+006    2.82801E+005    6.06764E+006   -2.59993E+006    5.51966E+006    4.93029E+005    6.34107E+006    9.65681E+005    1.85052E+005   -3.76886E+005   -1.25507E+005
            5223    6.89865E+006    7.93890E+006    7.93890E+006    1.52199E+006    6.42799E+005    7.29610E+006   -3.36790E+006    6.77089E+006    8.29651E+005    7.92940E+006    1.34464E+006    2.29557E+005   -3.57999E+005   -1.05745E+005
            5224    8.45464E+006    9.93185E+006    9.93185E+006    1.87867E+006    1.12607E+006    8.80578E+006   -4.31220E+006    8.37878E+006    1.29315E+006    9.92182E+006    1.72161E+006    2.81849E+005   -3.08968E+005   -7.24108E+004
            5225    1.02643E+007    1.22462E+007    1.22462E+007    2.24539E+006    1.73716E+006    1.05090E+007   -5.40958E+006    1.02360E+007    1.89464E+006    1.22353E+007    2.09879E+006    3.25539E+005   -2.32981E+005   -7.33822E+004
            5226    4.87382E+006    5.20967E+006    5.20967E+006    5.88094E+005    1.17713E+005    5.09196E+006   -1.97183E+006    4.82235E+006    3.03866E+005    5.14890E+006    4.62709E+005    3.17401E+005   -2.53408E+005   -4.20010E+005
            5227    5.84077E+006    6.48804E+006    6.48804E+006    9.13753E+005    4.13026E+005    6.07501E+006   -2.60494E+006    5.79218E+006    5.86942E+005    6.42649E+006    8.01382E+005    4.38221E+005   -2.55357E+005   -3.86751E+005
            5228    7.02406E+006    8.04301E+006    8.04301E+006    1.27083E+006    7.91618E+005    7.25139E+006   -3.36849E+006    6.98714E+006    9.48084E+005    7.98124E+006    1.17613E+006    5.75955E+005   -2.26764E+005   -3.02538E+005
            5229    8.52014E+006    1.00187E+007    1.00187E+007    1.68761E+006    1.32130E+006    8.69738E+006   -4.34253E+006    8.50239E+006    1.46860E+006    9.94809E+006    1.61091E+006    7.15741E+005   -1.80565E+005   -2.84512E+005
            5230    1.01912E+007    1.22718E+007    1.22718E+007    2.18836E+006    1.97623E+006    1.02956E+007   -5.47881E+006    1.01862E+007    2.12697E+006    1.21946E+007    2.11487E+006    8.42556E+005   -1.25125E+005   -2.61585E+005
            5231    5.21764E+006    5.47678E+006    5.47678E+006    4.10018E+005    1.20334E+005    5.35645E+006   -2.00238E+006    5.19950E+006    4.68262E+005    5.35484E+006    1.84037E+005    5.93594E+005   -2.21279E+003   -5.22314E+005
            5232    6.21078E+006    6.71791E+006    6.71791E+006    7.20122E+005    3.14081E+005    6.40383E+006   -2.58404E+006    6.18081E+006    8.01568E+005    6.57176E+006    3.78791E+005    8.09390E+005    4.14274E+004   -4.79555E+005
            5233    7.44134E+006    8.37831E+006    8.37831E+006    1.21452E+006    6.87443E+005    7.69087E+006   -3.42676E+006    7.39917E+006    1.32215E+006    8.18585E+006    7.72279E+005    1.04490E+006    7.22534E+004   -5.46386E+005
            5234    8.67389E+006    1.02312E+007    1.02312E+007    1.85914E+006    1.28415E+006    8.94708E+006   -4.45817E+006    8.63086E+006    1.98167E+006    9.99628E+006    1.39657E+006    1.27579E+006    1.05021E+005   -5.92908E+005
            5235    1.00741E+007    1.24039E+007    1.24039E+007    2.67082E+006    2.02036E+006    1.03835E+007   -5.69836E+006    1.00267E+007    2.82207E+006    1.21351E+007    2.13795E+006    1.48804E+006    1.17564E+005   -6.40780E+005
            5236    5.60242E+006    5.45184E+006    5.45184E+006    7.12792E+005   -7.31235E+005    6.18308E+006   -1.81113E+006    5.15821E+006    7.18540E+005    5.34740E+006   -6.32536E+005    6.71787E+005    3.12799E+005   -2.79327E+005
            5237    6.96152E+006    6.94762E+006    6.94762E+006    1.12929E+006   -7.64987E+005    7.71260E+006   -2.43731E+006    6.34169E+006    1.17744E+006    6.77766E+006   -6.43184E+005    9.00297E+005    3.33100E+005   -5.24491E+005
            5238    8.00083E+006    8.46641E+006    8.46641E+006    1.67529E+006   -3.53520E+005    8.81993E+006   -3.26273E+006    7.38810E+006    1.74772E+006    8.20911E+006   -1.68653E+005    1.11517E+006    3.35738E+005   -8.44535E+005
            5239    9.03130E+006    1.02630E+007    1.02630E+007    2.42021E+006    3.89097E+005    9.87390E+006   -4.35743E+006    8.49431E+006    2.51858E+006    9.91974E+006    6.33988E+005    1.32972E+006    3.21355E+005   -1.10651E+006
            5240    9.93504E+006    1.21977E+007    1.21977E+007    3.32118E+006    1.46574E+006    1.07320E+007   -5.66154E+006    9.53347E+006    3.43545E+006    1.17835E+007    1.76563E+006    1.51257E+006    2.89339E+005   -1.31298E+006
            5241    1.11768E+007    1.27344E+007    1.27344E+007    3.53130E+006    2.97153E+005    1.24372E+007   -5.52095E+006    1.00403E+007    3.56442E+006    1.21991E+007    7.99334E+005    1.59919E+006    5.64240E+005   -1.84524E+006
            5242    1.03339E+007    1.06308E+007    1.06308E+007    2.49423E+006   -9.96360E+005    1.16272E+007   -4.04290E+006    8.85392E+006    2.52904E+006    1.03105E+007   -7.10846E+005    1.30308E+006    5.84631E+005   -1.21262E+006
            5243    9.21730E+006    8.79223E+006    8.79223E+006    1.75805E+006   -1.64214E+006    1.04344E+007   -2.96938E+006    7.60079E+006    1.78921E+006    8.61321E+006   -1.49429E+006    1.04868E+006    5.67320E+005   -5.59488E+005
            5244    8.05335E+006    7.31139E+006    7.31139E+006    1.27835E+006   -1.83362E+006    9.14501E+006   -2.25204E+006    6.47694E+006    1.30086E+006    7.19352E+006   -1.73826E+006    8.41544E+005    5.28297E+005   -9.40846E+004
            5245    6.78142E+006    5.98850E+006    5.98850E+006    9.48414E+005   -1.72151E+006    7.71002E+006   -1.73847E+006    5.39286E+006    9.53322E+005    5.87594E+006   -1.61386E+006    6.58362E+005    5.14687E+005    3.79817E+005
            5246    5.76092E+006    4.85773E+006    4.85773E+006    6.55891E+005   -1.70935E+006    6.56708E+006   -1.26809E+006    4.45355E+006    6.41430E+005    4.67484E+006   -1.51200E+006    4.83986E+005    5.13609E+005    8.37212E+005
            5247    4.76968E+006    4.01659E+006    4.01659E+006    5.54830E+005   -1.42400E+006    5.44059E+006   -1.04914E+006    3.65866E+006    5.32546E+005    3.63009E+006   -1.01521E+006    3.30139E+005    4.86139E+005    1.28183E+006
            5248    4.02072E+006    3.85809E+006    3.85809E+006    6.32246E+005   -6.46472E+005    4.50456E+006   -1.28129E+006    3.51760E+006    5.62468E+005    3.76159E+006   -4.80194E+005    3.26992E+005    4.01923E+005    4.84288E+005
            5249    4.09866E+006    4.25592E+006    4.25592E+006    4.58934E+005   -8.92558E+004    4.34517E+006   -1.54186E+006    4.01494E+006    4.35213E+005    4.22510E+006   -3.47156E+004    3.24708E+005    1.69128E+005    1.03123E+005
            5250    4.45359E+006    4.27813E+006    4.27813E+006    5.87546E+005   -6.68633E+005    4.94676E+006   -1.39901E+006    4.02513E+006    5.29969E+005    4.22447E+006   -5.57397E+005    4.38727E+005    3.63419E+005    6.26496E+004
            5251    4.09140E+006    4.20935E+006    4.20935E+006    3.22941E+005   -6.00957E+004    4.26945E+006   -1.49073E+006    4.05076E+006    3.05361E+005    4.17853E+006   -1.16945E+004    3.44782E+005    1.22899E+005   -5.04098E+004
            5252    3.85736E+006    3.88969E+006    3.88969E+006    1.26601E+005   -5.54883E+004    3.94518E+006   -1.32027E+006    3.84767E+006    1.29140E+005    3.85602E+006   -2.43632E+004    3.12508E+005    4.65298E+004   -1.77402E+005
            5253    3.43500E+006    3.39597E+006    3.39597E+006   -1.12826E+003   -7.57246E+004    3.47169E+006   -1.10637E+006    3.43318E+006   -5.29353E+004    3.36154E+006    1.05109E+004    2.55092E+005   -3.34277E+004   -2.27040E+005
            5254    3.00096E+006    2.89921E+006    2.89921E+006    7.17840E+004   -2.49449E+005    3.14866E+006   -9.07181E+005    2.96191E+006   -2.15858E+005    2.87914E+006    5.82575E+004    1.67605E+005   -9.48898E+004   -1.71956E+005
            5255    2.73041E+006    2.58034E+006    2.58034E+006    9.95461E+004   -3.45098E+005    2.92544E+006   -7.78264E+005    2.64711E+006   -3.08485E+005    2.57749E+006    6.57839E+004    5.56251E+004   -1.21884E+005   -6.44804E+004
            5256    4.53578E+006    4.49615E+006    4.49615E+006    4.20077E+005   -3.90140E+005    4.88629E+006   -1.50869E+006    4.36850E+006    3.98785E+005    4.42667E+006   -2.99368E+005    4.70160E+005    2.03351E+005   -2.95960E+005
            5257    4.33523E+006    4.41806E+006    4.41806E+006    1.67558E+005    2.79623E+003    4.41527E+006   -1.52947E+006    4.32818E+006    2.02339E+005    4.32922E+006    5.68616E+004    3.83071E+005   -5.31711E+004   -4.80587E+005
            5258    4.01911E+006    4.12149E+006    4.12149E+006    3.18432E+005   -8.34705E+004    4.20496E+006   -1.45215E+006    3.97352E+006    7.25222E+004    4.06760E+006    2.16330E+005    2.27619E+005   -2.15751E+005   -3.87883E+005
            5259    3.80950E+006    3.89747E+006    3.89747E+006    4.51905E+005   -1.93507E+005    4.09098E+006   -1.38529E+006    3.68347E+006   -1.40457E+004    3.88961E+006    2.80305E+005    8.55521E+004   -2.91600E+005   -1.40366E+005
            5260    5.41662E+006    5.97590E+006    5.97590E+006    1.05142E+006    1.74202E+005    5.80170E+006   -2.40051E+006    5.25324E+006    3.74115E+005    5.95531E+006    8.72092E+005   -2.71294E+005    3.68320E+005   -1.76610E+005
            5261    6.84729E+006    7.81535E+006    7.81535E+006    1.44999E+006    5.71022E+005    7.24433E+006   -3.27879E+006    6.71861E+006    7.45675E+005    7.78901E+006    1.30167E+006   -4.19774E+005    3.35555E+005   -7.59414E+004
            5262    8.61605E+006    1.00736E+007    1.00736E+007    1.83975E+006    1.12042E+006    8.95316E+006   -4.34458E+006    8.54810E+006    1.28093E+006    1.00354E+007    1.71738E+006   -5.57517E+005    2.81851E+005   -1.35013E+005
            5263    1.04336E+007    1.24643E+007    1.24643E+007    2.28674E+006    1.79236E+006    1.06720E+007   -5.51448E+006    1.04072E+007    1.93863E+006    1.24189E+007    2.18587E+006   -6.83143E+005    2.06357E+005   -9.12105E+004
            5264    5.77865E+006    6.25982E+006    6.25982E+006    6.59759E+005    3.17761E+005    5.94205E+006   -2.41245E+006    5.75581E+006    7.36503E+005    6.13986E+006    3.60972E+005   -6.70174E+005    1.60407E+004   -4.75468E+005
            5265    7.25987E+006    8.24670E+006    8.24670E+006    1.27583E+006    7.28772E+005    7.51792E+006   -3.41710E+006    7.21328E+006    1.38284E+006    8.07405E+006    7.94408E+005   -9.08140E+005   -4.18124E+003   -6.26010E+005
            5266    8.43481E+006    1.01179E+007    1.01179E+007    1.97400E+006    1.41953E+006    8.69837E+006   -4.50381E+006    8.39366E+006    2.09288E+006    9.91204E+006    1.50651E+006   -1.09601E+006   -3.43702E+004   -7.00197E+005
            5267    9.80080E+006    1.22463E+007    1.22463E+007    2.79632E+006    2.12886E+006    1.01175E+007   -5.72384E+006    9.74947E+006    2.93154E+006    1.20303E+007    2.20963E+006   -1.25521E+006   -5.61471E+004   -6.93261E+005
            5268    1.07252E+007    1.25865E+007    1.25865E+007    3.38346E+006    8.08108E+005    1.17784E+007   -5.59269E+006    9.99336E+006    3.44798E+006    1.20709E+007    1.25919E+006   -1.61812E+006   -4.47670E+005   -1.68858E+006
            5269    9.80251E+006    1.05597E+007    1.05597E+007    2.41768E+006   -3.20839E+005    1.08805E+007   -4.21885E+006    8.87880E+006    2.48354E+006    1.02087E+007   -3.57154E+004   -1.34967E+006   -4.54117E+005   -1.22730E+006
            5270    8.65751E+006    8.76460E+006    8.76460E+006    1.71660E+006   -8.99173E+005    9.66377E+006   -3.19401E+006    7.69010E+006    1.77691E+006    8.52520E+006   -7.20078E+005   -1.10205E+006   -4.10049E+005   -8.52381E+005
            5271    7.49201E+006    7.25471E+006    7.25471E+006    1.22582E+006   -1.13278E+006    8.38749E+006   -2.44925E+006    6.57545E+006    1.27395E+006    7.10854E+006   -1.03474E+006   -8.96473E+005   -3.92997E+005   -3.71115E+005
            5272    6.43507E+006    5.80310E+006    5.80310E+006    8.35640E+005   -1.46638E+006    7.26948E+006   -1.72412E+006    5.38432E+006    8.48552E+005    5.70332E+006   -1.37951E+006   -6.75913E+005   -4.47823E+005    1.71446E+005
            5273    5.62781E+006    4.73878E+006    4.73878E+006    6.10234E+005   -1.67159E+006    6.41037E+006   -1.22581E+006    4.38967E+006    5.96131E+005    4.56155E+006   -1.48026E+006   -4.63939E+005   -4.90561E+005    8.23562E+005
            5274    4.76419E+006    4.04524E+006    4.04524E+006    5.71138E+005   -1.38578E+006    5.43102E+006   -1.07686E+006    3.68177E+006    5.48537E+005    3.69798E+006   -1.01592E+006   -3.44429E+005   -4.84823E+005    1.20315E+006
            5275    3.87658E+006    3.41813E+006    3.41813E+006    5.58334E+005   -9.94060E+005    4.41219E+006   -9.94134E+005    3.04933E+006    5.26159E+005    2.87700E+006   -4.20758E+005   -2.27541E+005   -4.46536E+005    1.36933E+006
            5276    3.53011E+006    3.50496E+006    3.50496E+006    6.66904E+005   -4.47986E+005    3.95295E+006   -1.24129E+006    3.09517E+006    5.91776E+005    3.35940E+006   -2.27296E+005   -2.52675E+005   -3.81919E+005    6.41625E+005
            5277    3.86547E+006    4.09225E+006    4.09225E+006    5.31688E+005   -1.90475E+004    4.11130E+006   -1.53496E+006    3.77569E+006    5.06879E+005    4.05773E+006    4.02877E+004   -2.78378E+005   -1.70637E+005    2.15249E+005
            5278    4.06046E+006    3.91051E+006    3.91051E+006    6.13116E+005   -6.24832E+005    4.53534E+006   -1.29960E+006    3.59765E+006    5.44222E+005    3.81947E+006   -4.64899E+005   -3.40718E+005   -3.94857E+005    4.54832E+005
            5279    4.22842E+006    4.36423E+006    4.36423E+006    4.42264E+005   -1.15324E+005    4.47956E+006   -1.56372E+006    4.14450E+006    4.21201E+005    4.33315E+006   -6.31804E+004   -3.35743E+005   -1.67189E+005    9.07325E+004
            5280    4.60977E+006    4.36474E+006    4.36474E+006    5.46880E+005   -7.56348E+005    5.12109E+006   -1.38509E+006    4.16408E+006    4.86348E+005    4.31505E+006   -6.46123E+005   -4.38443E+005   -3.62962E+005   -1.58507E+004
            5281    4.12836E+006    4.21487E+006    4.21487E+006    2.68670E+005   -7.42459E+004    4.28912E+006   -1.46977E+006    4.09613E+006    2.50739E+005    4.17992E+006   -2.13629E+004   -3.58009E+005   -1.11413E+005   -1.15364E+005
            5282    4.73261E+006    4.72866E+006    4.72866E+006    4.62967E+005   -3.62311E+005    5.09097E+006   -1.60977E+006    4.56649E+006    4.53115E+005    4.62206E+006   -2.45861E+005   -5.30908E+005   -1.82999E+005   -4.72185E+005
            5283    3.69111E+006    3.74392E+006    3.74392E+006    9.19992E+004    1.48355E+004    3.72909E+006   -1.28359E+006    3.68930E+006    4.29230E+004    3.70830E+006    9.95330E+004   -2.98839E+005   -3.72204E+002   -2.04675E+005
            5284    3.25184E+006    3.17908E+006    3.17908E+006    6.42927E+004   -1.94359E+005    3.37344E+006   -1.01634E+006    3.22858E+006   -1.61949E+005    3.15197E+006    5.89963E+004   -1.98662E+005    8.29763E+004   -2.13489E+005
            5285    2.86577E+006    2.75115E+006    2.75115E+006    1.42872E+005   -3.16595E+005    3.06775E+006   -8.59143E+005    2.78109E+006   -2.67992E+005    2.74499E+006    1.00435E+005   -7.44421E+004    1.41623E+005   -1.03521E+005
            5286    4.54935E+006    4.72694E+006    4.72694E+006    2.44580E+005    1.13433E+005    4.61351E+006   -1.69498E+006    4.54510E+006    2.60661E+005    4.63444E+006    1.89857E+005   -4.11125E+005    9.52937E+004   -4.89114E+005
            5287    4.23934E+006    4.44519E+006    4.44519E+006    6.18409E+005   -1.11835E+005    4.55702E+006   -1.65059E+006    4.09423E+006    9.67893E+004    4.43034E+006    4.24632E+005   -1.42988E+005    3.34439E+005   -1.90326E+005
            5288    1.14308E+007    1.47705E+007    1.47705E+007    4.80018E+006    2.29479E+006    1.24757E+007   -7.28849E+006    1.07868E+007    4.81991E+006    1.40305E+007    3.01505E+006    1.89479E+006    4.71917E+005   -2.19914E+006
            5289    1.06723E+007    1.41515E+007    1.41515E+007    4.32203E+006    2.79977E+006    1.13517E+007   -7.09110E+006    1.04239E+007    4.46219E+006    1.37218E+007    3.08928E+006    1.65252E+006    2.30002E+005   -1.31771E+006
            5290    1.13858E+007    1.45925E+007    1.45925E+007    3.57908E+006    2.86760E+006    1.17249E+007   -7.01305E+006    1.13356E+007    3.76704E+006    1.43044E+007    2.96767E+006    1.66929E+006    1.19818E+005   -6.15114E+005
            5291    1.19216E+007    1.46383E+007    1.46383E+007    2.82833E+006    2.60804E+006    1.20302E+007   -6.69155E+006    1.19170E+007    2.89742E+006    1.45541E+007    2.62314E+006    9.63801E+005   -6.59748E+004   -2.41367E+005
            5292    1.21501E+007    1.46846E+007    1.46846E+007    2.69821E+006    2.37709E+006    1.23075E+007   -6.58662E+006    1.21405E+007    2.60653E+006    1.46728E+007    2.48057E+006    3.72392E+005   -1.51774E+005   -5.67911E+004
            5293    1.10449E+007    1.63600E+007    1.63600E+007    6.11792E+006    4.65761E+006    1.17024E+007   -9.04517E+006    1.08245E+007    6.08100E+006    1.56206E+007    5.43393E+006    2.13535E+006    3.17706E+005   -1.86295E+006
            5294    1.10944E+007    1.57524E+007    1.57524E+007    5.20511E+006    4.18190E+006    1.15705E+007   -8.37981E+006    1.09875E+007    5.38691E+006    1.53765E+007    4.37603E+006    1.73387E+006    1.52448E+005   -1.01398E+006
            5295    1.24363E+007    1.64798E+007    1.64798E+007    4.42380E+006    3.69524E+006    1.27845E+007   -8.19960E+006    1.23881E+007    4.66236E+006    1.61884E+007    3.74806E+006    1.80122E+006    8.78999E+004   -4.76351E+005
            5296    1.33748E+007    1.66813E+007    1.66813E+007    3.54677E+006    3.07852E+006    1.36028E+007   -7.76888E+006    1.33564E+007    3.63538E+006    1.65903E+007    3.08094E+006    1.07592E+006   -2.24568E+004   -1.74620E+005
            5297    1.37530E+007    1.67691E+007    1.67691E+007    3.26303E+006    2.78185E+006    1.39872E+007   -7.60465E+006    1.37340E+007    3.26381E+006    1.67564E+007    2.79374E+006    4.11131E+005   -7.56289E+004   -4.49073E+004
            5298    1.04127E+007    1.71228E+007    1.71228E+007    7.16054E+006    6.31168E+006    1.08111E+007   -1.01983E+007    1.03344E+007    6.91758E+006    1.65643E+007    7.11312E+006    2.27493E+006    1.10450E+005   -7.41538E+005
            5299    1.12916E+007    1.66832E+007    1.66832E+007    5.67393E+006    5.12902E+006    1.15542E+007   -9.16206E+006    1.12620E+007    5.94375E+006    1.63776E+007    5.16488E+006    1.77556E+006    5.03207E+004   -3.81899E+005
            5300    1.30501E+007    1.75773E+007    1.75773E+007    4.89883E+006    4.18480E+006    1.33925E+007   -8.88697E+006    1.30061E+007    5.16981E+006    1.72986E+007    4.19249E+006    1.85203E+006    3.66861E+004   -1.77759E+005
            5301    1.42195E+007    1.78775E+007    1.78775E+007    3.98529E+006    3.35189E+006    1.45256E+007   -8.40489E+006    1.41877E+007    4.07549E+006    1.77869E+007    3.35230E+006    1.11595E+006   -2.25320E+003   -7.47875E+004
            5302    1.46976E+007    1.80104E+007    1.80104E+007    3.66794E+006    2.98175E+006    1.50286E+007   -8.22002E+006    1.46615E+007    3.68026E+006    1.79975E+007    2.98233E+006    4.29716E+005   -2.02035E+004   -1.69429E+004
            5303    3.82777E+006    3.35070E+006    3.35070E+006    5.37194E+005   -1.00816E+006    4.35886E+006   -9.59909E+005    2.99448E+006    5.05323E+005    2.79806E+006   -4.23653E+005    2.21522E+005   -4.44763E+005   -1.37376E+006
            5304    3.41499E+006    3.38774E+006    3.38774E+006    6.50793E+005   -4.39188E+005    3.82692E+006   -1.19978E+006    2.98425E+006    5.78539E+005    3.23343E+006   -2.12629E+005    2.37008E+005   -3.71920E+005   -6.59234E+005
            5305    3.74353E+006    3.94859E+006    3.94859E+006    5.24837E+005   -4.85576E+004    3.99715E+006   -1.47496E+006    3.64277E+006    4.98523E+005    3.91699E+006    9.35937E+003    2.59376E+005   -1.71768E+005   -2.05206E+005
            5306    2.80651E+006    2.62598E+006    2.62598E+006    5.01727E+005   -5.55624E+005    3.18160E+006   -8.57361E+005    2.28930E+006    4.52001E+005    2.03628E+006    8.37969E+004    1.31723E+005   -3.84781E+005   -1.17635E+006
            5307    2.79297E+006    2.88214E+006    2.88214E+006    6.45207E+005   -2.48232E+005    3.13037E+006   -1.09304E+006    2.43893E+006    5.58458E+005    2.75516E+006   -3.44988E+004    1.49778E+005   -3.23700E+005   -5.59579E+005
            5308    3.24199E+006    3.45292E+006    3.45292E+006    5.11115E+005   -2.29428E+004    3.47586E+006   -1.31370E+006    3.14073E+006    4.77420E+005    3.43110E+006    3.25648E+004    1.77989E+005   -1.59110E+005   -1.85660E+005
            5309    1.68555E+006    1.80761E+006    1.80761E+006    5.19093E+005   -9.99293E+004    1.90754E+006   -7.42257E+005    1.39301E+006    3.83190E+005    1.48077E+006    3.62811E+005    5.92443E+004   -3.29359E+005   -6.52598E+005
            5310    2.27490E+006    2.43109E+006    2.43109E+006    6.15291E+005   -1.20684E+005    2.55177E+006   -9.75232E+005    1.97919E+006    5.02315E+005    2.38670E+006    3.66829E+004    7.14768E+004   -2.82482E+005   -3.02933E+005
            5311    2.83786E+006    3.04110E+006    3.04110E+006    4.82711E+005   -1.13537E+004    3.05245E+006   -1.17082E+006    2.73858E+006    4.42633E+005    3.03509E+006    3.47297E+004    8.49502E+004   -1.42291E+005   -9.37325E+004
            5312    1.03377E+006    1.26828E+006    1.26828E+006    6.98132E+005    7.49733E+004    1.19330E+006   -6.80460E+005   -4.39527E+005    3.40055E+005    1.26693E+006    4.34391E+005   -4.55580E+003   -3.08455E+005    2.95401E+004
            5313    2.08944E+006    2.27903E+006    2.27903E+006    6.17110E+005   -6.66184E+004    2.34565E+006   -9.43175E+005    1.81083E+006    4.87500E+005    2.27809E+006    6.39382E+004   -1.07162E+004   -2.68366E+005    4.21973E+004
            5314    2.71663E+006    2.90927E+006    2.90927E+006    4.69179E+005   -1.79904E+004    2.92726E+006   -1.12015E+006    2.61563E+006    4.26578E+005    2.90916E+006    2.47172E+004   -1.27514E+004   -1.37770E+005    1.01033E+004
            5315    1.81363E+006    1.90984E+006    1.90984E+006    5.13837E+005   -1.40055E+005    2.04990E+006   -7.61209E+005    1.51207E+006    3.95217E+005    1.54073E+006    3.47676E+005   -6.55566E+004   -3.34423E+005    7.23859E+005
            5316    2.37004E+006    2.51657E+006    2.51657E+006    6.22072E+005   -1.41018E+005    2.65758E+006   -9.99207E+005    2.06524E+006    5.13632E+005    2.45796E+006    2.60240E+004   -8.84282E+004   -2.90557E+005    3.53126E+005
            5317    2.91680E+006    3.12650E+006    3.12650E+006    4.88192E+005   -5.72343E+003    3.13222E+006   -1.20299E+006    2.82040E+006    4.50061E+005    3.11630E+006    4.26024E+004   -1.12360E+005   -1.44507E+005    1.23744E+005
            5318    2.89238E+006    2.70945E+006    2.70945E+006    5.17210E+005   -5.68733E+005    3.27818E+006   -8.85976E+005    2.36367E+006    4.69176E+005    2.12591E+006    6.28377E+004   -1.42837E+005   -3.90842E+005    1.19210E+006
            5319    2.94999E+006    3.02464E+006    3.02464E+006    6.50108E+005   -2.77732E+005    3.30237E+006   -1.13234E+006    2.58984E+006    5.70147E+005    2.88129E+006   -5.44230E+004   -1.71229E+005   -3.31352E+005    6.08326E+005
            5320    3.39006E+006    3.58913E+006    3.58913E+006    5.08274E+005   -4.26484E+004    3.63178E+006   -1.35159E+006    3.28707E+006    4.77273E+005    3.56456E+006    1.29249E+004   -2.02267E+005   -1.62724E+005    1.91316E+005
            5321    1.21414E+007    1.46707E+007    1.46707E+007    2.69255E+006    2.37237E+006    1.22984E+007   -6.57855E+006    1.21319E+007    2.60031E+006    1.46590E+007    2.47634E+006    3.71636E+005    1.51586E+005    5.48636E+004
            5322    1.19213E+007    1.46388E+007    1.46388E+007    2.83036E+006    2.60773E+006    1.20311E+007   -6.69230E+006    1.19167E+007    2.90064E+006    1.45540E+007    2.62226E+006    9.67502E+005    6.50681E+004    2.41429E+005
            5323    1.13867E+007    1.46005E+007    1.46005E+007    3.59113E+006    2.87073E+006    1.17298E+007   -7.02078E+006    1.13352E+007    3.77923E+006    1.43108E+007    2.97236E+006    1.67249E+006   -1.21443E+005    6.21449E+005
            5324    1.06728E+007    1.41623E+007    1.41623E+007    4.33553E+006    2.80812E+006    1.13542E+007   -7.10199E+006    1.04226E+007    4.47433E+006    1.37293E+007    3.10236E+006    1.65492E+006   -2.31831E+005    1.32877E+006
            5325    1.14316E+007    1.47831E+007    1.47831E+007    4.80961E+006    2.30780E+006    1.24753E+007   -7.30016E+006    1.07895E+007    4.82882E+006    1.40425E+007    3.02914E+006    1.89595E+006   -4.71844E+005    2.19971E+006
            5326    1.37537E+007    1.67679E+007    1.67679E+007    3.26162E+006    2.77954E+006    1.39884E+007   -7.60302E+006    1.37346E+007    3.26197E+006    1.67555E+007    2.79164E+006    4.07323E+005    7.63495E+004    4.65824E+004
            5327    1.33788E+007    1.66810E+007    1.66810E+007    3.54117E+006    3.07551E+006    1.36055E+007   -7.76591E+006    1.33605E+007    3.62839E+006    1.65914E+007    3.07796E+006    1.06807E+006    2.37425E+004    1.74018E+005
            5328    1.24353E+007    1.64737E+007    1.64737E+007    4.41890E+006    3.68993E+006    1.27838E+007   -8.19418E+006    1.23871E+007    4.65575E+006    1.61839E+007    3.74294E+006    1.79593E+006   -8.81126E+004    4.77756E+005
            5329    1.10890E+007    1.57634E+007    1.57634E+007    5.21926E+006    4.19988E+006    1.15635E+007   -8.39417E+006    1.09828E+007    5.40055E+006    1.53836E+007    4.39834E+006    1.73956E+006   -1.52739E+005    1.02413E+006
            5330    1.10449E+007    1.63652E+007    1.63652E+007    6.12682E+006    4.66035E+006    1.17049E+007   -9.05080E+006    1.08226E+007    6.08629E+006    1.56210E+007    5.44512E+006    2.13860E+006   -3.19011E+005    1.87338E+006
            5331    1.46938E+007    1.80068E+007    1.80068E+007    3.66639E+006    2.98343E+006    1.50233E+007   -8.21886E+006    1.46580E+007    3.67862E+006    1.79940E+007    2.98399E+006    4.27722E+005    1.97243E+004    1.61873E+004
            5332    1.42248E+007    1.78781E+007    1.78781E+007    3.98159E+006    3.34628E+006    1.45318E+007   -8.40199E+006    1.41928E+007    4.07123E+006    1.77881E+007    3.34667E+006    1.11259E+006    2.44141E+003    7.38920E+004
            5333    1.30499E+007    1.75789E+007    1.75789E+007    4.89998E+006    4.18725E+006    1.33917E+007   -8.88873E+006    1.30060E+007    5.17077E+006    1.73007E+007    4.19470E+006    1.85091E+006   -3.61366E+004    1.74678E+005
            5334    1.12794E+007    1.66742E+007    1.66742E+007    5.67327E+006    5.13556E+006    1.15386E+007   -9.16100E+006    1.12505E+007    5.94338E+006    1.63691E+007    5.17056E+006    1.77454E+006   -4.98145E+004    3.74553E+005
            5335    1.04090E+007    1.71081E+007    1.71081E+007    7.14904E+006    6.30095E+006    1.08071E+007   -1.01860E+007    1.03309E+007    6.90901E+006    1.65490E+007    7.10009E+006    2.27499E+006   -1.11945E+005    7.43839E+005
            5336    6.77975E+006    5.98857E+006    5.98857E+006    9.49532E+005   -1.71949E+006    7.70807E+006   -1.73954E+006    5.39183E+006    9.54405E+005    5.87646E+006   -1.61225E+006    6.58635E+005   -5.14330E+005   -3.75246E+005
            5337    8.05834E+006    7.31554E+006    7.31554E+006    1.28218E+006   -1.83594E+006    9.15149E+006   -2.25393E+006    6.47582E+006    1.30452E+006    7.19770E+006   -1.74044E+006    8.41441E+005   -5.29007E+005    9.54879E+004
            5338    9.23266E+006    8.81372E+006    8.81372E+006    1.76762E+006   -1.63800E+006    1.04517E+007   -2.98111E+006    7.61372E+006    1.79915E+006    8.63311E+006   -1.48893E+006    1.05250E+006   -5.67873E+005    5.67534E+005
            5339    1.03473E+007    1.06600E+007    1.06600E+007    2.50788E+006   -9.80821E+005    1.16408E+007   -4.06234E+006    8.87157E+006    2.54283E+006    1.03361E+007   -6.91960E+005    1.30910E+006   -5.85266E+005    1.22329E+006
            5340    1.11752E+007    1.27542E+007    1.27542E+007    3.54501E+006    3.21485E+005    1.24327E+007   -5.54022E+006    1.00466E+007    3.57872E+006    1.22151E+007    8.26816E+005    1.60252E+006   -5.61543E+005    1.85369E+006
            5341    9.93975E+006    1.21917E+007    1.21917E+007    3.31792E+006    1.45076E+006    1.07409E+007   -5.65345E+006    9.53315E+006    3.43167E+006    1.17779E+007    1.75083E+006    1.51111E+006   -2.91190E+005    1.31417E+006
            5342    1.00635E+007    1.23891E+007    1.23891E+007    2.67382E+006    2.01018E+006    1.03789E+007   -5.69102E+006    1.00141E+007    2.82411E+006    1.21180E+007    2.13091E+006    1.49206E+006   -1.21970E+005    6.45514E+005
            5343    1.01854E+007    1.22688E+007    1.22688E+007    2.18724E+006    1.98271E+006    1.02861E+007   -5.47960E+006    1.01808E+007    2.13296E+006    1.21900E+007    2.11585E+006    8.51079E+005    1.22071E+005    2.63774E+005
            5344    1.02622E+007    1.22448E+007    1.22448E+007    2.24715E+006    1.73706E+006    1.05078E+007   -5.40968E+006    1.02337E+007    1.89601E+006    1.22338E+007    2.09927E+006    3.28292E+005    2.34218E+005    7.41367E+004
            5345    9.01782E+006    1.02319E+007    1.02319E+007    2.40549E+006    3.70517E+005    9.86143E+006   -4.33598E+006    8.47781E+006    2.50336E+006    9.89050E+006    6.14087E+005    1.32530E+006   -3.21765E+005    1.10239E+006
            5346    8.66808E+006    1.02127E+007    1.02127E+007    1.85422E+006    1.26517E+006    8.94758E+006   -4.44404E+006    8.62288E+006    1.97674E+006    9.97644E+006    1.37896E+006    1.27679E+006   -1.07396E+005    5.98822E+005
            5347    8.51890E+006    1.00159E+007    1.00159E+007    1.68206E+006    1.32333E+006    8.69260E+006   -4.34044E+006    8.50188E+006    1.47000E+006    9.94435E+006    1.60696E+006    7.19924E+005    1.78057E+005    2.88047E+005
            5348    8.45253E+006    9.93199E+006    9.93199E+006    1.88086E+006    1.12839E+006    8.80360E+006   -4.31375E+006    8.37667E+006    1.29468E+006    9.92177E+006    1.72479E+006    2.84858E+005    3.08250E+005    7.23312E+004
            5349    7.97560E+006    8.42126E+006    8.42126E+006    1.66000E+006   -3.74561E+005    8.79582E+006   -3.23557E+006    7.35698E+006    1.73165E+006    8.16648E+006   -1.91428E+005    1.10922E+006   -3.37090E+005    8.36324E+005
            5350    7.42250E+006    8.34369E+006    8.34369E+006    1.20651E+006    6.65486E+005    7.67821E+006   -3.40523E+006    7.37794E+006    1.31239E+006    8.15109E+006    7.52220E+005    1.04355E+006   -7.70304E+004    5.46579E+005
            5351    7.04112E+006    8.06344E+006    8.06344E+006    1.26837E+006    7.99691E+005    7.26375E+006   -3.37717E+006    7.00589E+006    9.56625E+005    7.99993E+006    1.17496E+006    5.83323E+005    2.24325E+005    3.09611E+005
            5352    6.92500E+006    7.97182E+006    7.97182E+006    1.52610E+006    6.50784E+005    7.32104E+006   -3.38290E+006    6.79887E+006    8.37783E+005    7.96185E+006    1.34908E+006    2.33732E+005    3.57208E+005    1.11913E+005
            5353    6.95399E+006    6.93226E+006    6.93226E+006    1.12763E+006   -7.75024E+005    7.70728E+006   -2.42829E+006    6.32748E+006    1.17551E+006    6.76299E+006   -6.53634E+005    8.97860E+005   -3.34067E+005    5.22406E+005
            5354    6.20663E+006    6.71111E+006    6.71111E+006    7.19084E+005    3.10107E+005    6.40101E+006   -2.58010E+006    6.17621E+006    8.00825E+005    6.56484E+006    3.74637E+005    8.10476E+005   -4.21576E+004    4.77579E+005
            5355    5.85552E+006    6.50428E+006    6.50428E+006    9.10458E+005    4.18142E+005    6.08614E+006   -2.61096E+006    5.80868E+006    5.90510E+005    6.44272E+006    7.99652E+005    4.42885E+005    2.51625E+005    3.83243E+005
            5356    5.70414E+006    6.38813E+006    6.38813E+006    1.17861E+006    2.92970E+005    6.09516E+006   -2.61990E+006    5.54628E+006    5.02889E+005    6.37906E+006    9.77758E+005    1.86798E+005    3.76926E+005    1.17974E+005
            5357    5.60176E+006    5.44743E+006    5.44743E+006    7.10178E+005   -7.35461E+005    6.18289E+006   -1.80738E+006    5.15643E+006    7.15367E+005    5.34338E+006   -6.36605E+005    6.70944E+005   -3.13990E+005    2.77003E+005
            5358    5.21095E+006    5.47573E+006    5.47573E+006    4.10446E+005    1.30410E+005    5.34532E+006   -2.00553E+006    5.19398E+006    4.69677E+005    5.35380E+006    1.93107E+005    5.92258E+005    6.08326E+003    5.22686E+005
            5359    4.88849E+006    5.22448E+006    5.22448E+006    5.90020E+005    1.16440E+005    5.10804E+006   -1.97698E+006    4.83647E+006    3.04367E+005    5.16408E+006    4.62493E+005    3.15380E+005    2.55010E+005    4.20484E+005
            5360    4.72380E+006    5.09531E+006    5.09531E+006    8.20936E+005    2.35854E+004    5.07173E+006   -1.97995E+006    4.56870E+006    2.40418E+005    5.08494E+006    6.14480E+005    1.42800E+005    3.57554E+005    1.55338E+005
            5361    3.82950E+006    3.92220E+006    3.92220E+006    4.57873E+005   -1.89859E+005    4.11206E+006   -1.39674E+006    3.70323E+006   -8.41645E+003    3.91431E+006    2.84314E+005    8.59805E+004    2.93317E+005    1.40914E+005
            5362    2.73531E+006    2.58634E+006    2.58634E+006    1.00871E+005   -3.44211E+005    2.93055E+006   -7.81000E+005    2.65200E+006   -3.07006E+005    2.58346E+006    6.65443E+004    5.59583E+004    1.22857E+005    6.48237E+004
            5363    4.01872E+006    4.12238E+006    4.12238E+006    3.22823E+005   -8.44851E+004    4.20686E+006   -1.45357E+006    3.97188E+006    7.21824E+004    4.06871E+006    2.19826E+005    2.26379E+005    2.17854E+005    3.87313E+005
            5364    3.00500E+006    2.90460E+006    2.90460E+006    7.31594E+004   -2.48138E+005    3.15274E+006   -9.09875E+005    2.96599E+006   -2.13965E+005    2.88428E+006    5.93068E+004    1.68918E+005    9.57384E+004    1.73009E+005
            5365    4.32860E+006    4.41132E+006    4.41132E+006    1.65430E+005    4.51251E+003    4.40681E+006   -1.52709E+006    4.32186E+006    1.99634E+005    4.32231E+006    5.93170E+004    3.81153E+005    5.51835E+004    4.82047E+005
            5366    3.43802E+006    3.39837E+006    3.39837E+006   -3.04996E+003   -7.51108E+004    3.47348E+006   -1.10674E+006    3.43632E+006   -5.26038E+004    3.36411E+006    8.70703E+003    2.55351E+005    3.24130E+004    2.25841E+005
            5367    4.53299E+006    4.49408E+006    4.49408E+006    4.19742E+005   -3.88753E+005    4.88283E+006   -1.50836E+006    4.36633E+006    3.98418E+005    4.42438E+006   -2.97730E+005    4.70193E+005   -2.02980E+005    2.97470E+005
            5368    3.85479E+006    3.88939E+006    3.88939E+006    1.28011E+005   -5.24862E+004    3.94187E+006   -1.32164E+006    3.84527E+006    1.30677E+005    3.85578E+006   -2.15418E+004    3.12325E+005   -4.61071E+004    1.76877E+005
            5369    4.09315E+006    4.21009E+006    4.21009E+006    3.23937E+005   -6.26389E+004    4.27273E+006   -1.49046E+006    4.05178E+006    3.06360E+005    4.17930E+006   -1.42719E+004    3.44626E+005   -1.23554E+005    5.02153E+004
            5370    4.09468E+006    4.25285E+006    4.25285E+006    4.61126E+005   -8.91389E+004    4.34199E+006   -1.54161E+006    4.01023E+006    4.37095E+005    4.22202E+006   -3.42778E+004    3.23338E+005   -1.69909E+005   -1.06782E+005
            5371    4.45110E+006    4.27418E+006    4.27418E+006    5.86646E+005   -6.70203E+005    4.94439E+006   -1.39688E+006    4.02187E+006    5.29077E+005    4.22055E+006   -5.58998E+005    4.37825E+005   -3.63641E+005   -6.59517E+004
            5372    4.00971E+006    3.85017E+006    3.85017E+006    6.32792E+005   -6.41941E+005    4.49211E+006   -1.28034E+006    3.50840E+006    5.62823E+005    3.75315E+006   -4.74947E+005    3.25351E+005   -4.01431E+005   -4.86761E+005
            5373    4.78125E+006    4.02355E+006    4.02355E+006    5.54741E+005   -1.43052E+006    5.45407E+006   -1.04926E+006    3.66525E+006    5.32713E+005    3.63689E+006   -1.02183E+006    3.31128E+005   -4.86627E+005   -1.28361E+006
            5374    5.77913E+006    4.86604E+006    4.86604E+006    6.53074E+005   -1.72224E+006    6.58828E+006   -1.26563E+006    4.46406E+006    6.38708E+005    4.68354E+006   -1.52537E+006    4.85274E+005   -5.14535E+005   -8.36743E+005
            5375    7.53797E+006    7.33805E+006    7.33805E+006    1.39387E+006   -1.14049E+006    8.47854E+006   -2.53047E+006    6.46969E+006    1.42241E+006    7.22427E+006   -1.05526E+006   -7.49027E+005    3.53028E+005    4.42879E+005
            5376    8.73433E+006    8.95000E+006    8.95000E+006    2.01120E+006   -8.58037E+005    9.80804E+006   -3.36772E+006    7.55948E+006    2.04641E+006    8.74903E+006   -6.92268E+005   -9.09727E+005    3.72296E+005    9.32416E+005
            5377    9.87592E+006    1.08349E+007    1.08349E+007    2.84912E+006   -2.08118E+005    1.10430E+007   -4.49197E+006    8.71181E+006    2.88410E+006    1.05330E+007    5.88374E+004   -1.09603E+006    4.15651E+005    1.33094E+006
            5378    1.07567E+007    1.29457E+007    1.29457E+007    3.98478E+006    1.01656E+006    1.19292E+007   -5.98236E+006    9.76973E+006    4.02046E+006    1.24935E+007    1.43316E+006   -1.29325E+006    4.12802E+005    1.80467E+006
            5379    9.91345E+006    1.27396E+007    1.27396E+007    3.27487E+006    2.43135E+006    1.03083E+007   -6.14861E+006    9.83223E+006    3.36015E+006    1.25995E+007    2.48619E+006   -9.40648E+005    2.04690E+004    6.87220E+005
            5380    9.75589E+006    1.24691E+007    1.24691E+007    3.00212E+006    2.44793E+006    1.00212E+007   -5.97305E+006    9.72038E+006    2.98910E+006    1.24586E+007    2.47145E+006   -2.40231E+005   -1.06423E+005    2.07364E+005
            5381    8.45571E+006    1.04360E+007    1.04360E+007    2.36141E+006    1.64486E+006    8.79118E+006   -4.81411E+006    8.38700E+006    2.44470E+006    1.02852E+007    1.71241E+006   -8.45202E+005   -7.90233E+003    7.31332E+005
            5382    8.10917E+006    1.01264E+007    1.01264E+007    2.19072E+006    1.85426E+006    8.27216E+006   -4.72380E+006    8.09344E+006    2.09345E+006    1.01094E+007    1.96856E+006   -2.62050E+005   -1.64807E+005    2.57506E+005
            5383    7.23076E+006    8.44111E+006    8.44111E+006    1.59143E+006    8.81614E+005    7.55950E+006   -3.63805E+006    7.15175E+006    1.66833E+006    8.30108E+006    9.44746E+005   -7.32399E+005   -2.67058E+004    6.72362E+005
            5384    6.54170E+006    7.94235E+006    7.94235E+006    1.64520E+006    1.18083E+006    6.76152E+006   -3.58946E+006    6.50447E+006    1.32757E+006    7.92686E+006    1.51395E+006   -2.52001E+005   -2.19182E+005    1.86115E+005
            5385    5.75669E+006    6.37684E+006    6.37684E+006    8.89498E+005    3.84126E+005    5.99272E+006   -2.55016E+006    5.70646E+006    9.49450E+005    6.26503E+006    4.35983E+005   -5.70884E+005   -3.98750E+004    5.50319E+005
            5386    5.29508E+006    6.14414E+006    6.14414E+006    1.16613E+006    5.80651E+005    5.56349E+006   -2.63031E+006    5.22151E+006    7.35786E+005    6.12121E+006    1.03392E+006   -2.10345E+005   -2.64674E+005    2.63861E+005
            5387    4.26216E+006    4.60483E+006    4.60483E+006    6.53480E+005    8.82746E+004    4.51656E+006   -1.78220E+006    4.17660E+006    2.43529E+005    4.58513E+006    5.17925E+005   -1.56159E+005   -2.58214E+005    2.30435E+005
            5388    2.97048E+006    2.82931E+006    2.82931E+006    1.55912E+005   -3.68426E+005    3.19774E+006   -8.72266E+005    2.86358E+006   -3.38762E+005    2.82189E+006    1.33666E+005   -9.60456E+004   -1.18737E+005    1.06528E+005
            5389    4.55410E+006    4.81476E+006    4.81476E+006    3.95476E+005    1.36869E+005    4.67789E+006   -1.78237E+006    4.53753E+006    4.26297E+005    4.70758E+006    2.13230E+005   -3.87303E+005   -8.33838E+004    5.72124E+005
            5390    3.32326E+006    3.23091E+006    3.23091E+006    1.65412E+004   -1.91477E+005    3.42239E+006   -1.01866E+006    3.30857E+006   -1.67572E+005    3.19134E+006    3.22092E+004   -2.61194E+005   -4.67350E+004    2.46121E+005
            5391    3.73738E+006    3.73621E+006    3.73621E+006    1.09327E+005   -1.02653E+005    3.83886E+006   -1.24763E+006    3.72382E+006    1.26122E+005    3.67791E+006   -6.11527E+004   -3.67241E+005    3.43351E+004    2.85451E+005
            5392    4.14168E+006    4.19678E+006    4.19678E+006    4.03772E+005   -2.22274E+005    4.41906E+006   -1.45943E+006    4.03316E+006    4.20394E+005    4.14550E+006   -1.87616E+005   -4.01962E+005    1.04576E+005    2.04070E+005
            5393    4.21700E+006    4.36197E+006    4.36197E+006    6.39521E+005   -2.17815E+005    4.57979E+006   -1.59456E+006    4.01383E+006    6.54673E+005    4.32712E+006   -1.98116E+005   -3.56884E+005    1.30838E+005   -3.49281E+004
            5394    3.83262E+006    4.09353E+006    4.09353E+006    7.51936E+005   -9.00918E+004    4.18362E+006   -1.58512E+006    3.61561E+006    7.62548E+005    4.06247E+006   -6.96488E+004   -2.73817E+005    1.14838E+005   -1.79097E+005
            5395    4.73691E+006    4.80298E+006    4.80298E+006    5.55575E+005   -3.05353E+005    5.10833E+006   -1.68440E+006    4.55588E+006    5.69651E+005    4.69364E+006   -2.10089E+005   -4.63384E+005    1.16116E+005    5.54620E+005
            5396    4.57922E+006    4.38420E+006    4.38420E+006    5.59235E+005   -6.90007E+005    5.07420E+006   -1.41781E+006    4.16924E+006    5.39871E+005    4.34243E+006   -6.28875E+005   -3.98639E+005    2.62439E+005    7.35468E+004
            5397    3.97776E+006    3.88947E+006    3.88947E+006    6.02944E+005   -5.32577E+005    4.42205E+006   -1.31995E+006    3.58501E+006    5.70452E+005    3.81549E+006   -4.26106E+005   -3.04355E+005    2.97272E+005   -4.17251E+005
            5398    3.44334E+006    3.49441E+006    3.49441E+006    6.36503E+005   -3.28463E+005    3.82288E+006   -1.26748E+006    3.11668E+006    6.02728E+005    3.35461E+006   -1.54884E+005   -2.35952E+005    2.81331E+005   -6.37822E+005
            5399    3.80236E+006    3.32469E+006    3.32469E+006    5.77652E+005   -1.01502E+006    4.33971E+006   -9.62443E+005    2.89510E+006    5.54182E+005    2.80834E+006   -4.75193E+005   -2.25713E+005    4.26723E+005   -1.32886E+006
            5400    4.73485E+006    3.97331E+006    3.97331E+006    5.86651E+005   -1.43710E+006    5.41041E+006   -1.04095E+006    3.54543E+006    5.67747E+005    3.65442E+006   -1.09931E+006   -3.25470E+005    4.59491E+005   -1.15691E+006
            5401    5.62624E+006    4.67017E+006    4.67017E+006    6.15743E+005   -1.75315E+006    6.42333E+006   -1.17759E+006    4.26604E+006    6.03645E+005    4.51613E+006   -1.58701E+006   -4.34421E+005    4.62832E+005   -7.67769E+005
            5402    6.46655E+006    5.80189E+006    5.80189E+006    8.82076E+005   -1.52247E+006    7.32436E+006   -1.72050E+006    5.31108E+006    8.87815E+005    5.72463E+006   -1.45095E+006   -6.03002E+005    4.15189E+005   -1.02556E+005
            5403    1.15157E+007    1.49010E+007    1.49010E+007    3.94432E+006    2.89779E+006    1.20032E+007   -7.24771E+006    1.14080E+007    3.94570E+006    1.48945E+007    2.90295E+006   -2.07213E+005   -5.48465E+004    1.76357E+005
            5404    1.13465E+007    1.50855E+007    1.50855E+007    4.25486E+006    3.28519E+006    1.18003E+007   -7.54183E+006    1.12528E+007    4.34279E+006    1.49592E+007    3.32348E+006   -1.01528E+006    3.29369E+004    5.99830E+005
            5405    1.11287E+007    1.49869E+007    1.49869E+007    5.30688E+006    2.82778E+006    1.21591E+007   -7.70719E+006    1.04800E+007    5.35035E+006    1.44257E+007    3.34548E+006   -1.47687E+006    3.58670E+005    2.02815E+006
            5406    1.30201E+007    1.69617E+007    1.69617E+007    4.77438E+006    3.24404E+006    1.37177E+007   -8.32671E+006    1.28154E+007    4.77650E+006    1.69583E+007    3.24531E+006   -1.70627E+005   -2.17521E+004    1.17117E+005
            5407    1.25689E+007    1.71020E+007    1.71020E+007    5.12164E+006    4.01735E+006    1.30846E+007   -8.74699E+006    1.24591E+007    5.21300E+006    1.69937E+007    4.03430E+006   -1.06691E+006    3.38749E+004    4.08249E+005
            5408    1.08559E+007    1.65606E+007    1.65606E+007    6.57950E+006    5.00238E+006    1.15582E+007   -9.38082E+006    1.05936E+007    6.65548E+006    1.60522E+007    5.43483E+006   -1.60959E+006    2.46583E+005    1.69689E+006
            5409    1.39050E+007    1.81714E+007    1.81714E+007    5.27006E+006    3.44344E+006    1.47280E+007   -8.96165E+006    1.36311E+007    5.27176E+006    1.81696E+007    3.44359E+006   -1.48507E+005   -4.56789E+003    4.63347E+004
            5410    1.32847E+007    1.82737E+007    1.82737E+007    5.62578E+006    4.43269E+006    1.38410E+007   -9.44404E+006    1.31633E+007    5.72071E+006    1.81769E+007    4.43452E+006   -1.09398E+006    1.00704E+004    1.41283E+005
            5411    1.03356E+007    1.73523E+007    1.73523E+007    7.30683E+006    6.74922E+006    1.06031E+007   -1.04695E+007    1.03017E+007    7.50757E+006    1.70241E+007    6.87666E+006   -1.67646E+006    8.77588E+004    6.83731E+005
            5412    3.72619E+006    3.96793E+006    3.96793E+006    7.38223E+005   -1.08887E+005    4.07681E+006   -1.53242E+006    3.49956E+006    7.46672E+005    3.93927E+006   -8.86795E+004    2.54890E+005    1.13608E+005    1.76476E+005
            5413    3.33320E+006    3.38086E+006    3.38086E+006    6.25742E+005   -3.24194E+005    3.70505E+006   -1.22747E+006    3.00528E+006    5.89031E+005    3.23246E+006   -1.39083E+005    2.15096E+005    2.79309E+005    6.56968E+005
            5414    3.75531E+006    3.26898E+006    3.26898E+006    5.67272E+005   -1.01920E+006    4.28819E+006   -9.39018E+005    2.83964E+006    5.42355E+005    2.74512E+006   -4.70421E+005    2.15959E+005    4.24785E+005    1.33070E+006
            5415    3.22213E+006    3.48345E+006    3.48345E+006    7.11768E+005   -5.19212E+004    3.53537E+006   -1.38110E+006    3.00823E+006    7.13046E+005    3.46439E+006   -3.41429E+004    1.64056E+005    9.06982E+004    1.75828E+005
            5416    2.71019E+006    2.88699E+006    2.88699E+006    6.12129E+005   -1.11586E+005    2.99858E+006   -1.12918E+006    2.47843E+006    5.63169E+005    2.75665E+006    6.77130E+004    1.40817E+005    2.38549E+005    5.69003E+005
            5417    2.74483E+006    2.57182E+006    2.57182E+006    5.45302E+005   -5.51896E+005    3.12371E+006   -8.55074E+005    2.16166E+006    5.06181E+005    2.00476E+006    5.42843E+004    1.29695E+005    3.67637E+005    1.14761E+006
            5418    2.81430E+006    3.07480E+006    3.07480E+006    6.58962E+005   -1.54311E+004    3.09023E+006   -1.23944E+006    2.62309E+006    6.53884E+005    3.06940E+006   -4.95425E+003    7.59918E+004    7.35953E+004    9.40041E+004
            5419    2.18847E+006    2.44055E+006    2.44055E+006    5.86578E+005    2.64525E+004    2.41410E+006   -1.01786E+006    2.01753E+006    5.10610E+005    2.39525E+006    1.47722E+005    6.39511E+004    2.06760E+005    3.06286E+005
            5420    1.64818E+006    1.79454E+006    1.79454E+006    5.56240E+005   -7.61929E+004    1.87073E+006   -7.58194E+005    1.33092E+006    4.45970E+005    1.47737E+006    3.51246E+005    5.69550E+004    3.12755E+005    6.43651E+005
            5421    2.69101E+006    2.94080E+006    2.94080E+006    6.33792E+005   -1.54314E+004    2.95623E+006   -1.18639E+006    2.50555E+006    6.26607E+005    2.94072E+006   -8.16910E+003   -1.07692E+004    6.81926E+004   -8.70651E+003
            5422    2.00173E+006    2.28755E+006    2.28755E+006    5.88984E+005    8.06683E+004    2.20688E+006   -9.85734E+005    1.84796E+006    4.95857E+005    2.28667E+006    1.74679E+005   -6.06610E+003    1.96842E+005   -4.18097E+004
            5423    9.85932E+005    1.26253E+006    1.26253E+006    7.08906E+005    1.24211E+005    1.13831E+006   -6.98548E+005   -3.56466E+005    4.04826E+005    1.26197E+006    4.28843E+005   -3.79251E+003    2.92287E+005   -1.85305E+004
            5424    2.87917E+006    3.14644E+006    3.14644E+006    6.70267E+005   -1.28529E+004    3.15929E+006   -1.26795E+006    2.68761E+006    6.66435E+005    3.13811E+006   -6.94754E+002   -9.53476E+004    7.58778E+004   -1.18139E+005
            5425    2.28470E+006    2.52517E+006    2.52517E+006    5.90120E+005    4.72574E+003    2.52044E+006   -1.04000E+006    2.10582E+006    5.20704E+005    2.46448E+006    1.34827E+005   -8.33127E+004    2.11743E+005   -3.59303E+005
            5426    1.74327E+006    1.87194E+006    1.87194E+006    5.52708E+005   -1.04372E+005    1.97631E+006   -7.73427E+005    1.42164E+006    4.55555E+005    1.52376E+006    3.40961E+005   -6.59765E+004    3.15780E+005   -6.95259E+005
            5427    3.34761E+006    3.59548E+006    3.59548E+006    7.13999E+005   -7.66890E+004    3.67217E+006   -1.41093E+006    3.12699E+006    7.17107E+005    3.57411E+006   -5.84192E+004   -1.86383E+005    9.57622E+004   -1.78142E+005
            5428    2.86555E+006    3.02656E+006    3.02656E+006    6.28386E+005   -1.46858E+005    3.17341E+006   -1.16936E+006    2.61356E+006    5.83197E+005    2.88516E+006    3.97322E+004   -1.53388E+005    2.46076E+005   -6.09301E+005
            5429    2.80920E+006    2.64111E+006    2.64111E+006    5.61957E+005   -5.54718E+005    3.19583E+006   -8.82784E+005    2.22043E+006    5.23965E+005    2.07849E+006    4.58976E+004   -1.38261E+005    3.72021E+005   -1.15914E+006
            5430    1.11318E+007    1.49925E+007    1.49925E+007    5.30948E+006    2.83002E+006    1.21624E+007   -7.71065E+006    1.04831E+007    5.35304E+006    1.44303E+007    3.34863E+006   -1.47773E+006   -3.58462E+005   -2.03066E+006
            5431    1.13578E+007    1.51017E+007    1.51017E+007    4.25852E+006    3.29122E+006    1.18105E+007   -7.55049E+006    1.12646E+007    4.34647E+006    1.49775E+007    3.32749E+006   -1.01321E+006   -3.15121E+004   -5.84980E+005
            5432    1.15403E+007    1.49346E+007    1.49346E+007    3.95712E+006    2.90384E+006    1.20308E+007   -7.26520E+006    1.14314E+007    3.95853E+006    1.49282E+007    2.90888E+006   -2.06651E+005    5.44026E+004   -1.74284E+005
            5433    1.08438E+007    1.65665E+007    1.65665E+007    6.58956E+006    5.02558E+006    1.15409E+007   -9.39388E+006    1.05856E+007    6.66590E+006    1.60585E+007    5.45723E+006   -1.61033E+006   -2.44510E+005   -1.69270E+006
            5434    1.25835E+007    1.71018E+007    1.71018E+007    5.11233E+006    3.99837E+006    1.31034E+007   -8.73749E+006    1.24718E+007    5.20328E+006    1.69941E+007    4.01512E+006   -1.06474E+006   -3.40049E+004   -4.06373E+005
            5435    1.30298E+007    1.69750E+007    1.69750E+007    4.77938E+006    3.24660E+006    1.37284E+007   -8.33365E+006    1.28246E+007    4.78147E+006    1.69716E+007    3.24787E+006   -1.69423E+005    2.14456E+004   -1.17795E+005
            5436    1.03258E+007    1.73531E+007    1.73531E+007    7.30972E+006    6.76627E+006    1.05868E+007   -1.04764E+007    1.02936E+007    7.51333E+006    1.70270E+007    6.88877E+006   -1.67684E+006   -8.53412E+004   -6.64328E+005
            5437    1.32913E+007    1.82687E+007    1.82687E+007    5.61803E+006    4.41809E+006    1.38506E+007   -9.43493E+006    1.31686E+007    5.71265E+006    1.81719E+007    4.42026E+006   -1.09295E+006   -1.21514E+004   -1.52335E+005
            5438    1.39026E+007    1.81698E+007    1.81698E+007    5.27001E+006    3.44483E+006    1.47250E+007   -8.96156E+006    1.36291E+007    5.27170E+006    1.81680E+007    3.44498E+006   -1.47753E+005    4.07636E+003   -4.52499E+004
            5439    4.69038E+006    5.23114E+006    5.23114E+006    8.93597E+005    2.53636E+005    4.97750E+006   -2.12612E+006    4.59062E+006    4.31792E+005    5.22161E+006    7.24971E+005    9.34763E+004   -2.89727E+005   -1.80376E+005
            5440    5.58360E+006    6.54456E+006    6.54456E+006    1.31029E+006    6.67303E+005    5.87726E+006   -2.84072E+006    5.49938E+006    8.35828E+005    6.53708E+006    1.14925E+006    1.20544E+005   -2.84879E+005   -1.56974E+005
            5441    6.71659E+006    8.16309E+006    8.16309E+006    1.73591E+006    1.19037E+006    6.97273E+006   -3.69646E+006    6.66647E+006    1.34767E+006    8.15665E+006    1.58505E+006    1.49975E+005   -2.48719E+005   -1.38273E+005
            5442    8.17147E+006    1.01770E+007    1.01770E+007    2.20029E+006    1.82381E+006    8.35320E+006   -4.73370E+006    8.15192E+006    2.01792E+006    1.01720E+007    2.01115E+006    1.69938E+005   -1.90456E+005   -1.04340E+005
            5443    9.88668E+006    1.25095E+007    1.25095E+007    2.87282E+006    2.39049E+006    1.01190E+007   -5.92427E+006    9.86016E+006    2.84376E+006    1.25050E+007    2.42410E+006    1.81851E+005   -1.22880E+005   -1.04139E+005
            5444    4.88471E+006    5.38891E+006    5.38891E+006    6.57354E+005    3.64241E+005    5.02467E+006   -2.13683E+006    4.86486E+006    5.17911E+005    5.31474E+006    5.77853E+005    3.64004E+005   -1.81068E+005   -4.61489E+005
            5445    5.77399E+006    6.69093E+006    6.69093E+006    1.05162E+006    7.91080E+005    5.89985E+006   -2.84454E+006    5.76074E+006    9.50728E+005    6.61595E+006    9.66948E+005    4.66147E+005   -1.67377E+005   -4.47181E+005
            5446    6.85099E+006    8.25955E+006    8.25955E+006    1.51917E+006    1.30307E+006    6.95649E+006   -3.69393E+006    6.84331E+006    1.49366E+006    8.19121E+006    1.39692E+006    5.58085E+005   -1.33730E+005   -3.80184E+005
            5447    8.24104E+006    1.02553E+007    1.02553E+007    2.18073E+006    1.85733E+006    8.39798E+006   -4.76445E+006    8.22674E+006    2.21998E+006    1.01873E+007    1.88609E+006    6.38818E+005   -9.01771E+004   -3.72598E+005
            5448    9.79672E+006    1.25214E+007    1.25214E+007    3.05072E+006    2.42827E+006    1.00931E+007   -6.00012E+006    9.75208E+006    3.09992E+006    1.24592E+007    2.44123E+006    6.85838E+005   -4.75186E+004   -3.47817E+005
            5449    5.14899E+006    5.50292E+006    5.50292E+006    6.72302E+005    8.57869E+004    5.41713E+006   -2.08700E+006    5.07302E+006    7.16895E+005    5.36814E+006    1.75979E+005    4.99245E+005    1.89412E+002   -6.63782E+005
            5450    6.05756E+006    6.72378E+006    6.72378E+006    1.07356E+006    3.27926E+005    6.39586E+006   -2.70842E+006    5.95300E+006    1.13261E+006    6.59289E+006    3.99772E+005    6.16572E+005    1.49960E+004   -6.32367E+005
            5451    7.21385E+006    8.38427E+006    8.38427E+006    1.66793E+006    7.59046E+005    7.62522E+006   -3.60375E+006    7.08331E+006    1.73714E+006    8.24097E+006    8.33137E+005    7.25365E+005    2.22032E+004   -6.98365E+005
            5452    8.36555E+006    1.02454E+007    1.02454E+007    2.41190E+006    1.43375E+006    8.81162E+006   -4.69701E+006    8.23543E+006    2.48363E+006    1.01019E+007    1.50548E+006    7.99981E+005    2.96350E+004   -7.33221E+005
            5453    9.73832E+006    1.24713E+007    1.24713E+007    3.32996E+006    2.22952E+006    1.02418E+007   -6.01027E+006    9.59695E+006    3.39886E+006    1.23364E+007    2.29553E+006    8.47972E+005    3.84010E+004   -7.56084E+005
            5454    5.63912E+006    5.53203E+006    5.53203E+006    7.64650E+005   -6.92721E+005    6.22475E+006   -1.86799E+006    5.18945E+006    7.84076E+005    5.44709E+006   -6.27202E+005    5.74575E+005    2.27769E+005   -3.35400E+005
            5455    7.02982E+006    7.11894E+006    7.11894E+006    1.21100E+006   -6.55877E+005    7.77482E+006   -2.55802E+006    6.43572E+006    1.25415E+006    6.98950E+006   -5.69581E+005    7.45823E+005    2.41481E+005   -5.46107E+005
            5456    8.13320E+006    8.78526E+006    8.78526E+006    1.81782E+006   -1.51901E+005    8.93716E+006   -3.48373E+006    7.56813E+006    1.87442E+006    8.59035E+006   -1.35921E+004    9.10793E+005    2.43764E+005   -8.43403E+005
            5457    9.25346E+006    1.07751E+007    1.07751E+007    2.64969E+006    7.03320E+005    1.00718E+007   -4.70939E+006    8.77500E+006    2.71505E+006    1.05226E+007    8.90523E+005    1.07878E+006    2.49991E+005   -1.06712E+006
            5458    1.02880E+007    1.29644E+007    1.29644E+007    3.68057E+006    1.90375E+006    1.10606E+007   -6.18290E+006    9.93392E+006    3.75461E+006    1.26576E+007    2.13645E+006    1.24398E+006    2.37079E+005   -1.25724E+006
            5459    1.12309E+007    1.29551E+007    1.29551E+007    4.05262E+006    3.37328E+005    1.26178E+007   -5.78170E+006    9.69635E+006    4.08069E+006    1.24289E+007    8.35524E+005    1.39497E+006    5.34468E+005   -2.01034E+006
            5460    1.04425E+007    1.08160E+007    1.08160E+007    2.85726E+006   -1.00812E+006    1.18241E+007   -4.22171E+006    8.59637E+006    2.88305E+006    1.05109E+007   -7.28863E+005    1.15811E+006    5.53861E+005   -1.33169E+006
            5461    9.31800E+006    8.91019E+006    8.91019E+006    1.98614E+006   -1.68404E+006    1.05942E+007   -3.07076E+006    7.40807E+006    2.00871E+006    8.75019E+006   -1.54662E+006    9.41670E+005    5.34662E+005   -6.45795E+005
            5462    8.13000E+006    7.36527E+006    7.36527E+006    1.41915E+006   -1.89903E+006    9.26430E+006   -2.29513E+006    6.31196E+006    1.43517E+006    7.26578E+006   -1.81556E+006    7.63983E+005    4.99726E+005   -1.63071E+005
            5463    6.81120E+006    5.97952E+006    5.97952E+006    1.01272E+006   -1.78503E+006    7.76456E+006   -1.73574E+006    5.26369E+006    1.01464E+006    5.88940E+006   -1.69682E+006    5.96669E+005    4.79371E+005    3.17274E+005
            5464    5.76182E+006    4.80024E+006    4.80024E+006    6.68733E+005   -1.78176E+006    6.58200E+006   -1.22907E+006    4.33272E+006    6.56585E+005    4.64109E+006   -1.61046E+006    4.51119E+005    4.81764E+005    7.83781E+005
            5465    4.72304E+006    3.92702E+006    3.92702E+006    5.72923E+005   -1.47423E+006    5.40125E+006   -1.00857E+006    3.49292E+006    5.54615E+005    3.56855E+006   -1.09744E+006    3.15397E+005    4.64934E+005    1.23396E+006
            5466    3.95141E+006    3.85031E+006    3.85031E+006    6.08146E+005   -5.51036E+005    4.40135E+006   -1.30247E+006    3.53744E+006    5.77280E+005    3.76690E+006   -4.36755E+005    2.98685E+005    3.00079E+005    4.61706E+005
            5467    4.07959E+006    4.24748E+006    4.24748E+006    6.58333E+005   -1.89359E+005    4.43684E+006   -1.57215E+006    3.87394E+006    6.71692E+005    4.21519E+006   -1.70422E+005    3.35791E+005    1.27683E+005    4.60572E+004
            5468    4.41216E+006    4.29208E+006    4.29208E+006    6.07371E+005   -5.97301E+005    4.88938E+006   -1.43405E+006    4.01644E+006    5.84470E+005    4.25091E+006   -5.33235E+005    3.89251E+005    2.72207E+005    9.34344E+003
            5469    4.09719E+006    4.19762E+006    4.19762E+006    4.74467E+005   -1.91909E+005    4.38953E+006   -1.49339E+006    3.97252E+006    4.90188E+005    4.15540E+006   -1.65405E+005    3.81665E+005    1.11034E+005   -1.24550E+005
            5470    3.86976E+006    3.92120E+006    3.92120E+006    2.30249E+005   -1.05479E+005    4.02668E+006   -1.34866E+006    3.83679E+006    2.47225E+005    3.87076E+006   -7.20086E+004    3.74971E+005    5.94177E+004   -2.26546E+005
            5471    3.48174E+006    3.45748E+006    3.45748E+006    1.06374E+004   -5.81451E+004    3.51562E+006   -1.13666E+006    3.48021E+006   -2.80719E+004    3.40870E+006    2.93395E+004    3.20024E+005   -1.76127E+004   -2.56218E+005
            5472    3.08734E+006    2.95819E+006    2.95819E+006    6.04409E+004   -2.89003E+005    3.24719E+006   -9.09875E+005    3.04237E+006   -2.63591E+005    2.93041E+006    6.28077E+004    2.14301E+005   -7.44227E+004   -1.92870E+005
            5473    2.84506E+006    2.64624E+006    2.64624E+006    9.89061E+004   -4.23996E+005    3.07024E+006   -7.73718E+005    2.73379E+006   -4.01932E+005    2.64233E+006    8.07570E+004    7.69896E+004   -1.02369E+005   -6.84651E+004
            5474    4.54535E+006    4.52111E+006    4.52111E+006    5.01243E+005   -4.11267E+005    4.93238E+006   -1.53703E+006    4.33201E+006    5.03066E+005    4.44596E+006   -3.37935E+005    4.32040E+005    1.57113E+005   -3.90089E+005
            5475    4.35653E+006    4.49200E+006    4.49200E+006    3.14717E+005   -2.40084E+004    4.51600E+006   -1.59424E+006    4.32675E+006    3.47992E+005    4.38107E+006    5.36450E+004    3.90017E+005   -1.73141E+004   -5.72315E+005
            5476    4.07234E+006    4.24782E+006    4.24782E+006    3.30868E+005    3.60969E+004    4.21172E+006   -1.53826E+006    4.04824E+006    1.60397E+005    4.18302E+006    2.71367E+005    2.58413E+005   -1.70465E+005   -4.27813E+005
            5477    3.86502E+006    4.02727E+006    4.02727E+006    4.69789E+005   -8.52709E+004    4.11254E+006   -1.47060E+006    3.77379E+006    5.53724E+004    4.01811E+006    3.38303E+005    8.32825E+004   -2.44059E+005   -1.59891E+005
            5478    5.28976E+006    6.13770E+006    6.13770E+006    1.16515E+006    5.79472E+005    5.55823E+006   -2.62744E+006    5.21607E+006    7.33965E+005    6.11463E+006    1.03373E+006   -2.09955E+005    2.64424E+005   -2.65277E+005
            5479    6.54742E+006    7.95342E+006    7.95342E+006    1.65036E+006    1.18632E+006    6.76710E+006   -3.59670E+006    6.51027E+006    1.33229E+006    7.93806E+006    1.51975E+006   -2.51658E+005    2.18671E+005   -1.84656E+005
            5480    8.15072E+006    1.01861E+007    1.01861E+007    2.20955E+006    1.87164E+006    8.31442E+006   -4.75575E+006    8.13494E+006    2.11619E+006    1.01693E+007    1.98179E+006   -2.61876E+005    1.63530E+005   -2.55453E+005
            5481    9.80588E+006    1.25392E+007    1.25392E+007    3.02907E+006    2.46211E+006    1.00771E+007   -6.01011E+006    9.76890E+006    3.01663E+006    1.25288E+007    2.48495E+006   -2.39538E+005    1.05912E+005   -2.07313E+005
            5482    5.75985E+006    6.37961E+006    6.37961E+006    8.89158E+005    3.83678E+005    5.99593E+006   -2.55082E+006    5.70963E+006    9.49087E+005    6.26801E+006    4.35354E+005   -5.70933E+005    3.98239E+004   -5.49527E+005
            5483    7.24653E+006    8.46214E+006    8.46214E+006    1.59788E+006    8.85900E+005    7.57624E+006   -3.64864E+006    7.16721E+006    1.67473E+006    8.32156E+006    9.49631E+005   -7.33144E+005    2.66734E+004   -6.76226E+005
            5484    8.46878E+006    1.04672E+007    1.04672E+007    2.37558E+006    1.66596E+006    8.80126E+006   -4.83626E+006    8.40150E+006    2.45893E+006    1.03167E+007    1.73317E+006   -8.46211E+005    8.15591E+003   -7.29853E+005
            5485    9.92833E+006    1.27732E+007    1.27732E+007    3.29001E+006    2.45267E+006    1.03205E+007   -6.17194E+006    9.84842E+006    3.37540E+006    1.26335E+007    2.50692E+006   -9.40754E+005   -1.91990E+004   -6.85088E+005
            5486    1.07559E+007    1.29373E+007    1.29373E+007    3.97961E+006    1.00801E+006    1.19293E+007   -5.97497E+006    9.76636E+006    4.01506E+006    1.24851E+007    1.42475E+006   -1.29268E+006   -4.13498E+005   -1.80475E+006
            5487    9.86956E+006    1.08251E+007    1.08251E+007    2.84287E+006   -2.10259E+005    1.10354E+007   -4.48590E+006    8.70801E+006    2.87772E+006    1.05248E+007    5.52144E+004   -1.09463E+006   -4.15616E+005   -1.32511E+006
            5488    8.72689E+006    8.94741E+006    8.94741E+006    2.00967E+006   -8.50706E+005    9.79812E+006   -3.36879E+006    7.55892E+006    2.04502E+006    8.74649E+006   -6.85129E+005   -9.09118E+005   -3.70820E+005   -9.32217E+005
            5489    7.54653E+006    7.35280E+006    7.35280E+006    1.39720E+006   -1.13393E+006    8.48673E+006   -2.53869E+006    6.48286E+006    1.42616E+006    7.23846E+006   -1.04855E+006   -7.50736E+005   -3.51876E+005   -4.46114E+005
            5490    6.47608E+006    5.80891E+006    5.80891E+006    8.83517E+005   -1.52667E+006    7.33558E+006   -1.72192E+006    5.31653E+006    8.89486E+005    5.73152E+006   -1.45525E+006   -6.03852E+005   -4.15418E+005    1.02791E+005
            5491    5.62196E+006    4.66861E+006    4.66861E+006    6.17396E+005   -1.74986E+006    6.41847E+006   -1.17871E+006    4.26256E+006    6.05285E+005    4.51390E+006   -1.58304E+006   -4.34053E+005   -4.62937E+005    7.70058E+005
            5492    4.72495E+006    3.96873E+006    3.96873E+006    5.87992E+005   -1.43015E+006    5.39888E+006   -1.04219E+006    3.54009E+006    5.68965E+005    3.64979E+006   -1.09218E+006   -3.25155E+005   -4.59388E+005    1.15560E+006
            5493    3.80580E+006    3.32943E+006    3.32943E+006    5.79158E+005   -1.01406E+006    4.34348E+006   -9.64844E+005    2.89900E+006    5.55657E+005    2.81501E+006   -4.76138E+005   -2.26353E+005   -4.26828E+005    1.32707E+006
            5494    3.44698E+006    3.49545E+006    3.49545E+006    6.35703E+005   -3.31942E+005    3.82739E+006   -1.26640E+006    3.11876E+006    6.01850E+005    3.35523E+006   -1.57867E+005   -2.36131E+005   -2.82002E+005    6.39222E+005
            5495    3.83586E+006    4.09664E+006    4.09664E+006    7.51966E+005   -9.04014E+004    4.18704E+006   -1.58607E+006    3.61887E+006    7.62469E+005    4.06538E+006   -6.96501E+004   -2.74773E+005   -1.15960E+005    1.79750E+005
            5496    3.98618E+006    3.89665E+006    3.89665E+006    6.04726E+005   -5.35365E+005    4.43202E+006   -1.32200E+006    3.59097E+006    5.72527E+005    3.82216E+006   -4.28673E+005   -3.05260E+005   -2.97778E+005    4.19551E+005
            5497    4.21752E+006    4.35956E+006    4.35956E+006    6.38947E+005   -2.22005E+005    4.58157E+006   -1.59217E+006    4.01260E+006    6.53820E+005    4.32475E+006   -2.02062E+005   -3.56520E+005   -1.31920E+005    3.57997E+004
            5498    4.58994E+006    4.38956E+006    4.38956E+006    5.59057E+005   -6.97913E+005    5.08747E+006   -1.41690E+006    4.17561E+006    5.39790E+005    4.34774E+006   -6.36833E+005   -3.99385E+005   -2.63572E+005   -7.09889E+004
            5499    4.14524E+006    4.20212E+006    4.20212E+006    4.08668E+005   -2.22507E+005    4.42463E+006   -1.46276E+006    4.03500E+006    4.25254E+005    4.15112E+006   -1.88088E+005   -4.01642E+005   -1.05266E+005   -2.01951E+005
            5500    4.74046E+006    4.80877E+006    4.80877E+006    5.58169E+005   -3.03375E+005    5.11214E+006   -1.68785E+006    4.55930E+006    5.72281E+005    4.69893E+006   -2.07650E+005   -4.64123E+005   -1.16135E+005   -5.56536E+005
            5501    3.74335E+006    3.74381E+006    3.74381E+006    1.13626E+005   -1.03269E+005    3.84708E+006   -1.25139E+006    3.72917E+006    1.30531E+005    3.68546E+006   -6.18216E+004   -3.68122E+005   -3.51750E+004   -2.85244E+005
            5502    3.32664E+006    3.23484E+006    3.23484E+006    1.57346E+004   -1.89801E+005    3.42464E+006   -1.02026E+006    3.31231E+006   -1.65834E+005    3.19494E+006    3.16648E+004   -2.62494E+005    4.62696E+004   -2.47196E+005
            5503    2.96945E+006    2.82726E+006    2.82726E+006    1.54386E+005   -3.69141E+005    3.19640E+006   -8.70835E+005    2.86285E+006   -3.39737E+005    2.81967E+006    1.32573E+005   -9.70974E+004    1.18055E+005   -1.07800E+005
            5504    4.55518E+006    4.81588E+006    4.81588E+006    3.95758E+005    1.36683E+005    4.67919E+006   -1.78277E+006    4.53856E+006    4.26660E+005    4.70847E+006    2.13184E+005   -3.87479E+005    8.32869E+004   -5.72980E+005
            5505    4.25545E+006    4.59481E+006    4.59481E+006    6.49743E+005    8.53116E+004    4.50950E+006   -1.77662E+006    4.16999E+006    2.39905E+005    4.57509E+006    5.14877E+005   -1.56223E+005    2.57635E+005   -2.30353E+005
            5506    1.13234E+007    1.49775E+007    1.49775E+007    5.48784E+006    2.44297E+006    1.25346E+007   -7.63611E+006    1.03406E+007    5.51886E+006    1.42492E+007    3.14027E+006    1.61129E+006    4.52261E+005   -2.39272E+006
            5507    1.11771E+007    1.51892E+007    1.51892E+007    4.82790E+006    3.34444E+006    1.18448E+007   -7.78719E+006    1.09524E+007    4.91855E+006    1.48702E+007    3.57286E+006    1.39678E+006    2.08187E+005   -1.25275E+006
            5508    1.10784E+007    1.47549E+007    1.47549E+007    4.32570E+006    3.12511E+006    1.16298E+007   -7.40189E+006    1.09306E+007    4.39142E+006    1.46397E+007    3.17456E+006    8.76724E+005    4.37772E+004   -6.92851E+005
            5509    1.14402E+007    1.49075E+007    1.49075E+007    4.02341E+006    2.98242E+006    1.19251E+007   -7.30444E+006    1.13329E+007    4.07062E+006    1.48521E+007    2.99062E+006    7.15417E+005   -1.29052E+004   -3.11367E+005
            5510    1.16884E+007    1.49587E+007    1.49587E+007    3.76969E+006    2.82793E+006    1.21308E+007   -7.18544E+006    1.16026E+007    3.76855E+006    1.49549E+007    2.83283E+006    1.88834E+005   -6.50251E+004   -8.27440E+004
            5511    1.06328E+007    1.64678E+007    1.64678E+007    6.89279E+006    5.02481E+006    1.14430E+007   -9.46181E+006    1.02538E+007    6.94899E+006    1.57788E+007    5.65761E+006    1.76799E+006    3.04722E+005   -2.03012E+006
            5512    1.17380E+007    1.70422E+007    1.70422E+007    5.87260E+006    4.80837E+006    1.22339E+007   -9.24106E+006    1.16287E+007    6.00553E+006    1.67575E+007    4.96019E+006    1.52416E+006    1.47982E+005   -9.67637E+005
            5513    1.22135E+007    1.67666E+007    1.67666E+007    5.23793E+006    3.96768E+006    1.27990E+007   -8.65742E+006    1.20635E+007    5.30393E+006    1.66753E+007    3.99306E+006    9.00261E+005    3.78763E+004   -5.16881E+005
            5514    1.28429E+007    1.69714E+007    1.69714E+007    4.90423E+006    3.47281E+006    1.34986E+007   -8.44949E+006    1.26615E+007    4.94847E+006    1.69234E+007    3.47663E+006    7.31062E+005    4.80140E+003   -2.20584E+005
            5515    1.32344E+007    1.70533E+007    1.70533E+007    4.58991E+006    3.16351E+006    1.38898E+007   -8.26891E+006    1.30598E+007    4.59266E+006    1.70499E+007    3.16415E+006    1.96975E+005   -2.37736E+004   -6.22471E+004
            5516    9.68566E+006    1.71099E+007    1.71099E+007    7.71139E+006    7.16065E+006    9.94928E+006   -1.06607E+007    9.65034E+006    7.89102E+006    1.66763E+007    7.41468E+006    1.84555E+006    1.05449E+005   -8.09998E+005
            5517    1.19964E+007    1.80957E+007    1.80957E+007    6.45505E+006    5.77265E+006    1.23231E+007   -1.01078E+007    1.19527E+007    6.65822E+006    1.78662E+007    5.79897E+006    1.58295E+006    5.40045E+004   -3.65350E+005
            5518    1.28724E+007    1.79318E+007    1.79318E+007    5.76512E+006    4.45405E+006    1.34777E+007   -9.38365E+006    1.27208E+007    5.83072E+006    1.78630E+007    4.45723E+006    8.94687E+005    1.32022E+004   -1.89598E+005
            5519    1.36663E+007    1.81884E+007    1.81884E+007    5.43067E+006    3.76595E+006    1.44224E+007   -9.12833E+006    1.34353E+007    5.47250E+006    1.81459E+007    3.76661E+006    7.29925E+005    6.17958E+003   -9.20167E+004
            5520    1.41533E+007    1.83017E+007    1.83017E+007    5.09386E+006    3.36212E+006    1.49395E+007   -8.91921E+006    1.39120E+007    5.09673E+006    1.82987E+007    3.36216E+006    1.95238E+005   -3.94790E+003   -2.14334E+004
            5521    3.76141E+006    3.27056E+006    3.27056E+006    5.65598E+005   -1.02481E+006    4.29537E+006   -9.37116E+005    2.84226E+006    5.40818E+005    2.74487E+006   -4.74343E+005    2.15932E+005   -4.25013E+005   -1.33423E+006
            5522    3.32483E+006    3.37640E+006    3.37640E+006    6.26808E+005   -3.18811E+005    3.69521E+006   -1.22813E+006    2.99918E+006    5.90029E+005    3.22909E+006   -1.34723E+005    2.13829E+005   -2.78051E+005   -6.53921E+005
            5523    3.71428E+006    3.95703E+006    3.95703E+006    7.38111E+005   -1.06974E+005    4.06400E+006   -1.52939E+006    3.48799E+006    7.46389E+005    3.92851E+006   -8.67361E+004    2.52845E+005   -1.13150E+005   -1.77522E+005
            5524    2.73927E+006    2.56903E+006    2.56903E+006    5.45893E+005   -5.48193E+005    3.11722E+006   -8.55575E+005    2.15844E+006    5.06790E+005    2.00152E+006    5.84175E+004    1.29456E+005   -3.67252E+005   -1.14648E+006
            5525    2.70728E+006    2.88439E+006    2.88439E+006    6.12022E+005   -1.10998E+005    2.99539E+006   -1.12847E+006    2.47572E+006    5.62922E+005    2.75503E+006    6.74627E+004    1.40159E+005   -2.38207E+005   -5.66661E+005
            5526    3.21157E+006    3.47231E+006    3.47231E+006    7.10190E+005   -5.16785E+004    3.52399E+006   -1.37694E+006    2.99796E+006    7.11274E+005    3.45364E+006   -3.40833E+004    1.62152E+005   -9.03978E+004   -1.73793E+005
            5527    1.63712E+006    1.78467E+006    1.78467E+006    5.55553E+005   -7.37236E+004    1.85839E+006   -7.55499E+005    1.32069E+006    4.44172E+005    1.46926E+006    3.53064E+005    5.66670E+004   -3.12745E+005   -6.38906E+005
            5528    2.18699E+006    2.43824E+006    2.43824E+006    5.86350E+005    2.54219E+004    2.41282E+006   -1.01667E+006    2.01539E+006    5.09927E+005    2.39315E+006    1.46940E+005    6.32910E+004   -2.07227E+005   -3.05623E+005
            5529    2.81075E+006    3.07066E+006    3.07066E+006    6.58268E+005   -1.58604E+004    3.08652E+006   -1.23769E+006    2.61944E+006    6.53081E+005    3.06546E+006   -5.47508E+003    7.44396E+004   -7.35426E+004   -9.22573E+004
            5530    9.86511E+005    1.26363E+006    1.26363E+006    7.09299E+005    1.24638E+005    1.13899E+006   -6.99188E+005   -3.53739E+005    4.05474E+005    1.26235E+006    4.29736E+005   -4.22138E+003   -2.92463E+005    2.88938E+004
            5531    2.00214E+006    2.28861E+006    2.28861E+006    5.89617E+005    8.13122E+004    2.20730E+006   -9.86514E+005    1.84842E+006    4.96402E+005    2.28771E+006    1.75433E+005   -6.77262E+003   -1.96934E+005    4.21625E+004
            5532    2.69239E+006    2.94246E+006    2.94246E+006    6.34216E+005   -1.52526E+004    2.95771E+006   -1.18714E+006    2.50689E+006    6.27038E+005    2.94236E+006   -7.97595E+003   -1.19695E+004   -6.82448E+004    9.96068E+003
            5533    1.76256E+006    1.88389E+006    1.88389E+006    5.50323E+005   -1.14364E+005    1.99826E+006   -7.73284E+005    1.43699E+006    4.55402E+005    1.52714E+006    3.37307E+005   -6.64026E+004   -3.16794E+005    7.07855E+005
            5534    2.28451E+006    2.52384E+006    2.52384E+006    5.89329E+005    3.44120E+003    2.52040E+006   -1.03887E+006    2.10530E+006    5.19632E+005    2.46308E+006    1.33900E+005   -8.36916E+004   -2.12277E+005    3.59344E+005
            5535    2.88816E+006    3.15539E+006    3.15539E+006    6.71448E+005   -1.37591E+004    3.16915E+006   -1.27103E+006    2.69603E+006    6.67816E+005    3.14686E+006   -1.59884E+003   -9.70672E+004   -7.57382E+004    1.19331E+005
            5536    2.82422E+006    2.65255E+006    2.65255E+006    5.63301E+005   -5.60589E+005    3.21314E+006   -8.85089E+005    2.23070E+006    5.25331E+005    2.09132E+006    3.86173E+004   -1.39173E+005   -3.72869E+005    1.16184E+006
            5537    2.85975E+006    3.02155E+006    3.02155E+006    6.27989E+005   -1.45338E+005    3.16689E+006   -1.16807E+006    2.60851E+006    5.82487E+005    2.87862E+006    4.30957E+004   -1.53213E+005   -2.46654E+005    6.11979E+005
            5538    3.35730E+006    3.60653E+006    3.60653E+006    7.15853E+005   -7.58604E+004    3.68239E+006   -1.41551E+006    3.13678E+006    7.19159E+005    3.58501E+006   -5.76449E+004   -1.88213E+005   -9.58815E+004    1.77797E+005
            5539    1.16798E+007    1.49450E+007    1.49450E+007    3.76343E+006    2.82374E+006    1.21213E+007   -7.17740E+006    1.15943E+007    3.76236E+006    1.49413E+007    2.82856E+006    1.88853E+005    6.45405E+004    8.04451E+004
            5540    1.14407E+007    1.49070E+007    1.49070E+007    4.02361E+006    2.98041E+006    1.19266E+007   -7.30367E+006    1.13330E+007    4.07084E+006    1.48515E+007    2.98867E+006    7.15630E+005    1.22717E+004    3.12470E+005
            5541    1.10856E+007    1.47683E+007    1.47683E+007    4.33379E+006    3.12989E+006    1.16384E+007   -7.41066E+006    1.09371E+007    4.39987E+006    1.46518E+007    3.18027E+006    8.80965E+005   -4.51771E+004    6.98121E+005
            5542    1.11771E+007    1.51999E+007    1.51999E+007    4.84324E+006    3.35206E+006    1.18478E+007   -7.79840E+006    1.09500E+007    4.93312E+006    1.48765E+007    3.58557E+006    1.40189E+006   -2.10641E+005    1.26659E+006
            5543    1.13214E+007    1.49868E+007    1.49868E+007    5.49872E+006    2.45461E+006    1.25322E+007   -7.64672E+006    1.03388E+007    5.52977E+006    1.42568E+007    3.15362E+006    1.61373E+006   -4.52553E+005    2.39469E+006
            5544    1.32353E+007    1.70519E+007    1.70519E+007    4.58761E+006    3.16120E+006    1.38907E+007   -8.26691E+006    1.30607E+007    4.59026E+006    1.70486E+007    3.16187E+006    1.94158E+005    2.41346E+004    6.37297E+004
            5545    1.28450E+007    1.69708E+007    1.69708E+007    4.90156E+006    3.47005E+006    1.35008E+007   -8.44748E+006    1.26637E+007    4.94529E+006    1.69233E+007    3.47383E+006    7.26909E+005   -4.24265E+003    2.19937E+005
            5546    1.22148E+007    1.67654E+007    1.67654E+007    5.23629E+006    3.96448E+006    1.28009E+007   -8.65540E+006    1.20645E+007    5.30238E+006    1.66739E+007    3.98996E+006    9.00938E+005   -3.78976E+004    5.17932E+005
            5547    1.17239E+007    1.70455E+007    1.70455E+007    5.88978E+006    4.82584E+006    1.22196E+007   -9.25370E+006    1.16146E+007    6.02244E+006    1.67574E+007    4.98126E+006    1.52928E+006   -1.49213E+005    9.77626E+005
            5548    1.06277E+007    1.64674E+007    1.64674E+007    6.90309E+006    5.02634E+006    1.14410E+007   -9.46560E+006    1.02449E+007    6.95761E+006    1.57723E+007    5.66686E+006    1.77033E+006   -3.06409E+005    2.04293E+006
            5549    1.41493E+007    1.82982E+007    1.82982E+007    5.09293E+006    3.36378E+006    1.49344E+007   -8.91831E+006    1.39086E+007    5.09576E+006    1.82953E+007    3.36382E+006    1.93801E+005    3.67829E+003    2.07881E+004
            5550    1.36706E+007    1.81881E+007    1.81881E+007    5.42746E+006    3.76033E+006    1.44278E+007   -9.12529E+006    1.34391E+007    5.46901E+006    1.81459E+007    3.76098E+006    7.27674E+005   -6.26799E+003    9.09552E+004
            5551    1.28730E+007    1.79345E+007    1.79345E+007    5.76608E+006    4.45704E+006    1.34775E+007   -9.38588E+006    1.27219E+007    5.83174E+006    1.78658E+007    4.46012E+006    8.94992E+005   -1.26036E+004    1.86769E+005
            5552    1.19813E+007    1.80845E+007    1.80845E+007    6.45548E+006    5.77960E+006    1.23049E+007   -1.01065E+007    1.19383E+007    6.65930E+006    1.78551E+007    5.80519E+006    1.58339E+006   -5.35683E+004    3.57403E+005
            5553    9.67860E+006    1.70900E+007    1.70900E+007    7.70155E+006    7.14516E+006    9.94479E+006   -1.06456E+007    9.64252E+006    7.88143E+006    1.66558E+007    7.39947E+006    1.84454E+006   -1.06739E+005    8.13234E+005
            5554    6.80926E+006    5.97890E+006    5.97890E+006    1.01411E+006   -1.78357E+006    7.76247E+006   -1.73648E+006    5.26121E+006    1.01575E+006    5.88920E+006   -1.69552E+006    5.96810E+005   -4.79742E+005   -3.12107E+005
            5555    8.13623E+006    7.36743E+006    7.36743E+006    1.42155E+006   -1.90497E+006    9.27240E+006   -2.29467E+006    6.30891E+006    1.43721E+006    7.26799E+006   -1.82119E+006    7.63604E+005   -5.00938E+005    1.65356E+005
            5556    9.33326E+006    8.93148E+006    8.93148E+006    1.99848E+006   -1.68064E+006    1.06121E+007   -3.08311E+006    7.41649E+006    2.02095E+006    8.77004E+006   -1.54167E+006    9.44216E+005   -5.35983E+005    6.54828E+005
            5557    1.04553E+007    1.08445E+007    1.08445E+007    2.87422E+006   -9.93730E+005    1.18382E+007   -4.24165E+006    8.60937E+006    2.89985E+006    1.05361E+007   -7.10970E+005    1.16165E+006   -5.54524E+005    1.34418E+006
            5558    1.12273E+007    1.29756E+007    1.29756E+007    4.06920E+006    3.64021E+005    1.26116E+007   -5.80295E+006    9.70147E+006    4.09739E+006    1.24459E+007    8.65547E+005    1.39725E+006   -5.32829E+005    2.01826E+006
            5559    1.02919E+007    1.29568E+007    1.29568E+007    3.67569E+006    1.88820E+006    1.10686E+007   -6.17356E+006    9.93366E+006    3.74959E+006    1.26500E+007    2.12113E+006    1.24426E+006   -2.38756E+005    1.25775E+006
            5560    9.73099E+006    1.24574E+007    1.24574E+007    3.32638E+006    2.22088E+006    1.02365E+007   -6.00156E+006    9.58819E+006    3.39527E+006    1.23213E+007    2.28810E+006    8.50808E+005   -4.11223E+004    7.60057E+005
            5561    9.79230E+006    1.25178E+007    1.25178E+007    3.05277E+006    2.42807E+006    1.00897E+007   -5.99953E+006    9.74731E+006    3.10273E+006    1.24548E+007    2.44111E+006    6.90051E+005    4.65089E+004    3.50309E+005
            5562    9.88453E+006    1.25079E+007    1.25079E+007    2.87348E+006    2.39085E+006    1.01170E+007   -5.92406E+006    9.85796E+006    2.84412E+006    1.25032E+007    2.42489E+006    1.84359E+005    1.23647E+005    1.05363E+005
            5563    9.23890E+006    1.07408E+007    1.07408E+007    2.63441E+006    6.81625E+005    1.00592E+007   -4.68562E+006    8.75632E+006    2.69975E+006    1.04891E+007    8.68011E+005    1.07631E+006   -2.50355E+005    1.06407E+006
            5564    8.36301E+006    1.02270E+007    1.02270E+007    2.40326E+006    1.41292E+006    8.81409E+006   -4.68106E+006    8.22954E+006    2.47505E+006    1.00822E+007    1.48596E+006    8.00880E+005   -3.05573E+004    7.39875E+005
            5565    8.24013E+006    1.02514E+007    1.02514E+007    2.17905E+006    1.85320E+006    8.39822E+006   -4.76122E+006    8.22561E+006    2.21992E+006    1.01825E+007    1.88126E+006    6.42063E+005    8.81706E+004    3.76791E+005
            5566    8.16916E+006    1.01773E+007    1.01773E+007    2.20258E+006    1.82667E+006    8.35063E+006   -4.73552E+006    8.14967E+006    2.02002E+006    1.01722E+007    2.01431E+006    1.72169E+005    1.90210E+005    1.04500E+005
            5567    8.10601E+006    8.73837E+006    8.73837E+006    1.80028E+006   -1.71685E+005    8.91006E+006   -3.45566E+006    7.53746E+006    1.85636E+006    8.54530E+006   -3.46911E+004    9.08216E+005   -2.45981E+005    8.33518E+005
            5568    7.19752E+006    8.34838E+006    8.34838E+006    1.65454E+006    7.35473E+005    7.61291E+006   -3.57946E+006    7.06369E+006    1.72344E+006    8.20474E+006    8.10212E+005    7.24867E+005   -2.46256E+004    6.99037E+005
            5569    6.86808E+006    8.27998E+006    8.27998E+006    1.52196E+006    1.30689E+006    6.97309E+006   -3.70294E+006    6.86050E+006    1.50361E+006    8.20993E+006    1.39528E+006    5.63744E+005    1.31853E+005    3.88155E+005
            5570    6.74151E+006    8.19617E+006    8.19617E+006    1.74157E+006    1.20037E+006    6.99580E+006   -3.71270E+006    6.69238E+006    1.35862E+006    8.18928E+006    1.59020E+006    1.53438E+005    2.47960E+005    1.45137E+005
            5571    7.02312E+006    7.10367E+006    7.10367E+006    1.20762E+006   -6.66348E+005    7.77002E+006   -2.54831E+006    6.42353E+006    1.25076E+006    6.97463E+006   -5.80454E+005    7.44882E+005   -2.42238E+005    5.43407E+005
            5572    6.05309E+006    6.71599E+006    6.71599E+006    1.07217E+006    3.23320E+005    6.39267E+006   -2.70383E+006    5.94754E+006    1.13126E+006    6.58518E+006    3.95042E+005    6.16895E+005   -1.56839E+004    6.31116E+005
            5573    5.78788E+006    6.70608E+006    6.70608E+006    1.04992E+006    7.94917E+005    5.91116E+006   -2.85030E+006    5.77522E+006    9.55398E+005    6.63134E+006    9.64172E+005    4.69421E+005    1.64653E+005    4.43657E+005
            5574    5.60760E+006    6.58318E+006    6.58318E+006    1.32421E+006    6.82226E+005    5.90096E+006   -2.86320E+006    5.52401E+006    8.50448E+005    6.57606E+006    1.16310E+006    1.22547E+005    2.84252E+005    1.49863E+005
            5575    5.63795E+006    5.52714E+006    5.52714E+006    7.62358E+005   -6.97020E+005    6.22416E+006   -1.86416E+006    5.18685E+006    7.81546E+005    5.44247E+006   -6.31539E+005    5.74363E+005   -2.28816E+005    3.32908E+005
            5576    5.14337E+006    5.50413E+006    5.50413E+006    6.72860E+005    9.71176E+004    5.40701E+006   -2.09137E+006    5.07011E+006    7.17878E+005    5.36924E+006    1.86986E+005    4.98933E+005    2.45276E+003    6.63569E+005
            5577    4.89896E+006    5.40465E+006    5.40465E+006    6.60338E+005    3.64456E+005    5.04019E+006   -2.14315E+006    4.87879E+006    5.20252E+005    5.33092E+006    5.78272E+005    3.62811E+005    1.82377E+005    4.61284E+005
            5578    4.70679E+006    5.25826E+006    5.25826E+006    9.04821E+005    2.63813E+005    4.99445E+006   -2.14230E+006    4.60706E+006    4.41886E+005    5.24799E+006    7.37011E+005    9.54771E+004    2.90216E+005    1.88407E+005
            5579    3.88408E+006    4.05308E+006    4.05308E+006    4.76516E+005   -7.87419E+004    4.13182E+006   -1.48362E+006    3.79324E+006    6.38319E+004    4.04388E+006    3.43148E+005    8.38797E+004    2.45237E+005    1.60672E+005
            5580    2.84950E+006    2.65250E+006    2.65250E+006    1.00200E+005   -4.21975E+005    3.07447E+006   -7.76907E+005    2.73873E+006   -3.99528E+005    2.64855E+006    8.16964E+004    7.74251E+004    1.03175E+005    6.86623E+004
            5581    4.07163E+006    4.24937E+006    4.24937E+006    3.35707E+005    3.63077E+004    4.21306E+006   -1.54046E+006    4.04675E+006    1.60509E+005    4.18486E+006    2.76017E+005    2.57539E+005    1.72057E+005    4.26798E+005
            5582    3.09088E+006    2.96360E+006    2.96360E+006    6.17391E+004   -2.86756E+005    3.25036E+006   -9.12862E+005    3.04621E+006   -2.60948E+005    2.93551E+006    6.40237E+004    2.15590E+005    7.51135E+004    1.94069E+005
            5583    4.34973E+006    4.48591E+006    4.48591E+006    3.11642E+005   -2.02671E+004    4.50618E+006   -1.59243E+006    4.32110E+006    3.44912E+005    4.37486E+006    5.75105E+004    3.88322E+005    1.88976E+004    5.73116E+005
            5584    3.48491E+006    3.45951E+006    3.45951E+006    8.02551E+003   -5.78962E+004    3.51741E+006   -1.13655E+006    3.48351E+006   -2.76262E+004    3.41087E+006    2.63916E+004    3.20243E+005    1.67836E+004    2.55373E+005
            5585    4.54245E+006    4.51883E+006    4.51883E+006    5.00617E+005   -4.09914E+005    4.92874E+006   -1.53651E+006    4.32992E+006    5.02322E+005    4.44335E+006   -3.36143E+005    4.32197E+005   -1.57047E+005    3.91694E+005
            5586    3.86692E+006    3.92132E+006    3.92132E+006    2.31851E+005   -1.01475E+005    4.02279E+006   -1.35057E+006    3.83440E+006    2.49007E+005    3.87095E+006   -6.82619E+004    3.74612E+005   -5.87267E+004    2.26171E+005
            5587    4.09886E+006    4.19894E+006    4.19894E+006    4.76068E+005   -1.93470E+005    4.39241E+006   -1.49385E+006    3.97303E+006    4.91780E+005    4.15684E+006   -1.67081E+005    3.81271E+005   -1.11257E+005    1.23712E+005
            5588    4.07552E+006    4.24466E+006    4.24466E+006    6.61292E+005   -1.88902E+005    4.43356E+006   -1.57235E+006    3.86838E+006    6.74500E+005    4.21253E+006   -1.69980E+005    3.33992E+005   -1.27817E+005   -5.04892E+004
            5589    4.40924E+006    4.28746E+006    4.28746E+006    6.05774E+005   -5.98924E+005    4.88638E+006   -1.43144E+006    4.01320E+006    5.82790E+005    4.24635E+006   -5.34835E+005    3.88541E+005   -2.72492E+005   -1.26799E+004
            5590    3.93980E+006    3.84232E+006    3.84232E+006    6.08021E+005   -5.45485E+005    4.38780E+006   -1.30162E+006    3.52881E+006    5.77156E+005    3.75833E+006   -4.30631E+005    2.97394E+005   -2.99268E+005   -4.64246E+005
            5591    4.73518E+006    3.93431E+006    3.93431E+006    5.72693E+005   -1.48102E+006    5.41533E+006   -1.00866E+006    3.49986E+006    5.54498E+005    3.57574E+006   -1.10426E+006    3.16002E+005   -4.65361E+005   -1.23583E+006
            5592    5.78082E+006    4.80936E+006    4.80936E+006    6.66530E+005   -1.79477E+006    6.60414E+006   -1.22704E+006    4.34294E+006    6.54371E+005    4.65057E+006   -1.62382E+006    4.51816E+005   -4.82563E+005   -7.83806E+005
            5593    7.59778E+006    7.41302E+006    7.41302E+006    1.49937E+006   -1.15609E+006    8.56912E+006   -2.58543E+006    6.42180E+006    1.52067E+006    7.32607E+006   -1.09045E+006   -5.93827E+005    2.69717E+005    5.06924E+005
            5594    8.82223E+006    9.06707E+006    9.06707E+006    2.14634E+006   -8.67043E+005    9.93411E+006   -3.44879E+006    7.52639E+006    2.17091E+006    8.89935E+006   -7.23889E+005   -6.97896E+005    2.75330E+005    1.00232E+006
            5595    9.97300E+006    1.10056E+007    1.10056E+007    3.02366E+006   -1.74114E+005    1.11797E+007   -4.61837E+006    8.70219E+006    3.05040E+006    1.07518E+007    5.29232E+004   -8.09785E+005    2.86303E+005    1.39842E+006
            5596    1.08494E+007    1.31643E+007    1.31643E+007    4.18428E+006    1.10933E+006    1.20550E+007   -6.15265E+006    9.79475E+006    4.21155E+006    1.27780E+007    1.46843E+006   -9.11544E+005    2.66549E+005    1.87946E+006
            5597    9.64718E+006    1.28467E+007    1.28467E+007    3.99151E+006    2.56615E+006    1.02806E+007   -6.46812E+006    9.40590E+006    4.02577E+006    1.27403E+007    2.63828E+006   -6.34286E+005    7.17656E+004    7.92879E+005
            5598    9.58105E+006    1.26679E+007    1.26679E+007    3.58973E+006    2.65289E+006    1.00151E+007   -6.30352E+006    9.47718E+006    3.59415E+006    1.26575E+007    2.65892E+006   -2.62543E+005   -5.93511E+004    1.67376E+005
            5599    8.29296E+006    1.05569E+007    1.05569E+007    2.91018E+006    1.74168E+006    8.81524E+006   -5.06959E+006    8.10464E+006    2.94734E+006    1.04314E+007    1.83002E+006   -5.99856E+005    4.56964E+004    8.29802E+005
            5600    7.90159E+006    1.02523E+007    1.02523E+007    2.62203E+006    2.10471E+006    8.14754E+006   -4.99300E+006    7.86335E+006    2.61058E+006    1.02384E+007    2.13005E+006   -2.30908E+005   -1.03064E+005    2.33784E+005
            5601    7.15646E+006    8.55531E+006    8.55531E+006    1.97089E+006    9.38871E+005    7.61644E+006   -3.82169E+006    6.98610E+006    2.01007E+006    8.43137E+006    1.02364E+006   -5.46679E+005    2.06844E+004    7.69582E+005
            5602    6.34251E+006    8.02364E+006    8.02364E+006    1.83732E+006    1.53570E+006    6.48794E+006   -3.79889E+006    6.32635E+006    1.73941E+006    8.01208E+006    1.64518E+006   -1.96562E+005   -1.49184E+005    1.81174E+005
            5603    5.72626E+006    6.46953E+006    6.46953E+006    1.13617E+006    4.18105E+005    6.05142E+006   -2.67460E+006    5.62363E+006    1.17274E+006    6.36177E+006    4.89302E+005   -4.55185E+005   -8.44970E+003    6.39985E+005
            5604    5.15670E+006    6.20806E+006    6.20806E+006    1.24442E+006    8.77866E+005    5.33019E+006   -2.77678E+006    5.12727E+006    1.02345E+006    6.18681E+006    1.12009E+006   -1.59193E+005   -1.87328E+005    2.82613E+005
            5605    4.20076E+006    4.65751E+006    4.65751E+006    6.62549E+005    2.77464E+005    4.38004E+006   -1.86584E+006    4.16077E+006    3.98130E+005    4.63652E+006    5.62871E+005   -1.24349E+005   -1.85200E+005    2.60926E+005
            5606    2.97694E+006    2.83711E+006    2.83711E+006    1.47008E+005   -3.61227E+005    3.19834E+006   -8.74297E+005    2.87689E+006   -3.45724E+005    2.82786E+006    1.40749E+005   -1.00829E+005   -8.21950E+004    1.25077E+005
            5607    4.57038E+006    4.88299E+006    4.88299E+006    5.13302E+005    1.35389E+005    4.74760E+006   -1.84389E+006    4.53502E+006    5.39205E+005    4.76541E+006    2.27061E+005   -3.32052E+005   -4.76226E+004    6.51484E+005
            5608    3.32221E+006    3.25497E+006    3.25497E+006    2.58775E+004   -1.53127E+005    3.40809E+006   -1.04257E+006    3.31133E+006   -1.31940E+005    3.20913E+006    5.05205E+004   -2.60833E+005   -3.51503E+004    2.84491E+005
            5609    3.71386E+006    3.79878E+006    3.79878E+006    1.86471E+005   -8.92373E+003    3.80770E+006   -1.32544E+006    3.70227E+006    2.11716E+005    3.73756E+006    2.70487E+004   -3.54811E+005    1.22496E+004    3.15093E+005
            5610    4.11143E+006    4.27906E+006    4.27906E+006    5.15372E+005   -1.08753E+005    4.38781E+006   -1.56189E+006    4.00277E+006    5.42475E+005    4.23033E+006   -8.71314E+004   -3.79480E+005    6.25124E+004    2.17200E+005
            5611    4.18827E+006    4.45237E+006    4.45237E+006    7.72122E+005   -1.05003E+005    4.55738E+006   -1.70650E+006    3.97367E+006    7.94803E+005    4.42234E+006   -9.76526E+004   -3.29202E+005    8.12850E+004   -3.54407E+004
            5612    3.80040E+006    4.18081E+006    4.18081E+006    8.84821E+005    2.37548E+004    4.15705E+006   -1.69646E+006    3.57089E+006    8.99948E+005    4.15251E+006    3.69230E+004   -2.48332E+005    7.13987E+004   -1.92948E+005
            5613    4.78497E+006    4.82801E+006    4.82801E+006    6.36220E+005   -3.85187E+005    5.21320E+006   -1.69302E+006    4.52984E+006    6.40117E+005    4.70768E+006   -2.68747E+005   -4.13174E+005    1.29948E+005    6.49409E+005
            5614    4.61019E+006    4.38180E+006    4.38180E+006    6.00662E+005   -7.53933E+005    5.13573E+006   -1.40951E+006    4.12552E+006    5.84454E+005    4.34364E+006   -6.99568E+005   -3.63309E+005    2.44330E+005    1.54575E+005
            5615    3.96805E+006    3.87008E+006    3.87008E+006    6.42584E+005   -5.60207E+005    4.43029E+006   -1.31749E+006    3.52149E+006    6.26488E+005    3.80704E+006   -4.81077E+005   -2.90569E+005    2.58218E+005   -3.77187E+005
            5616    3.41950E+006    3.48206E+006    3.48206E+006    6.95748E+005   -3.33961E+005    3.81602E+006   -1.28128E+006    3.04019E+006    6.80166E+005    3.35483E+006   -1.91143E+005   -2.17960E+005    2.36110E+005   -6.16370E+005
            5617    3.73756E+006    3.30192E+006    3.30192E+006    5.65352E+005   -9.56473E+005    4.25840E+006   -9.70268E+005    2.90667E+006    5.56635E+005    2.80643E+006   -4.52260E+005   -1.82601E+005    3.13327E+005   -1.31979E+006
            5618    4.68383E+006    3.93877E+006    3.93877E+006    5.75053E+005   -1.41084E+006    5.34961E+006   -1.03433E+006    3.53122E+006    5.70368E+005    3.64701E+006   -1.11440E+006   -2.69786E+005    3.44529E+005   -1.13669E+006
            5619    5.62074E+006    4.67485E+006    4.67485E+006    6.29806E+005   -1.74324E+006    6.41808E+006   -1.18714E+006    4.25243E+006    6.29390E+005    4.55073E+006   -1.61870E+006   -3.51454E+005    3.41979E+005   -7.35987E+005
            5620    6.48403E+006    5.83979E+006    5.83979E+006    9.53829E+005   -1.51626E+006    7.35605E+006   -1.75912E+006    5.25726E+006    9.64875E+005    5.79205E+006   -1.47957E+006   -4.77820E+005    3.01691E+005   -5.15406E+004
            5621    1.14098E+007    1.51944E+007    1.51944E+007    4.60520E+006    3.11112E+006    1.20833E+007   -7.63690E+006    1.11866E+007    4.61371E+006    1.51842E+007    3.11281E+006   -3.04531E+005   -2.32541E+004    1.31011E+005
            5622    1.09460E+007    1.51441E+007    1.51441E+007    5.13890E+006    3.45301E+006    1.16911E+007   -7.91200E+006    1.06480E+007    5.17258E+006    1.50602E+007    3.50319E+006   -6.52170E+005    7.85360E+004    6.97725E+005
            5623    1.11991E+007    1.52540E+007    1.52540E+007    5.53771E+006    3.00571E+006    1.22483E+007   -7.93247E+006    1.05258E+007    5.56825E+006    1.47897E+007    3.43947E+006   -9.87026E+005    2.15068E+005    2.09448E+006
            5624    1.29866E+007    1.73452E+007    1.73452E+007    5.47763E+006    3.47278E+006    1.38724E+007   -8.76521E+006    1.26314E+007    5.48748E+006    1.73349E+007    3.47327E+006   -3.41670E+005   -2.97602E+003    8.25074E+004
            5625    1.20414E+007    1.71047E+007    1.71047E+007    6.13312E+006    4.22210E+006    1.28826E+007   -9.15332E+006    1.16929E+007    6.16888E+006    1.70469E+007    4.24418E+006   -6.59608E+005    5.92963E+004    4.85389E+005
            5626    1.08865E+007    1.68508E+007    1.68508E+007    6.83760E+006    5.26266E+006    1.15881E+007   -9.65036E+006    1.06256E+007    6.88070E+006    1.64788E+007    5.59155E+006   -1.02749E+006    1.36078E+005    1.74483E+006
            5627    1.39161E+007    1.86095E+007    1.86095E+007    5.99381E+006    3.68240E+006    1.49271E+007   -9.42857E+006    1.34741E+007    6.00434E+006    1.85989E+007    3.68248E+006   -3.64481E+005    7.71545E+002    3.22992E+004
            5628    1.26749E+007    1.82328E+007    1.82328E+007    6.71003E+006    4.65654E+006    1.35763E+007   -9.86647E+006    1.22923E+007    6.74741E+006    1.81929E+007    4.65913E+006   -6.59743E+005    2.33268E+004    1.68889E+005
            5629    1.03363E+007    1.76490E+007    1.76490E+007    7.65134E+006    7.00434E+006    1.06446E+007   -1.07682E+007    1.02906E+007    7.73785E+006    1.74939E+007    7.07291E+006   -1.04085E+006    4.75773E+004    7.00712E+005
            5630    3.69701E+006    4.04940E+006    4.04940E+006    8.64937E+005   -5.00688E+003    4.05441E+006   -1.63644E+006    3.45528E+006    8.77465E+005    4.02374E+006    8.12240E+003    2.28536E+005    7.25301E+004    1.87467E+005
            5631    3.31199E+006    3.37150E+006    3.37150E+006    6.81289E+005   -3.27622E+005    3.69912E+006   -1.24172E+006    2.93519E+006    6.66484E+005    3.23293E+006   -1.74252E+005    2.03099E+005    2.28615E+005    6.42278E+005
            5632    3.68968E+006    3.24292E+006    3.24292E+006    5.48988E+005   -9.62512E+005    4.20543E+006   -9.43131E+005    2.85697E+006    5.40320E+005    2.73842E+006   -4.49351E+005    1.77839E+005    3.11134E+005    1.32186E+006
            5633    3.19501E+006    3.55289E+006    3.55289E+006    8.20716E+005    3.98246E+004    3.51306E+006   -1.47114E+006    2.96869E+006    8.25294E+005    3.53486E+006    5.32759E+004    1.45213E+005    5.98802E+004    1.86625E+005
            5634    2.68994E+006    2.89082E+006    2.89082E+006    6.76861E+005   -1.02842E+005    2.99366E+006   -1.15495E+006    2.41540E+006    6.54713E+005    2.76703E+006    4.30953E+004    1.27469E+005    1.87721E+005    5.63744E+005
            5635    2.68527E+006    2.56648E+006    2.56648E+006    5.24100E+005   -4.75153E+005    3.04164E+006   -8.71810E+005    2.20461E+006    5.07263E+005    2.00916E+006    9.90034E+004    1.05436E+005    2.59807E+005    1.14591E+006
            5636    2.79153E+006    3.13093E+006    3.13093E+006    7.50478E+005    5.84887E+004    3.07244E+006   -1.31330E+006    2.58779E+006    7.48943E+005    3.12588E+006    6.50777E+004    6.58261E+004    5.08438E+004    9.81676E+004
            5637    2.17365E+006    2.45666E+006    2.45666E+006    6.40098E+005    4.84338E+004    2.40823E+006   -1.04840E+006    1.97998E+006    6.04765E+005    2.41267E+006    1.27759E+005    6.01706E+004    1.55800E+005    3.06945E+005
            5638    1.58621E+006    1.80098E+006    1.80098E+006    5.10909E+005    2.99546E+004    1.77102E+006   -7.80614E+005    1.40758E+006    4.51457E+005    1.48879E+006    4.01597E+005    4.83567E+004    2.13337E+005    6.43492E+005
            5639    2.66982E+006    2.99274E+006    2.99274E+006    7.20242E+005    5.23889E+004    2.94035E+006   -1.25512E+006    2.47118E+006    7.16748E+005    2.99268E+006    5.59450E+004   -8.19069E+003    4.84130E+004   -9.70045E+003
            5640    1.98896E+006    2.30841E+006    2.30841E+006    6.33956E+005    1.09891E+005    2.19852E+006   -1.01742E+006    1.82367E+006    5.89647E+005    2.30751E+006    1.55100E+005   -8.54618E+003    1.46111E+005   -4.21203E+004
            5641    9.00384E+005    1.27594E+006    1.27594E+006    6.41931E+005    2.45340E+005    1.03060E+006   -7.21070E+005    6.55779E+005    4.08889E+005    1.27541E+006    4.78914E+005   -3.82602E+003    1.95368E+005   -1.88435E+004
            5642    2.85423E+006    3.20409E+006    3.20409E+006    7.65864E+005    6.45763E+004    3.13951E+006   -1.34484E+006    2.64979E+006    7.65516E+005    3.19602E+006    7.29916E+004   -8.36996E+004    5.18647E+004   -1.25731E+005
            5643    2.26683E+006    2.53887E+006    2.53887E+006    6.49843E+005    2.52061E+004    2.51366E+006   -1.07131E+006    2.05946E+006    6.16887E+005    2.48151E+006    1.15514E+005   -7.28947E+004    1.61326E+005   -3.56570E+005
            5644    1.68433E+006    1.87890E+006    1.87890E+006    5.14454E+005   -3.61061E+003    1.88251E+006   -7.96582E+005    1.48860E+006    4.62275E+005    1.53585E+006    3.91618E+005   -5.14335E+004    2.16033E+005   -6.96567E+005
            5645    3.32141E+006    3.66794E+006    3.66794E+006    8.28938E+005    1.53242E+004    3.65261E+006   -1.50407E+006    3.08502E+006    8.35191E+005    3.64819E+006    2.88241E+004   -1.64011E+005    6.27331E+004   -1.89523E+005
            5646    2.84610E+006    3.02926E+006    3.02926E+006    6.90580E+005   -1.39639E+005    3.16890E+006   -1.19340E+006    2.55158E+006    6.72542E+005    2.89299E+006    1.46734E+004   -1.46387E+005    1.93195E+005   -6.05565E+005
            5647    2.74818E+006    2.63230E+006    2.63230E+006    5.39324E+005   -4.79884E+005    3.11218E+006   -8.97246E+005    2.26015E+006    5.24042E+005    2.07962E+006    8.80711E+004   -1.15236E+005    2.64195E+005   -1.15689E+006
            5648    1.12021E+007    1.52605E+007    1.52605E+007    5.54145E+006    3.00894E+006    1.22515E+007   -7.93695E+006    1.05287E+007    5.57193E+006    1.47952E+007    3.44371E+006   -9.87770E+005   -2.15342E+005   -2.09701E+006
            5649    1.09551E+007    1.51598E+007    1.51598E+007    5.14506E+006    3.45960E+006    1.17002E+007   -7.92148E+006    1.06576E+007    5.17882E+006    1.50780E+007    3.50766E+006   -6.50758E+005   -7.75476E+004   -6.82530E+005
            5650    1.14353E+007    1.52294E+007    1.52294E+007    4.61901E+006    3.11755E+006    1.21119E+007   -7.65533E+006    1.12103E+007    4.62754E+006    1.52193E+007    3.11919E+006   -3.04931E+005    2.30039E+004   -1.28852E+005
            5651    1.08745E+007    1.68579E+007    1.68579E+007    6.84916E+006    5.28663E+006    1.15713E+007   -9.66457E+006    1.06176E+007    6.89221E+006    1.64865E+007    5.61501E+006   -1.02827E+006   -1.35551E+005   -1.74101E+006
            5652    1.20554E+007    1.71038E+007    1.71038E+007    6.12472E+006    4.20294E+006    1.29008E+007   -9.14381E+006    1.17033E+007    6.16033E+006    1.70463E+007    4.22476E+006   -6.58311E+005   -5.92990E+004   -4.82703E+005
            5653    1.29968E+007    1.73592E+007    1.73592E+007    5.48272E+006    3.47555E+006    1.38837E+007   -8.77250E+006    1.26411E+007    5.49255E+006    1.73489E+007    3.47605E+006   -3.41545E+005    2.84813E+003   -8.36378E+004
            5654    1.03266E+007    1.76504E+007    1.76504E+007    7.65680E+006    7.02022E+006    1.06302E+007   -1.07758E+007    1.02824E+007    7.74411E+006    1.74977E+007    7.08565E+006   -1.04121E+006   -4.67797E+004   -6.81309E+005
            5655    1.26816E+007    1.82275E+007    1.82275E+007    6.70266E+006    4.64159E+006    1.35859E+007   -9.85726E+006    1.22963E+007    6.73993E+006    1.81874E+007    4.64450E+006   -6.59217E+005   -2.41426E+004   -1.79653E+005
            5656    1.39141E+007    1.86082E+007    1.86082E+007    5.99345E+006    3.68381E+006    1.49244E+007   -9.42849E+006    1.34727E+007    6.00399E+006    1.85976E+007    3.68388E+006   -3.64603E+005   -1.34747E+003   -3.22546E+004
            5657    4.62124E+006    5.31553E+006    5.31553E+006    9.25781E+005    4.93215E+005    4.82232E+006   -2.24484E+006    4.57536E+006    6.32654E+005    5.30412E+006    7.97759E+005    1.18142E+005   -2.06055E+005   -1.89833E+005
            5658    5.44686E+006    6.63905E+006    6.63905E+006    1.39668E+006    1.00846E+006    5.63059E+006   -3.01473E+006    5.41561E+006    1.15479E+006    6.62946E+006    1.25995E+006    1.46033E+005   -1.91798E+005   -1.69942E+005
            5659    6.51185E+006    8.26416E+006    8.26416E+006    1.91197E+006    1.60361E+006    6.66055E+006   -3.92658E+006    6.49539E+006    1.79684E+006    8.25602E+006    1.72688E+006    1.67005E+005   -1.54293E+005   -1.54139E+005
            5660    7.91638E+006    1.02937E+007    1.02937E+007    2.62142E+006    2.15397E+006    8.13974E+006   -5.02304E+006    7.88523E+006    2.60173E+006    1.02874E+007    2.17997E+006    1.84555E+005   -1.06349E+005   -1.20676E+005
            5661    9.60598E+006    1.26525E+007    1.26525E+007    3.55030E+006    2.61164E+006    1.00409E+007   -6.27148E+006    9.50198E+006    3.55119E+006    1.26470E+007    2.61626E+006    1.93418E+005   -5.73934E+004   -1.17257E+005
            5662    4.80462E+006    5.43291E+006    5.43291E+006    7.59662E+005    5.06900E+005    4.92601E+006   -2.23316E+006    4.78963E+006    7.32705E+005    5.35235E+006    6.14419E+005    2.74820E+005   -1.28602E+005   -5.49738E+005
            5663    5.62662E+006    6.73036E+006    6.73036E+006    1.26580E+006    9.54599E+005    5.77576E+006   -2.98359E+006    5.60720E+006    1.25781E+006    6.66014E+006    1.03281E+006    3.17737E+005   -1.19014E+005   -5.36097E+005
            5664    6.64970E+006    8.30552E+006    8.30552E+006    1.88244E+006    1.45027E+006    6.85525E+006   -3.87941E+006    6.61800E+006    1.89115E+006    8.25479E+006    1.49229E+006    3.51638E+005   -9.25095E+004   -4.57815E+005
            5665    8.01034E+006    1.03234E+007    1.03234E+007    2.69067E+006    1.98252E+006    8.34090E+006   -4.99887E+006    7.93946E+006    2.70646E+006    1.02827E+007    2.00743E+006    3.68422E+005   -5.94332E+004   -4.33310E+005
            5666    9.57330E+006    1.26373E+007    1.26373E+007    3.64856E+006    2.57060E+006    1.00667E+007   -6.28547E+006    9.43531E+006    3.66348E+006    1.26071E+007    2.58589E+006    3.66867E+005   -2.67896E+004   -3.89788E+005
            5667    5.18218E+006    5.60402E+006    5.60402E+006    8.04534E+005    1.09330E+005    5.49469E+006   -2.17263E+006    5.07568E+006    8.36471E+005    5.46751E+006    2.13897E+005    4.26373E+005    3.85548E+003   -7.28521E+005
            5668    6.07973E+006    6.86658E+006    6.86658E+006    1.26845E+006    3.98897E+005    6.46769E+006   -2.84464E+006    5.93741E+006    1.30820E+006    6.74675E+006    4.78977E+005    5.15284E+005    2.32684E+004   -6.80608E+005
            5669    7.23898E+006    8.58992E+006    8.58992E+006    1.94738E+006    8.74305E+005    7.71562E+006   -3.80387E+006    7.05671E+006    1.99237E+006    8.46474E+006    9.54497E+005    6.05215E+005    4.17043E+004   -7.33154E+005
            5670    8.40260E+006    1.05378E+007    1.05378E+007    2.79832E+006    1.60060E+006    8.93719E+006   -4.97890E+006    8.20725E+006    2.84486E+006    1.04143E+007    1.67754E+006    6.82027E+005    6.43744E+004   -7.52901E+005
            5671    9.77692E+006    1.28472E+007    1.28472E+007    3.84647E+006    2.44529E+006    1.04019E+007   -6.37966E+006    9.54711E+006    3.89439E+006    1.27284E+007    2.51619E+006    7.48148E+005    8.04342E+004   -7.69324E+005
            5672    5.64828E+006    5.55494E+006    5.55494E+006    8.95243E+005   -7.26921E+005    6.28186E+006   -1.90775E+006    5.08323E+006    9.06404E+005    5.47834E+006   -6.61480E+005    4.79358E+005    2.04361E+005   -4.31761E+005
            5673    7.03753E+006    7.15027E+006    7.15027E+006    1.42207E+006   -7.05579E+005    7.85585E+006   -2.62225E+006    6.25006E+006    1.44571E+006    7.03523E+006   -6.14179E+005    5.97042E+005    2.19949E+005   -6.61464E+005
            5674    8.09420E+006    8.81483E+006    8.81483E+006    2.13937E+006   -1.88120E+005    9.00295E+006   -3.58869E+006    7.28230E+006    2.16911E+006    8.63939E+006   -4.24223E+004    7.00334E+005    2.21463E+005   -9.71744E+005
            5675    9.13244E+006    1.07808E+007    1.07808E+007    3.09600E+006    6.84682E+005    1.00961E+007   -4.85383E+006    8.37011E+006    3.12948E+006    1.05538E+007    8.78259E+005    7.90888E+005    2.19471E+005   -1.22187E+006
            5676    1.00304E+007    1.29065E+007    1.29065E+007    4.25165E+006    1.91353E+006    1.09929E+007   -6.35721E+006    9.38739E+006    4.28736E+006    1.26383E+007    2.14598E+006    8.54364E+005    2.01988E+005   -1.42478E+006
            5677    1.13870E+007    1.32538E+007    1.32538E+007    4.15442E+006    4.84335E+005    1.27695E+007   -5.96419E+006    9.91921E+006    4.17274E+006    1.28349E+007    8.84947E+005    9.02601E+005    3.19373E+005   -2.04878E+006
            5678    1.05850E+007    1.10192E+007    1.10192E+007    2.92573E+006   -9.59319E+005    1.19785E+007   -4.32854E+006    8.75040E+006    2.94326E+006    1.07899E+007   -7.47486E+005    7.92128E+005    3.55528E+005   -1.36988E+006
            5679    9.43397E+006    9.03698E+006    9.03698E+006    2.03014E+006   -1.68987E+006    1.07269E+007   -3.12575E+006    7.49504E+006    2.04650E+006    8.93187E+006   -1.60111E+006    6.79658E+005    3.65543E+005   -6.79383E+005
            5680    8.21150E+006    7.43360E+006    7.43360E+006    1.43408E+006   -1.92486E+006    9.35846E+006   -2.31427E+006    6.36503E+006    1.44661E+006    7.37567E+006   -1.87946E+006    5.73765E+005    3.58039E+005   -1.99632E+005
            5681    6.85490E+006    6.00951E+006    6.00951E+006    1.01938E+006   -1.80661E+006    7.81612E+006   -1.74076E+006    5.28327E+006    1.02541E+006    5.95214E+006   -1.75527E+006    4.70791E+005    3.56421E+005    2.82314E+005
            5682    5.75079E+006    4.79812E+006    4.79812E+006    6.80360E+005   -1.77236E+006    6.57048E+006   -1.23537E+006    4.31407E+006    6.79702E+005    4.66953E+006   -1.64311E+006    3.64247E+005    3.58090E+005    7.54339E+005
            5683    4.67539E+006    3.90281E+006    3.90281E+006    5.62394E+005   -1.44033E+006    5.34315E+006   -1.00829E+006    3.49427E+006    5.57670E+005    3.57121E+006   -1.10401E+006    2.56827E+005    3.43944E+005    1.21880E+006
            5684    3.93775E+006    3.82715E+006    3.82715E+006    6.54698E+005   -5.79986E+005    4.40714E+006   -1.30062E+006    3.46029E+006    6.37667E+005    3.75771E+006   -4.93516E+005    2.77897E+005    2.62150E+005    4.18109E+005
            5685    4.04636E+006    4.33617E+006    4.33617E+006    7.89296E+005   -7.12442E+004    4.40741E+006   -1.68474E+006    3.83228E+006    8.09703E+005    4.30845E+006   -6.39385E+004    3.08074E+005    7.94436E+004    5.23685E+004
            5686    4.43164E+006    4.28336E+006    4.28336E+006    6.46290E+005   -6.52592E+005    4.93595E+006   -1.42569E+006    3.96828E+006    6.30987E+005    4.24830E+006   -6.02229E+005    3.56417E+005    2.45364E+005   -6.07573E+004
            5687    4.06236E+006    4.27323E+006    4.27323E+006    5.91720E+005   -8.49824E+004    4.35821E+006   -1.59332E+006    3.93254E+006    6.16913E+005    4.23419E+006   -7.11386E+004    3.57974E+005    6.80937E+004   -1.38303E+005
            5688    3.85777E+006    3.96006E+006    3.96006E+006    3.16606E+005   -8.11859E+004    4.04125E+006   -1.39849E+006    3.81122E+006    3.41637E+005    3.90654E+006   -5.26928E+004    3.62616E+005    4.02422E+004   -2.66619E+005
            5689    3.48075E+006    3.47400E+006    3.47400E+006    1.56882E+004   -2.87703E+004    3.50277E+006   -1.15364E+006    3.48012E+006    2.40051E+004    3.41849E+006    1.84279E+004    3.22564E+005   -5.42318E+003   -2.95501E+005
            5690    3.09616E+006    2.97048E+006    2.97048E+006    6.08365E+004   -2.83429E+005    3.25390E+006   -9.15961E+005    3.05265E+006   -2.63861E+005    2.93869E+006    7.30536E+004    2.22243E+005   -5.29183E+004   -2.15075E+005
            5691    2.85932E+006    2.64755E+006    2.64755E+006    9.54052E+004   -4.42541E+005    3.09009E+006   -7.66804E+005    2.74198E+006   -4.30474E+005    2.64304E+006    8.78508E+004    7.79018E+004   -7.50423E+004   -7.87272E+004
            5692    4.56960E+006    4.55810E+006    4.55810E+006    5.72897E+005   -4.29472E+005    4.98757E+006   -1.56718E+006    4.31171E+006    5.75010E+005    4.47949E+006   -3.52968E+005    3.82997E+005    1.40779E+005   -4.66331E+005
            5693    4.37771E+006    4.54918E+006    4.54918E+006    4.14356E+005   -3.65222E+004    4.58570E+006   -1.64234E+006    4.32501E+006    4.40137E+005    4.42606E+006    6.08138E+004    3.45941E+005   -1.28287E+004   -6.48433E+005
            5694    4.05996E+006    4.29938E+006    4.29938E+006    3.30263E+005    1.54296E+005    4.14508E+006   -1.59465E+006    4.05136E+006    2.69913E+005    4.22411E+006    2.89916E+005    2.33428E+005   -1.16560E+005   -4.90607E+005
            5695    3.84698E+006    4.08325E+006    4.08325E+006    4.60190E+005    4.58795E+004    4.03737E+006   -1.52977E+006    3.79630E+006    1.44030E+005    4.07287E+006    3.72422E+005    8.65624E+004   -1.79010E+005   -1.73268E+005
            5696    5.15159E+006    6.20154E+006    6.20154E+006    1.24309E+006    8.76401E+005    5.32514E+006   -2.77368E+006    5.12211E+006    1.02110E+006    6.18012E+006    1.11981E+006   -1.58968E+005    1.87211E+005   -2.84013E+005
            5697    6.34767E+006    8.03475E+006    8.03475E+006    1.84257E+006    1.54225E+006    6.49250E+006   -3.80652E+006    6.33166E+006    1.74499E+006    8.02329E+006    1.65128E+006   -1.96113E+005    1.48537E+005   -1.79928E+005
            5698    7.94338E+006    1.03130E+007    1.03130E+007    2.64637E+006    2.11905E+006    8.19390E+006   -5.02613E+006    7.90385E+006    2.63554E+006    1.02993E+007    2.14357E+006   -2.30794E+005    1.02240E+005   -2.31596E+005
            5699    9.63271E+006    1.27402E+007    1.27402E+007    3.61878E+006    2.66695E+006    1.00733E+007   -6.34199E+006    9.52604E+006    3.62332E+006    1.27298E+007    2.67286E+006   -2.63461E+005    5.88902E+004   -1.67039E+005
            5700    5.72918E+006    6.47236E+006    6.47236E+006    1.13619E+006    4.17898E+005    6.05446E+006   -2.67548E+006    5.62654E+006    1.17273E+006    6.36487E+006    4.88847E+005   -4.55153E+005    8.34249E+003   -6.39016E+005
            5701    7.17244E+006    8.57728E+006    8.57728E+006    1.97863E+006    9.43527E+005    7.63376E+006   -3.83315E+006    7.00144E+006    2.01775E+006    8.45279E+006    1.02890E+006   -5.47010E+005   -2.06604E+004   -7.73320E+005
            5702    8.30390E+006    1.05889E+007    1.05889E+007    2.92790E+006    1.76470E+006    8.82417E+006   -5.09383E+006    8.11757E+006    2.96501E+006    1.04638E+007    1.85264E+006   -6.00214E+005   -4.57676E+004   -8.27930E+005
            5703    9.65903E+006    1.28793E+007    1.28793E+007    4.00990E+006    2.58820E+006    1.02911E+007   -6.49246E+006    9.41931E+006    4.04420E+006    1.27734E+007    2.65982E+006   -6.34031E+005   -7.10492E+004   -7.90858E+005
            5704    1.08486E+007    1.31556E+007    1.31556E+007    4.17922E+006    1.10036E+006    1.20552E+007   -6.14506E+006    9.79090E+006    4.20627E+006    1.27693E+007    1.45959E+006   -9.10843E+005   -2.67271E+005   -1.87959E+006
            5705    9.96650E+006    1.09950E+007    1.09950E+007    3.01766E+006   -1.77098E+005    1.11721E+007   -4.61187E+006    8.69734E+006    3.04431E+006    1.07427E+007    4.86431E+004   -8.08999E+005   -2.86548E+005   -1.39297E+006
            5706    8.81395E+006    9.06364E+006    9.06364E+006    2.14532E+006   -8.59912E+005    9.92355E+006   -3.44968E+006    7.52453E+006    2.16993E+006    8.89587E+006   -7.16751E+005   -6.97503E+005   -2.74461E+005   -1.00223E+006
            5707    7.60634E+006    7.42826E+006    7.42826E+006    1.50381E+006   -1.14931E+006    8.57757E+006   -2.59426E+006    6.43443E+006    1.52533E+006    7.34079E+006   -1.08335E+006   -5.95079E+005   -2.68947E+005   -5.10419E+005
            5708    6.49361E+006    5.84664E+006    5.84664E+006    9.55194E+005   -1.52070E+006    7.36734E+006   -1.76038E+006    5.26248E+006    9.66359E+005    5.79884E+006   -1.48407E+006   -4.78356E+005   -3.01805E+005    5.18412E+004
            5709    5.61614E+006    4.67338E+006    4.67338E+006    6.31624E+005   -1.73944E+006    6.41282E+006   -1.18852E+006    4.24900E+006    6.31202E+005    4.54864E+006   -1.61428E+006   -3.51019E+005   -3.41907E+005    7.38371E+005
            5710    4.67334E+006    3.93409E+006    3.93409E+006    5.76387E+005   -1.40323E+006    5.33733E+006   -1.03575E+006    3.52600E+006    5.71690E+005    3.64235E+006   -1.10680E+006   -2.69426E+005   -3.44070E+005    1.13531E+006
            5711    3.74112E+006    3.30696E+006    3.30696E+006    5.67102E+005   -9.55341E+005    4.26231E+006   -9.72909E+005    2.91055E+006    5.58430E+005    2.81340E+006   -4.53105E+005   -1.83109E+005   -3.13181E+005    1.31809E+006
            5712    3.42314E+006    3.48286E+006    3.48286E+006    6.94782E+005   -3.37674E+005    3.82053E+006   -1.27999E+006    3.04210E+006    6.79113E+005    3.35528E+006   -1.94427E+005   -2.18005E+005   -2.36695E+005    6.17674E+005
            5713    3.80354E+006    4.18378E+006    4.18378E+006    8.84692E+005    2.34841E+004    4.16030E+006   -1.69732E+006    3.57416E+006    8.99834E+005    4.15531E+006    3.68200E+004   -2.49291E+005   -7.23408E+004    1.93512E+005
            5714    3.97626E+006    3.87657E+006    3.87657E+006    6.44113E+005   -5.63494E+005    4.44006E+006   -1.31906E+006    3.52688E+006    6.28227E+005    3.81312E+006   -4.84160E+005   -2.91312E+005   -2.58639E+005    3.79280E+005
            5715    4.18882E+006    4.45018E+006    4.45018E+006    7.71319E+005   -1.08763E+005    4.55894E+006   -1.70424E+006    3.97274E+006    7.93816E+005    4.42018E+006   -1.01262E+005   -3.28856E+005   -8.22291E+004    3.63017E+004
            5716    4.62148E+006    4.38702E+006    4.38702E+006    6.00342E+005   -7.62679E+005    5.14970E+006   -1.40823E+006    4.13163E+006    5.84194E+005    4.34894E+006   -7.08450E+005   -3.63922E+005   -2.45415E+005   -1.52057E+005
            5717    4.11479E+006    4.28461E+006    4.28461E+006    5.20703E+005   -1.08565E+005    4.39318E+006   -1.56558E+006    4.00439E+006    5.47717E+005    4.23623E+006   -8.72026E+004   -3.78970E+005   -6.30525E+004   -2.14883E+005
            5718    4.78854E+006    4.83379E+006    4.83379E+006    6.38980E+005   -3.83357E+005    5.21715E+006   -1.69647E+006    4.53314E+006    6.42828E+005    4.71293E+006   -2.66342E+005   -4.13712E+005   -1.30130E+005   -6.51437E+005
            5719    3.71967E+006    3.80664E+006    3.80664E+006    1.91421E+005   -9.34919E+003    3.81599E+006   -1.32957E+006    3.70745E+006    2.16803E+005    3.74542E+006    2.64886E+004   -3.55502E+005   -1.28078E+004   -3.14855E+005
            5720    3.32549E+006    3.25895E+006    3.25895E+006    2.50448E+004   -1.51118E+005    3.41007E+006   -1.04429E+006    3.31497E+006   -1.29797E+005    3.21279E+006    4.98858E+004   -2.62072E+005    3.48854E+004   -2.85551E+005
            5721    2.97608E+006    2.83488E+006    2.83488E+006    1.45451E+005   -3.62471E+005    3.19735E+006   -8.72621E+005    2.87613E+006   -3.47075E+005    2.82543E+006    1.39507E+005   -1.01903E+005    8.17102E+004   -1.26485E+005
            5722    4.57172E+006    4.88427E+006    4.88427E+006    5.13442E+005    1.35174E+005    4.74910E+006   -1.84430E+006    4.53631E+006    5.39379E+005    4.76643E+006    2.27083E+005   -3.32317E+005    4.76303E+004   -6.52416E+005
            5723    4.19455E+006    4.64739E+006    4.64739E+006    6.58470E+005    2.73734E+005    4.37366E+006   -1.85987E+006    4.15457E+006    3.93664E+005    4.62637E+006    5.59564E+005   -1.24336E+005    1.84778E+005   -2.60956E+005
            5724    1.14749E+007    1.53670E+007    1.53670E+007    5.61814E+006    2.72119E+006    1.26458E+007   -7.90210E+006    1.06043E+007    5.63784E+006    1.47887E+007    3.27974E+006    9.88089E+005    2.46980E+005   -2.42789E+006
            5725    1.07337E+007    1.50328E+007    1.50328E+007    5.51462E+006    3.39873E+006    1.16341E+007   -7.98206E+006    1.02487E+007    5.55690E+006    1.47769E+007    3.61239E+006    8.89560E+005    1.66196E+005   -1.41874E+006
            5726    1.10957E+007    1.51950E+007    1.51950E+007    4.98502E+006    3.38686E+006    1.18081E+007   -7.85562E+006    1.08322E+007    5.03702E+006    1.50889E+007    3.44096E+006    8.08876E+005    8.59808E+004   -7.06870E+005
            5727    1.12549E+007    1.50895E+007    1.50895E+007    4.67910E+006    3.14704E+006    1.19424E+007   -7.63853E+006    1.10166E+007    4.69192E+006    1.50671E+007    3.15655E+006    3.66417E+005    9.43706E+002   -3.35169E+005
            5728    1.14119E+007    1.51431E+007    1.51431E+007    4.57189E+006    3.04435E+006    1.20987E+007   -7.58644E+006    1.11784E+007    4.57538E+006    1.51386E+007    3.04532E+006    1.99551E+005   -2.21744E+004   -9.10095E+004
            5729    1.07835E+007    1.69341E+007    1.69341E+007    7.05989E+006    5.42747E+006    1.15067E+007   -9.80716E+006    1.05001E+007    7.08484E+006    1.64493E+007    5.88735E+006    1.03630E+006    1.54165E+005   -2.05348E+006
            5730    1.10889E+007    1.67609E+007    1.67609E+007    6.64902E+006    4.90224E+006    1.18587E+007   -9.43739E+006    1.07729E+007    6.70448E+006    1.65816E+007    5.02612E+006    8.95413E+005    1.11472E+005   -1.09105E+006
            5731    1.21798E+007    1.72352E+007    1.72352E+007    6.02870E+006    4.27279E+006    1.29624E+007   -9.17891E+006    1.18900E+007    6.08882E+006    1.71472E+007    4.30069E+006    8.61335E+005    6.63719E+004   -5.32059E+005
            5732    1.27099E+007    1.72253E+007    1.72253E+007    5.59737E+006    3.65672E+006    1.35686E+007   -8.82647E+006    1.23700E+007    5.60946E+006    1.72091E+007    3.66086E+006    3.77589E+005    1.16959E+004   -2.31926E+005
            5733    1.29803E+007    1.72817E+007    1.72817E+007    5.45887E+006    3.39194E+006    1.38897E+007   -8.71083E+006    1.26021E+007    5.46236E+006    1.72779E+007    3.39226E+006    2.03217E+005   -1.08736E+003   -6.70640E+004
            5734    9.83838E+006    1.76052E+007    1.76052E+007    7.97152E+006    7.57407E+006    1.00311E+007   -1.10502E+007    9.82029E+006    8.03139E+006    1.74221E+007    7.69722E+006    1.05630E+006    5.03514E+004   -8.17125E+005
            5735    1.12218E+007    1.77458E+007    1.77458E+007    7.31403E+006    5.87322E+006    1.18726E+007   -1.03110E+007    1.10108E+007    7.38749E+006    1.76548E+007    5.89076E+006    8.92842E+005    3.67801E+004   -4.11235E+005
            5736    1.28060E+007    1.84141E+007    1.84141E+007    6.62928E+006    4.78664E+006    1.36275E+007   -9.94335E+006    1.25025E+007    6.69423E+006    1.83455E+007    4.79032E+006    8.78625E+005    2.70764E+004   -1.95639E+005
            5737    1.35614E+007    1.84795E+007    1.84795E+007    6.14097E+006    3.95976E+006    1.45198E+007   -9.52675E+006    1.31580E+007    6.15233E+006    1.84675E+007    3.96041E+006    3.74934E+005    6.85419E+003   -9.41545E+004
            5738    1.39195E+007    1.85617E+007    1.85617E+007    5.99457E+006    3.60040E+006    1.49613E+007   -9.38555E+006    1.34445E+007    5.99791E+006    1.85583E+007    3.60044E+006    2.04956E+005    2.53543E+003   -2.39939E+004
            5739    3.69593E+006    3.24441E+006    3.24441E+006    5.47332E+005   -9.68433E+005    4.21284E+006   -9.41103E+005    2.85947E+006    5.38708E+005    2.73811E+006   -4.53508E+005    1.78023E+005   -3.11707E+005   -1.32529E+006
            5740    3.30411E+006    3.36778E+006    3.36778E+006    6.82799E+005   -3.22124E+005    3.68990E+006   -1.24282E+006    2.92951E+006    6.67915E+005    3.23011E+006   -1.69575E+005    2.02082E+005   -2.27700E+005   -6.39545E+005
            5741    3.68484E+006    4.03857E+006    4.03857E+006    8.64734E+005   -2.54845E+003    4.04112E+006   -1.63359E+006    3.44378E+006    8.77095E+005    4.01300E+006    1.06622E+004    2.26575E+005   -7.20138E+004   -1.88688E+005
            5742    2.67959E+006    2.56355E+006    2.56355E+006    5.24836E+005   -4.71489E+005    3.03504E+006   -8.72298E+005    2.20086E+006    5.07940E+005    2.00571E+006    1.03242E+005    1.05068E+005   -2.59594E+005   -1.14480E+006
            5743    2.68703E+006    2.88801E+006    2.88801E+006    6.76775E+005   -1.02539E+005    2.99054E+006   -1.15408E+006    2.41243E+006    6.54544E+005    2.76518E+006    4.25174E+004    1.26963E+005   -1.87467E+005   -5.61306E+005
            5744    3.18444E+006    3.54165E+006    3.54165E+006    8.18667E+005    4.01344E+004    3.50152E+006   -1.46682E+006    2.95874E+006    8.23070E+005    3.52397E+006    5.34141E+004    1.43431E+005   -5.96914E+004   -1.84660E+005
            5745    1.57519E+006    1.79144E+006    1.79144E+006    5.09869E+005    3.28821E+004    1.75856E+006   -7.78063E+005    1.39831E+006    4.49496E+005    1.48098E+006    4.03708E+005    4.77969E+004   -2.13184E+005   -6.38940E+005
            5746    2.17206E+006    2.45430E+006    2.45430E+006    6.39667E+005    4.75837E+004    2.40671E+006   -1.04718E+006    1.97793E+006    6.04067E+005    2.41057E+006    1.26912E+005    5.97689E+004   -1.56193E+005   -3.05968E+005
            5747    2.78783E+006    3.12673E+006    3.12673E+006    7.49645E+005    5.82694E+004    3.06846E+006   -1.31155E+006    2.58417E+006    7.48030E+005    3.12183E+006    6.47782E+004    6.44269E+004   -5.07736E+004   -9.67941E+004
            5748    9.00797E+005    1.27683E+006    1.27683E+006    6.42404E+005    2.45776E+005    1.03105E+006   -7.21669E+005    6.56316E+005    4.09510E+005    1.27560E+006    4.79894E+005   -4.49969E+003   -1.95561E+005    2.90479E+004
            5749    1.98931E+006    2.30933E+006    2.30933E+006    6.34532E+005    1.10454E+005    2.19888E+006   -1.01811E+006    1.82404E+006    5.90209E+005    2.30840E+006    1.55709E+005   -8.88510E+003   -1.46151E+005    4.28266E+004
            5750    2.67116E+006    2.99448E+006    2.99448E+006    7.20750E+005    5.26962E+004    2.94178E+006   -1.25597E+006    2.47250E+006    7.17260E+005    2.99440E+006    5.62648E+004   -9.42681E+003   -4.84711E+004    1.05852E+004
            5751    1.70355E+006    1.89070E+006    1.89070E+006    5.12616E+005   -1.39566E+004    1.90466E+006   -7.96454E+005    1.50340E+006    4.62071E+005    1.53917E+006    3.88119E+005   -5.22530E+004   -2.16827E+005    7.08888E+005
            5752    2.26676E+006    2.53756E+006    2.53756E+006    6.48880E+005    2.38615E+004    2.51369E+006   -1.07010E+006    2.05911E+006    6.15783E+005    2.48004E+006    1.14472E+005   -7.31258E+004   -1.61751E+005    3.56985E+005
            5753    2.86331E+006    3.21308E+006    3.21308E+006    7.67297E+005    6.34931E+004    3.14958E+006   -1.34796E+006    2.65804E+006    7.67098E+005    3.20487E+006    7.19022E+004   -8.52812E+004   -5.16902E+004    1.26428E+005
            5754    2.76296E+006    2.64345E+006    2.64345E+006    5.40545E+005   -4.85808E+005    3.12926E+006   -8.99396E+005    2.27043E+006    5.25326E+005    2.09240E+006    8.04642E+004   -1.16176E+005   -2.64887E+005    1.15934E+006
            5755    2.84032E+006    3.02430E+006    3.02430E+006    6.89676E+005   -1.37898E+005    3.16220E+006   -1.19203E+006    2.54714E+006    6.71519E+005    2.88651E+006    1.80508E+004   -1.46104E+005   -1.93491E+005    6.08397E+005
            5756    3.33128E+006    3.67922E+006    3.67922E+006    8.31326E+005    1.59446E+004    3.66327E+006   -1.50883E+006    3.09459E+006    8.37754E+005    3.65938E+006    2.93593E+004   -1.65732E+005   -6.28031E+004    1.89020E+005
            5757    1.14032E+007    1.51289E+007    1.51289E+007    4.56501E+006    3.03986E+006    1.20890E+007   -7.57793E+006    1.11703E+007    4.56850E+006    1.51245E+007    3.04079E+006    1.99144E+005    2.17947E+004    8.92278E+004
            5758    1.12571E+007    1.50908E+007    1.50908E+007    4.67947E+006    3.14539E+006    1.19455E+007   -7.63857E+006    1.10182E+007    4.69244E+006    1.50683E+007    3.15494E+006    3.68649E+005   -1.06549E+003    3.35880E+005
            5759    1.11004E+007    1.52061E+007    1.52061E+007    4.99466E+006    3.39111E+006    1.18150E+007   -7.86395E+006    1.08352E+007    5.04677E+006    1.50988E+007    3.44622E+006    8.11416E+005   -8.71371E+004    7.13248E+005
            5760    1.07347E+007    1.50438E+007    1.50438E+007    5.52585E+006    3.40805E+006    1.16358E+007   -7.99258E+006    1.02488E+007    5.56796E+006    1.47844E+007    3.62533E+006    8.90935E+005   -1.66485E+005    1.43156E+006
            5761    1.14744E+007    1.53787E+007    1.53787E+007    5.62729E+006    2.73484E+006    1.26438E+007   -7.91360E+006    1.06066E+007    5.64698E+006    1.47998E+007    3.29405E+006    9.88314E+005   -2.46573E+005    2.42918E+006
            5762    1.29805E+007    1.72802E+007    1.72802E+007    5.45762E+006    3.38985E+006    1.38903E+007   -8.70921E+006    1.26020E+007    5.46107E+006    1.72764E+007    3.39019E+006    2.01933E+005    1.23845E+003    6.85905E+004
            5763    1.27114E+007    1.72238E+007    1.72238E+007    5.59428E+006    3.65371E+006    1.35701E+007   -8.82393E+006    1.23715E+007    5.60613E+006    1.72079E+007    3.65781E+006    3.73767E+005   -1.12986E+004    2.31149E+005
            5764    1.21782E+007    1.72295E+007    1.72295E+007    6.02582E+006    4.26797E+006    1.29616E+007   -9.17444E+006    1.18877E+007    6.08545E+006    1.71419E+007    4.29598E+006    8.58126E+005   -6.65928E+004    5.33217E+005
            5765    1.10806E+007    1.67692E+007    1.67692E+007    6.66085E+006    4.92197E+006    1.18472E+007   -9.45067E+006    1.07672E+007    6.71629E+006    1.65874E+007    5.04832E+006    8.97523E+005   -1.11602E+005    1.10146E+006
            5766    1.07823E+007    1.69373E+007    1.69373E+007    7.06395E+006    5.43205E+006    1.15053E+007   -9.81111E+006    1.04991E+007    7.08827E+006    1.64477E+007    5.89738E+006    1.03764E+006   -1.54496E+005    2.06515E+006
            5767    1.39149E+007    1.85577E+007    1.85577E+007    5.99359E+006    3.60207E+006    1.49557E+007   -9.38446E+006    1.34408E+007    5.99691E+006    1.85544E+007    3.60211E+006    2.04441E+005   -2.77375E+003    2.31281E+004
            5768    1.35659E+007    1.84795E+007    1.84795E+007    6.13841E+006    3.95401E+006    1.45255E+007   -9.52398E+006    1.31614E+007    6.14968E+006    1.84676E+007    3.95464E+006    3.73474E+005   -6.79387E+003    9.32507E+004
            5769    1.28054E+007    1.84159E+007    1.84159E+007    6.63118E+006    4.78927E+006    1.36266E+007   -9.94545E+006    1.25022E+007    6.69606E+006    1.83475E+007    4.79283E+006    8.77980E+005   -2.66306E+004    1.92480E+005
            5770    1.12079E+007    1.77353E+007    1.77353E+007    7.31342E+006    5.87940E+006    1.18559E+007   -1.03094E+007    1.09987E+007    7.38691E+006    1.76448E+007    5.89637E+006    8.92194E+005   -3.65459E+004    4.03477E+005
            5771    9.83423E+006    1.75883E+007    1.75883E+007    7.96118E+006    7.55934E+006    1.00290E+007   -1.10363E+007    9.81574E+006    8.02130E+006    1.74048E+007    7.68273E+006    1.05629E+006   -5.07548E+004    8.19570E+005
            5772    6.85369E+006    6.00975E+006    6.00975E+006    1.02040E+006   -1.80496E+006    7.81472E+006   -1.74173E+006    5.28249E+006    1.02639E+006    5.95271E+006   -1.75391E+006    4.71050E+005   -3.56346E+005   -2.77522E+005
            5773    8.21799E+006    7.43719E+006    7.43719E+006    1.43606E+006   -1.92932E+006    9.36651E+006   -2.31464E+006    6.36489E+006    1.44848E+006    7.37926E+006   -1.88381E+006    5.73502E+005   -3.58479E+005    2.01404E+005
            5774    9.45042E+006    9.05987E+006    9.05987E+006    2.04100E+006   -1.68573E+006    1.07456E+007   -3.13838E+006    7.50781E+006    2.05742E+006    8.95362E+006   -1.59591E+006    6.81034E+005   -3.65522E+005    6.87927E+005
            5775    1.05978E+007    1.10495E+007    1.10495E+007    2.94110E+006   -9.42170E+005    1.19916E+007   -4.34947E+006    8.76810E+006    2.95874E+006    1.08173E+007   -7.27609E+005    7.94561E+005   -3.55095E+005    1.38146E+006
            5776    1.13835E+007    1.32746E+007    1.32746E+007    4.17068E+006    5.11505E+005    1.27631E+007   -5.98559E+006    9.92482E+006    4.18910E+006    1.28524E+007    9.15270E+005    9.03703E+005   -3.17975E+005    2.05727E+006
            5777    1.00362E+007    1.28992E+007    1.28992E+007    4.24550E+006    1.89705E+006    1.10022E+007   -6.34726E+006    9.38764E+006    4.28105E+006    1.26311E+007    2.12966E+006    8.54343E+005   -2.03214E+005    1.42552E+006
            5778    9.77020E+006    1.28333E+007    1.28333E+007    3.84239E+006    2.43622E+006    1.03971E+007   -6.37064E+006    9.53855E+006    3.89042E+006    1.27132E+007    2.50833E+006    7.51654E+005   -8.25985E+004    7.73846E+005
            5779    9.57099E+006    1.26355E+007    1.26355E+007    3.64940E+006    2.57096E+006    1.00645E+007   -6.28528E+006    9.43284E+006    3.66472E+006    1.26047E+007    2.58639E+006    3.71437E+005    2.54285E+004    3.92067E+005
            5780    9.60419E+006    1.26510E+007    1.26510E+007    3.55035E+006    2.61210E+006    1.00389E+007   -6.27115E+006    9.50026E+006    3.55121E+006    1.26454E+007    2.61682E+006    1.94200E+005    5.79844E+004    1.18605E+005
            5781    9.11954E+006    1.07466E+007    1.07466E+007    3.07737E+006    6.62755E+005    1.00839E+007   -4.82891E+006    8.35375E+006    3.11086E+006    1.05205E+007    8.55389E+005    7.89105E+005   -2.19390E+005    1.21813E+006
            5782    8.40103E+006    1.05192E+007    1.05192E+007    2.78797E+006    1.57936E+006    8.93987E+006   -4.96219E+006    8.20201E+006    2.83461E+006    1.03943E+007    1.65767E+006    6.83775E+005   -6.54241E+004    7.59537E+005
            5783    8.01095E+006    1.03202E+007    1.03202E+007    2.68913E+006    1.97701E+006    8.34323E+006   -4.99546E+006    7.93927E+006    2.70528E+006    1.02788E+007    2.00227E+006    3.70562E+005    5.85918E+004    4.38022E+005
            5784    7.91433E+006    1.02941E+007    1.02941E+007    2.62289E+006    2.15724E+006    8.13687E+006   -5.02475E+006    7.88342E+006    2.60326E+006    1.02877E+007    2.18326E+006    1.86204E+005    1.06202E+005    1.20971E+005
            5785    8.06853E+006    8.76574E+006    8.76574E+006    2.11895E+006   -2.11529E+005    8.97727E+006   -3.55772E+006    7.25133E+006    2.14845E+006    8.59210E+006   -6.73949E+004    6.98141E+005   -2.22757E+005    9.62875E+005
            5786    7.22380E+006    8.55390E+006    8.55390E+006    1.93170E+006    8.50408E+005    7.70349E+006   -3.77867E+006    7.03827E+006    1.97651E+006    8.42830E+006    9.31192E+005    6.05788E+005   -4.40524E+004    7.33502E+005
            5787    6.66860E+006    8.32648E+006    8.32648E+006    1.89007E+006    1.44770E+006    6.87877E+006   -3.88808E+006    6.63547E+006    1.89998E+006    8.27435E+006    1.48993E+006    3.55382E+005    9.14278E+004    4.66124E+005
            5788    6.53605E+006    8.29757E+006    8.29757E+006    1.92112E+006    1.61283E+006    6.68474E+006   -3.94384E+006    6.51966E+006    1.81009E+006    8.28897E+006    1.73246E+006    1.69439E+005    1.53529E+005    1.61438E+005
            5789    7.03146E+006    7.13437E+006    7.13437E+006    1.41723E+006   -7.16910E+005    7.85128E+006   -2.61156E+006    6.23788E+006    1.44080E+006    7.01974E+006   -6.25848E+005    5.96185E+005   -2.20650E+005    6.59214E+005
            5790    6.07620E+006    6.85860E+006    6.85860E+006    1.26544E+006    3.93551E+005    6.46504E+006   -2.83920E+006    5.93301E+006    1.30535E+006    6.73885E+006    4.73392E+005    5.16151E+005   -2.35954E+004    6.79169E+005
            5791    5.64050E+006    6.74615E+006    6.74615E+006    1.26933E+006    9.55119E+005    5.79103E+006   -2.99020E+006    5.62075E+006    1.26328E+006    6.67644E+006    1.03089E+006    3.20195E+005    1.16887E+005    5.33020E+005
            5792    5.46902E+006    6.67737E+006    6.67737E+006    1.41229E+006    1.02500E+006    5.65237E+006   -3.03822E+006    5.43804E+006    1.17202E+006    6.66824E+006    1.27438E+006    1.46615E+005    1.91428E+005    1.62698E+005
            5793    5.64727E+006    5.54994E+006    5.54994E+006    8.92188E+005   -7.31249E+005    6.28118E+006   -1.90362E+006    5.08115E+006    9.03218E+005    5.47373E+006   -6.66077E+005    4.79048E+005   -2.05002E+005    4.29104E+005
            5794    5.17527E+006    5.60440E+006    5.60440E+006    8.06498E+005    1.20241E+005    5.48416E+006   -2.17705E+006    5.07139E+006    8.38645E+005    5.46780E+006    2.24695E+005    4.25623E+005   -1.83732E+003    7.28440E+005
            5795    4.81746E+006    5.44862E+006    5.44862E+006    7.64350E+005    5.08193E+005    4.94043E+006   -2.24039E+006    4.80210E+006    7.36797E+005    5.36851E+006    6.15859E+005    2.73514E+005    1.29471E+005    5.49450E+005
            5796    4.63608E+006    5.34293E+006    5.34293E+006    9.38076E+005    5.05881E+005    4.83705E+006   -2.26229E+006    4.59043E+006    6.45468E+005    5.33074E+006    8.10672E+005    1.19321E+005    2.06230E+005    1.98230E+005
            5797    3.86530E+006    4.10967E+006    4.10967E+006    4.67372E+005    5.45008E+004    4.05517E+006   -1.54385E+006    3.81522E+006    1.54659E+005    4.09921E+006    3.77668E+005    8.69616E+004    1.79888E+005    1.74398E+005
            5798    2.86353E+006    2.65412E+006    2.65412E+006    9.64880E+004   -4.39552E+005    3.09367E+006   -7.70352E+005    2.74723E+006   -4.27279E+005    2.64957E+006    8.87609E+004    7.84179E+004    7.55677E+004    7.89348E+004
            5799    4.05867E+006    4.30096E+006    4.30096E+006    3.34059E+005    1.56373E+005    4.14459E+006   -1.59713E+006    4.04990E+006    2.70943E+005    4.22594E+006    2.94512E+005    2.32598E+005    1.17550E+005    4.89784E+005
            5800    3.09937E+006    2.97601E+006    2.97601E+006    6.24389E+004   -2.80618E+005    3.25662E+006   -9.19276E+005    3.05621E+006   -2.60809E+005    2.94390E+006    7.47376E+004    2.23368E+005    5.34294E+004    2.16351E+005
            5801    4.37062E+006    4.54302E+006    4.54302E+006    4.11815E+005   -3.30000E+004    4.57602E+006   -1.64061E+006    4.31926E+006    4.37534E+005    4.41961E+006    6.46937E+004    3.44555E+005    1.38115E+004    6.49363E+005
            5802    3.48401E+006    3.47641E+006    3.47641E+006    1.53345E+004   -3.00859E+004    3.50649E+006   -1.15389E+006    3.48334E+006    2.44452E+004    3.42110E+006    1.61117E+004    3.22704E+005    4.88329E+003    2.94490E+005
            5803    4.56672E+006    4.55591E+006    4.55591E+006    5.72211E+005   -4.28014E+005    4.98393E+006   -1.56670E+006    4.30980E+006    5.74241E+005    4.47691E+006   -3.51041E+005    3.83044E+005   -1.40660E+005    4.68105E+005
            5804    3.85481E+006    3.96006E+006    3.96006E+006    3.18290E+005   -7.72868E+004    4.03734E+006   -1.40035E+006    3.80874E+006    3.43394E+005    3.90662E+006   -4.89498E+004    3.62362E+005   -3.98092E+004    2.66068E+005
            5805    4.06441E+006    4.27464E+006    4.27464E+006    5.93518E+005   -8.71151E+004    4.36176E+006   -1.59368E+006    3.93312E+006    6.18641E+005    4.23576E+006   -7.33541E+004    3.57410E+005   -6.82717E+004    1.37594E+005
            5806    4.04221E+006    4.33351E+006    4.33351E+006    7.92144E+005   -7.03320E+004    4.40384E+006   -1.68511E+006    3.82689E+006    8.12377E+005    4.30592E+006   -6.29751E+004    3.06404E+005   -7.94745E+004   -5.69171E+004
            5807    4.42841E+006    4.27884E+006    4.27884E+006    6.44854E+005   -6.53665E+005    4.93250E+006   -1.42334E+006    3.96493E+006    6.29541E+005    4.24391E+006   -6.03423E+005    3.55867E+005   -2.45516E+005    5.71357E+004
            5808    3.92620E+006    3.81935E+006    3.81935E+006    6.54891E+005   -5.74404E+005    4.39375E+006   -1.29995E+006    3.45165E+006    6.37839E+005    3.74930E+006   -4.87303E+005    2.76646E+005   -2.61537E+005   -4.21203E+005
            5809    4.68793E+006    3.90995E+006    3.90995E+006    5.61948E+005   -1.44778E+006    5.35773E+006   -1.00804E+006    3.50116E+006    5.57287E+005    3.57813E+006   -1.11130E+006    2.57458E+005   -3.44493E+005   -1.22088E+006
            5810    5.77039E+006    4.80701E+006    4.80701E+006    6.77718E+005   -1.78633E+006    6.59334E+006   -1.23280E+006    4.32432E+006    6.77075E+005    4.67873E+006   -1.65741E+006    3.65100E+005   -3.58864E+005   -7.54173E+005
            5811    7.67461E+006    7.49255E+006    7.49255E+006    1.59186E+006   -1.18370E+006    8.67625E+006   -2.63357E+006    6.38939E+006    1.60216E+006    7.42322E+006   -1.12466E+006   -4.56371E+005    2.21695E+005    5.58017E+005
            5812    8.91530E+006    9.18646E+006    9.18646E+006    2.28768E+006   -8.80160E+005    1.00666E+007   -3.53133E+006    7.48203E+006    2.29869E+006    9.03790E+006   -7.42606E+005   -5.22893E+005    2.25160E+005    1.05641E+006
            5813    1.00710E+007    1.11650E+007    1.11650E+007    3.22893E+006   -1.64356E+005    1.13293E+007   -4.74318E+006    8.63674E+006    3.23891E+006    1.09338E+007    5.68066E+004   -5.89860E+005    2.36549E+005    1.45936E+006
            5814    1.09258E+007    1.33651E+007    1.33651E+007    4.47311E+006    1.16838E+006    1.21967E+007   -6.33551E+006    9.70200E+006    4.48256E+006    1.30028E+007    1.52116E+006   -6.50336E+005    2.20809E+005    1.94605E+006
            5815    9.59444E+006    1.29719E+007    1.29719E+007    4.32999E+006    2.64746E+006    1.03244E+007   -6.64977E+006    9.25375E+006    4.34980E+006    1.28841E+007    2.71538E+006   -4.57832E+005    4.58148E+004    8.08934E+005
            5816    9.40429E+006    1.27513E+007    1.27513E+007    4.07902E+006    2.75533E+006    9.99601E+006   -6.52856E+006    9.19120E+006    4.08161E+006    1.27438E+007    2.76029E+006   -1.51234E+005   -1.20515E+004    2.21320E+005
            5817    8.22176E+006    1.06378E+007    1.06378E+007    3.21885E+006    1.79838E+006    8.83944E+006   -5.21835E+006    7.93862E+006    3.23884E+006    1.05279E+007    1.88837E+006   -4.30858E+005    3.71686E+004    8.63926E+005
            5818    7.74225E+006    1.03205E+007    1.03205E+007    3.01577E+006    2.20456E+006    8.11591E+006   -5.18027E+006    7.64576E+006    3.01716E+006    1.03073E+007    2.21633E+006   -1.56474E+005   -4.59555E+004    2.80898E+005
            5819    7.09463E+006    8.61525E+006    8.61525E+006    2.23697E+006    9.73927E+005    7.64132E+006   -3.94205E+006    6.83478E+006    2.25803E+006    8.50225E+006    1.06587E+006   -3.97642E+005    2.12150E+004    8.16992E+005
            5820    6.20148E+006    8.07262E+006    8.07262E+006    2.07125E+006    1.68875E+006    6.38387E+006   -3.94420E+006    6.17485E+006    2.05822E+006    8.06125E+006    1.71314E+006   -1.48035E+005   -8.35852E+004    2.19616E+005
            5821    5.69100E+006    6.50783E+006    6.50783E+006    1.32553E+006    4.17353E+005    6.09048E+006   -2.75024E+006    5.52443E+006    1.34477E+006    6.40396E+006    5.01986E+005   -3.38913E+005    9.00038E+003    7.00750E+005
            5822    5.05145E+006    6.24649E+006    6.24649E+006    1.32074E+006    1.07810E+006    5.16840E+006   -2.88178E+006    5.03831E+006    1.25215E+006    6.22334E+006    1.16984E+006   -1.27341E+005   -1.19093E+005    3.14739E+005
            5823    4.13973E+006    4.67928E+006    4.67928E+006    6.60960E+005    4.27981E+005    4.25130E+006   -1.92274E+006    4.12494E+006    5.26120E+005    4.65621E+006    5.85890E+005   -1.03535E+005   -1.22086E+005    2.86426E+005
            5824    2.93045E+006    2.81554E+006    2.81554E+006    1.47389E+005   -3.20824E+005    3.13637E+006   -8.80702E+005    2.84447E+006   -3.12651E+005    2.80603E+006    1.48730E+005   -8.72547E+004   -5.53693E+004    1.35839E+005
            5825    4.55752E+006    4.92015E+006    4.92015E+006    6.33553E+005    1.33032E+005    4.78712E+006   -1.89558E+006    4.49506E+006    6.49730E+005    4.79390E+006    2.43102E+005   -2.66417E+005   -2.44585E+004    7.14514E+005
            5826    3.29455E+006    3.24917E+006    3.24917E+006    1.38719E+004   -1.01597E+005    3.35077E+006   -1.05382E+006    3.28999E+006   -8.52860E+004    3.20257E+006    4.41600E+004   -2.32022E+005   -2.03922E+004    3.10994E+005
            5827    3.70926E+006    3.79540E+006    3.79540E+006    2.57513E+005   -6.42675E+004    3.85967E+006   -1.32955E+006    3.67766E+006    2.77488E+005    3.73561E+006   -2.44535E+004   -3.13476E+005    1.96559E+004    3.50575E+005
            5828    4.13490E+006    4.28910E+006    4.28910E+006    5.98952E+005   -1.79795E+005    4.46890E+006   -1.56942E+006    3.96484E+006    6.20808E+005    4.24591E+006   -1.58456E+005   -3.30302E+005    5.63917E+004    2.49664E+005
            5829    4.22506E+006    4.47248E+006    4.47248E+006    8.61506E+005   -1.74097E+005    4.64658E+006   -1.71996E+006    3.92397E+006    8.79654E+005    4.44958E+006   -1.69343E+005   -2.86078E+005    7.07799E+004   -1.83376E+004
            5830    3.84212E+006    4.19935E+006    4.19935E+006    9.69137E+005   -4.94218E+004    4.24877E+006   -1.70636E+006    3.51863E+006    9.80914E+005    4.17683E+006   -3.86742E+004   -2.14223E+005    6.29701E+004   -1.82945E+005
            5831    4.80040E+006    4.88750E+006    4.88750E+006    7.11912E+005   -3.57374E+005    5.24487E+006   -1.74735E+006    4.52065E+006    7.19436E+005    4.76333E+006   -2.40733E+005   -3.32924E+005    8.75689E+004    7.14241E+005
            5832    4.60565E+006    4.42836E+006    4.42836E+006    6.48132E+005   -7.01258E+005    5.12962E+006   -1.45841E+006    4.12448E+006    6.48475E+005    4.39868E+006   -6.71915E+005   -2.99769E+005    1.62285E+005    1.86395E+005
            5833    3.95135E+006    3.91140E+006    3.91140E+006    6.83202E+005   -4.95046E+005    4.40645E+006   -1.36652E+006    3.52236E+006    6.83938E+005    3.86071E+006   -4.45089E+005   -2.37756E+005    1.68790E+005   -3.67368E+005
            5834    3.40146E+006    3.52308E+006    3.52308E+006    7.35209E+005   -2.66845E+005    3.78992E+006   -1.33048E+006    3.04182E+006    7.36723E+005    3.40020E+006   -1.45486E+005   -1.82214E+005    1.49002E+005   -6.27571E+005
            5835    3.71731E+006    3.29179E+006    3.29179E+006    5.71323E+005   -9.43805E+005    4.23560E+006   -9.73103E+005    2.88883E+006    5.66090E+005    2.80548E+006   -4.52259E+005   -1.62102E+005    2.70203E+005   -1.31507E+006
            5836    4.67859E+006    3.92596E+006    3.92596E+006    5.69679E+005   -1.41834E+006    5.34431E+006   -1.02577E+006    3.52082E+006    5.64925E+005    3.65026E+006   -1.13788E+006   -2.30168E+005    2.99557E+005   -1.12377E+006
            5837    5.63680E+006    4.65658E+006    4.65658E+006    6.22105E+005   -1.78397E+006    6.44056E+006   -1.16491E+006    4.22560E+006    6.18844E+005    4.55061E+006   -1.67474E+006   -2.95686E+005    3.01938E+005   -7.07235E+005
            5838    6.53502E+006    5.86284E+006    5.86284E+006    9.82443E+005   -1.56162E+006    7.42445E+006   -1.76122E+006    5.23284E+006    9.85141E+005    5.83234E+006   -1.53381E+006   -3.85055E+005    2.65367E+005   -6.74795E+003
            5839    1.12129E+007    1.52858E+007    1.52858E+007    5.17438E+006    3.22661E+006    1.20592E+007   -7.89560E+006    1.08225E+007    5.17615E+006    1.52811E+007    3.22958E+006   -1.36783E+005    9.91633E+003    1.86839E+005
            5840    1.09463E+007    1.53355E+007    1.53355E+007    5.47312E+006    3.55800E+006    1.17775E+007   -8.12220E+006    1.05595E+007    5.49310E+006    1.52704E+007    3.60308E+006   -4.77455E+005    4.50836E+004    7.03400E+005
            5841    1.12182E+007    1.54704E+007    1.54704E+007    5.90808E+006    3.12164E+006    1.23488E+007   -8.16672E+006    1.03960E+007    5.91905E+006    1.50313E+007    3.54984E+006   -6.96550E+005    1.82898E+005    2.16470E+006
            5842    1.27663E+007    1.74346E+007    1.74346E+007    6.10427E+006    3.60261E+006    1.38320E+007   -9.04715E+006    1.21964E+007    6.10537E+006    1.74322E+007    3.60384E+006   -1.17807E+005    1.58888E+004    1.24511E+005
            5843    1.21040E+007    1.73642E+007    1.73642E+007    6.45872E+006    4.34110E+006    1.30231E+007   -9.38799E+006    1.16763E+007    6.47949E+006    1.73243E+007    4.36018E+006   -4.90860E+005    3.28850E+004    4.81504E+005
            5844    1.08170E+007    1.70624E+007    1.70624E+007    7.28925E+006    5.44000E+006    1.16224E+007   -9.93057E+006    1.04525E+007    7.30890E+006    1.67252E+007    5.75756E+006   -7.21033E+005    1.20224E+005    1.80031E+006
            5845    1.36790E+007    1.86948E+007    1.86948E+007    6.65249E+006    3.82198E+006    1.48729E+007   -9.72310E+006    1.29954E+007    6.65336E+006    1.86938E+007    3.82216E+006   -1.03936E+005    7.10479E+003    4.93351E+004
            5846    1.27827E+007    1.85391E+007    1.85391E+007    7.02332E+006    4.78506E+006    1.37540E+007   -1.01158E+007    1.23302E+007    7.04473E+006    1.85155E+007    4.78722E+006   -4.97681E+005    1.07701E+004    1.67383E+005
            5847    1.01816E+007    1.78382E+007    1.78382E+007    8.16365E+006    7.21578E+006    1.06224E+007   -1.10725E+007    1.00816E+007    8.20918E+006    1.77339E+007    7.27450E+006   -7.29180E+005    4.22008E+004    7.22848E+005
            5848    3.73541E+006    4.06702E+006    4.06702E+006    9.46097E+005   -7.18388E+004    4.13886E+006   -1.64709E+006    3.40176E+006    9.56032E+005    4.04639E+006   -6.11400E+004    1.96845E+005    6.24804E+004    1.79772E+005
            5849    3.29485E+006    3.41176E+006    3.41176E+006    7.20773E+005   -2.62882E+005    3.67465E+006   -1.28989E+006    2.93620E+006    7.20635E+005    3.27853E+006   -1.29511E+005    1.65184E+005    1.46776E+005    6.50476E+005
            5850    3.67206E+006    3.23890E+006    3.23890E+006    5.60420E+005   -9.46970E+005    4.18587E+006   -9.50784E+005    2.83906E+006    5.54406E+005    2.74370E+006   -4.45749E+005    1.53940E+005    2.67337E+005    1.31853E+006
            5851    3.23178E+006    3.56675E+006    3.56675E+006    8.90899E+005   -2.37803E+004    3.59053E+006   -1.47796E+006    2.91856E+006    8.94652E+005    3.55144E+006   -1.22181E+004    1.23730E+005    5.13024E+004    1.82830E+005
            5852    2.67599E+006    2.93034E+006    2.93034E+006    7.06781E+005   -3.95979E+004    2.96994E+006   -1.19918E+006    2.42471E+006    7.01861E+005    2.80662E+006    8.90413E+004    1.06795E+005    1.18755E+005    5.74163E+005
            5853    2.67009E+006    2.57550E+006    2.57550E+006    5.47379E+005   -4.49636E+005    3.02514E+006   -8.91081E+005    2.18827E+006    5.36560E+005    2.02276E+006    1.13924E+005    9.29500E+004    2.20798E+005    1.14625E+006
            5854    2.82377E+006    3.14482E+006    3.14482E+006    8.11927E+005    5.59181E+003    3.13923E+006   -1.32078E+006    2.54477E+006    8.11275E+005    3.14037E+006    1.06934E+004    5.62753E+004    4.26143E+004    9.73987E+004
            5855    2.16069E+006    2.49185E+006    2.49185E+006    6.59570E+005    1.09209E+005    2.38265E+006   -1.08688E+006    1.99363E+006    6.45316E+005    2.44837E+006    1.66943E+005    4.74538E+004    1.00314E+005    3.10509E+005
            5856    1.57105E+006    1.81745E+006    1.81745E+006    5.28622E+005    6.74288E+004    1.75002E+006   -8.04501E+005    1.40621E+006    4.86982E+005    1.50849E+006    4.18028E+005    3.98253E+004    1.78437E+005    6.45298E+005
            5857    2.70064E+006    3.00621E+006    3.00621E+006    7.78479E+005    2.53522E+003    3.00367E+006   -1.26241E+006    2.43022E+006    7.76441E+005    3.00615E+006    4.62638E+003   -7.41018E+003    3.99867E+004   -9.06596E+003
            5858    1.97636E+006    2.34309E+006    2.34309E+006    6.48811E+005    1.71924E+005    2.17117E+006   -1.05461E+006    1.84011E+006    6.29131E+005    2.34223E+006    1.92466E+005   -4.11452E+003    9.50045E+004   -4.25353E+004
            5859    8.73785E+005    1.29629E+006    1.29629E+006    6.34864E+005    3.05735E+005    9.90552E+005   -7.45629E+005    7.12834E+005    4.46781E+005    1.29580E+006    4.94304E+005   -2.18830E+003    1.62969E+005   -1.88155E+004
            5860    2.88714E+006    3.21792E+006    3.21792E+006    8.29178E+005    9.59017E+003    3.20833E+006   -1.35223E+006    2.60551E+006    8.29325E+005    3.21094E+006    1.64165E+004   -7.08563E+004    4.37533E+004   -1.23572E+005
            5861    2.25435E+006    2.57481E+006    2.57481E+006    6.70529E+005    8.56688E+004    2.48914E+006   -1.11034E+006    2.07310E+006    6.58584E+005    2.51707E+006    1.55354E+005   -6.23201E+004    1.03050E+005   -3.63373E+005
            5862    1.66994E+006    1.89519E+006    1.89519E+006    5.31317E+005    3.27560E+004    1.86244E+006   -8.19756E+005    1.48816E+006    4.96755E+005    1.55449E+006    4.08026E+005   -4.71033E+004    1.80625E+005   -6.98485E+005
            5863    3.35759E+006    3.68273E+006    3.68273E+006    9.02666E+005   -4.75685E+004    3.73030E+006   -1.51261E+006    3.03222E+006    9.07808E+005    3.66606E+006   -3.60347E+004   -1.40904E+005    5.35311E+004   -1.85423E+005
            5864    2.83241E+006    3.06982E+006    3.06982E+006    7.26119E+005   -7.75867E+004    3.14741E+006   -1.23945E+006    2.55637E+006    7.22551E+005    2.93532E+006    6.04854E+004   -1.17486E+005    1.23361E+005   -6.15308E+005
            5865    2.73287E+006    2.64277E+006    2.64277E+006    5.63945E+005   -4.52708E+005    3.09548E+006   -9.18004E+005    2.24403E+006    5.53498E+005    2.09525E+006    1.05268E+005   -9.87684E+004    2.24418E+005   -1.15748E+006
            5866    1.12212E+007    1.54765E+007    1.54765E+007    5.91130E+006    3.12457E+006    1.23520E+007   -8.17080E+006    1.03990E+007    5.92232E+006    1.50364E+007    3.55366E+006   -6.96991E+005   -1.82694E+005   -2.16734E+006
            5867    1.09556E+007    1.53512E+007    1.53512E+007    5.47920E+006    3.56439E+006    1.17868E+007   -8.13159E+006    1.05692E+007    5.49919E+006    1.52881E+007    3.60749E+006   -4.76444E+005   -4.44641E+004   -6.87920E+005
            5868    1.12379E+007    1.53206E+007    1.53206E+007    5.18916E+006    3.23314E+006    1.20875E+007   -7.91431E+006    1.08449E+007    5.19092E+006    1.53160E+007    3.23604E+006   -1.36547E+005   -1.00736E+004   -1.84639E+005
            5869    1.08040E+007    1.70687E+007    1.70687E+007    7.30003E+006    5.46458E+006    1.16041E+007   -9.94444E+006    1.04445E+007    7.31980E+006    1.67323E+007    5.78120E+006   -7.21239E+005   -1.19250E+005   -1.79607E+006
            5870    1.21186E+007    1.73633E+007    1.73633E+007    6.45020E+006    4.32140E+006    1.30419E+007   -9.37831E+006    1.16868E+007    6.47088E+006    1.73238E+007    4.34029E+006   -4.90026E+005   -3.30942E+004   -4.79238E+005
            5871    1.27759E+007    1.74483E+007    1.74483E+007    6.11029E+006    3.60549E+006    1.38428E+007   -9.05470E+006    1.22050E+007    6.11138E+006    1.74460E+007    3.60674E+006   -1.17221E+005   -1.58444E+004   -1.25195E+005
            5872    1.01711E+007    1.78390E+007    1.78390E+007    8.16905E+006    7.23157E+006    1.06074E+007   -1.10799E+007    1.00732E+007    8.21503E+006    1.77374E+007    7.28721E+006   -7.29228E+005   -4.11156E+004   -7.02538E+005
            5873    1.27898E+007    1.85337E+007    1.85337E+007    7.01559E+006    4.76980E+006    1.37639E+007   -1.01064E+007    1.23344E+007    7.03694E+006    1.85099E+007    4.77227E+006   -4.97324E+005   -1.17842E+004   -1.78853E+005
            5874    1.36765E+007    1.86932E+007    1.86932E+007    6.65232E+006    3.82348E+006    1.48697E+007   -9.72299E+006    1.29936E+007    6.65319E+006    1.86921E+007    3.82366E+006   -1.03688E+005   -7.32340E+003   -4.85677E+004
            5875    4.52707E+006    5.33759E+006    5.33759E+006    9.49899E+005    6.82949E+005    4.65464E+006   -2.32348E+006    4.50931E+006    8.14619E+005    5.32525E+006    8.30568E+005    6.85263E+004   -1.37022E+005   -2.23502E+005
            5876    5.30796E+006    6.66327E+006    6.66327E+006    1.49420E+006    1.22655E+006    5.43672E+006   -3.12801E+006    5.29274E+006    1.41779E+006    6.65451E+006    1.31171E+006    7.08113E+004   -1.24169E+005   -2.02595E+005
            5877    6.34182E+006    8.29616E+006    8.29616E+006    2.15779E+006    1.76881E+006    6.52736E+006   -4.07425E+006    6.31489E+006    2.13528E+006    8.29027E+006    1.79721E+006    7.02072E+004   -9.44340E+004   -1.80844E+005
            5878    7.73515E+006    1.03429E+007    1.03429E+007    3.01239E+006    2.25839E+006    8.08454E+006   -5.20457E+006    7.65181E+006    3.00864E+006    1.03400E+007    2.26509E+006    6.36193E+004   -5.79910E+004   -1.38842E+005
            5879    9.43837E+006    1.27336E+007    1.27336E+007    4.01340E+006    2.71213E+006    1.00215E+007   -6.48638E+006    9.23332E+006    4.01333E+006    1.27316E+007    2.71421E+006    5.36531E+004   -2.35324E+004   -1.29704E+005
            5880    4.77605E+006    5.48774E+006    5.48774E+006    8.71925E+005    5.66141E+005    4.92160E+006   -2.30860E+006    4.75396E+006    8.74170E+005    5.40378E+006    6.47856E+005    2.32771E+005   -8.41252E+004   -5.86857E+005
            5881    5.57710E+006    6.80652E+006    6.80652E+006    1.45363E+006    1.02944E+006    5.77708E+006   -3.09653E+006    5.54063E+006    1.46342E+006    6.73606E+006    1.09012E+006    2.70014E+005   -7.01829E+004   -5.66327E+005
            5882    6.57965E+006    8.40347E+006    8.40347E+006    2.15504E+006    1.53630E+006    6.86717E+006   -4.03160E+006    6.51372E+006    2.16944E+006    8.35455E+006    1.57082E+006    3.04777E+005   -4.25996E+004   -4.80026E+005
            5883    7.93335E+006    1.04557E+007    1.04557E+007    3.05092E+006    2.08259E+006    8.37306E+006   -5.19638E+006    7.79873E+006    3.06625E+006    1.04158E+007    2.10706E+006    3.37045E+005   -1.14225E+004   -4.51173E+005
            5884    9.48323E+006    1.27987E+007    1.27987E+007    4.09706E+006    2.69083E+006    1.01078E+007   -6.52885E+006    9.24429E+006    4.11130E+006    1.27675E+007    2.70773E+006    3.59935E+005    1.47765E+004   -4.05184E+005
            5885    5.16708E+006    5.63676E+006    5.63676E+006    9.67209E+005    8.56049E+004    5.55116E+006   -2.22986E+006    4.99365E+006    9.83652E+005    5.49166E+006    2.14261E+005    3.28792E+005    2.26779E+004   -8.14503E+005
            5886    6.02513E+006    6.88521E+006    6.88521E+006    1.49951E+006    3.78194E+005    6.50702E+006   -2.92097E+006    5.78334E+006    1.51840E+006    6.76673E+006    4.77786E+005    3.75303E+005    3.94413E+004   -7.71488E+005
            5887    7.13905E+006    8.59919E+006    8.59919E+006    2.25869E+006    8.66641E+005    7.73255E+006   -3.90817E+006    6.82360E+006    2.27846E+006    8.48347E+006    9.62590E+005    4.15885E+005    5.10181E+004   -8.24766E+005
            5888    8.23993E+006    1.05224E+007    1.05224E+007    3.18848E+006    1.60595E+006    8.91642E+006   -5.10560E+006    7.88707E+006    3.20676E+006    1.04163E+007    1.69376E+006    4.34254E+005    6.07646E+004   -8.45674E+005
            5889    9.56145E+006    1.28134E+007    1.28134E+007    4.30070E+006    2.46833E+006    1.03450E+007   -6.52746E+006    9.15384E+006    4.31668E+006    1.27202E+007    2.54555E+006    4.33915E+005    6.42398E+004   -8.57355E+005
            5890    5.68582E+006    5.60351E+006    5.60351E+006    9.51329E+005   -7.34627E+005    6.33814E+006   -1.94007E+006    5.07606E+006    9.59091E+005    5.53771E+006   -6.76592E+005    3.74483E+005    1.56117E+005   -4.85239E+005
            5891    7.09518E+006    7.24061E+006    7.24061E+006    1.50802E+006   -6.94670E+005    7.93528E+006   -2.68465E+006    6.25358E+006    1.52315E+006    7.14429E+006   -6.13476E+005    4.51514E+005    1.59301E+005   -7.02667E+005
            5892    8.17473E+006    8.95513E+006    8.95513E+006    2.25049E+006   -1.51503E+005    9.10663E+006   -3.68471E+006    7.31530E+006    2.26828E+006    8.80592E+006   -2.00857E+004    5.15202E+005    1.55718E+005   -1.00323E+006
            5893    9.24334E+006    1.09963E+007    1.09963E+007    3.24001E+006    7.68470E+005    1.02279E+007   -5.00161E+006    8.45067E+006    3.25982E+006    1.08058E+007    9.39181E+005    5.70361E+005    1.47932E+005   -1.23269E+006
            5894    1.01886E+007    1.32185E+007    1.32185E+007    4.42529E+006    2.05307E+006    1.11654E+007   -6.56562E+006    9.53708E+006    4.44653E+006    1.29932E+007    2.25716E+006    6.14339E+005    1.32131E+005   -1.42277E+006
            5895    1.14791E+007    1.34183E+007    1.34183E+007    4.42078E+006    4.90244E+005    1.29280E+007   -6.10976E+006    9.78353E+006    4.42780E+006    1.30038E+007    8.97697E+005    7.22712E+005    2.87449E+005   -2.13467E+006
            5896    1.07029E+007    1.11654E+007    1.11654E+007    3.11912E+006   -9.81464E+005    1.21469E+007   -4.43437E+006    8.65028E+006    3.12637E+006    1.09485E+007   -7.71763E+005    6.34279E+005    3.11893E+005   -1.43542E+006
            5897    9.54343E+006    9.14522E+006    9.14522E+006    2.15847E+006   -1.72827E+006    1.08735E+007   -3.19181E+006    7.42057E+006    2.16532E+006    9.05680E+006   -1.64669E+006    5.44156E+005    3.16788E+005   -7.28781E+005
            5898    8.29794E+006    7.50466E+006    7.50466E+006    1.51722E+006   -1.96739E+006    9.47205E+006   -2.35150E+006    6.30517E+006    1.52260E+006    7.46381E+006   -1.93192E+006    4.63189E+005    3.07121E+005   -2.40552E+005
            5899    6.90225E+006    6.04307E+006    6.04307E+006    1.06423E+006   -1.83611E+006    7.87917E+006   -1.75706E+006    5.24202E+006    1.06584E+006    6.00436E+006   -1.79901E+006    3.81624E+005    3.02301E+005    2.48647E+005
            5900    5.77380E+006    4.79336E+006    4.79336E+006    6.76171E+005   -1.80653E+006    6.59988E+006   -1.22100E+006    4.30076E+006    6.72954E+005    4.68331E+006   -1.69326E+006    3.03812E+005    3.11620E+005    7.29672E+005
            5901    4.66764E+006    3.88386E+006    3.88386E+006    5.56093E+005   -1.45172E+006    5.33558E+006   -9.96079E+005    3.47566E+006    5.51889E+005    3.56725E+006   -1.13090E+006    2.23061E+005    3.01475E+005    1.20645E+006
            5902    3.92086E+006    3.87050E+006    3.87050E+006    6.93276E+005   -5.11331E+005    4.38183E+006   -1.35082E+006    3.46635E+006    6.94362E+005    3.81139E+006   -4.53302E+005    2.29623E+005    1.68563E+005    4.16111E+005
            5903    4.08268E+006    4.35084E+006    4.35084E+006    8.76433E+005   -1.45830E+005    4.49667E+006   -1.69381E+006    3.77830E+006    8.92608E+005    4.32999E+006   -1.41159E+005    2.66340E+005    6.92332E+004    3.34363E+004
            5904    4.42168E+006    4.32508E+006    4.32508E+006    6.93491E+005   -5.98757E+005    4.92384E+006   -1.47327E+006    3.96224E+006    6.92986E+005    4.30058E+006   -5.73751E+005    2.90064E+005    1.66374E+005   -9.41473E+004
            5905    4.08421E+006    4.28445E+006    4.28445E+006    6.75193E+005   -1.49004E+005    4.43345E+006   -1.60355E+006    3.89045E+006    6.95821E+005    4.25127E+006   -1.36452E+005    3.13500E+005    6.04491E+004   -1.65301E+005
            5906    3.85171E+006    3.97771E+006    3.97771E+006    3.90869E+005   -9.31174E+004    4.07083E+006   -1.42515E+006    3.78239E+006    4.12058E+005    3.92834E+006   -6.49324E+004    3.20323E+005    3.48340E+004   -2.91677E+005
            5907    3.45535E+006    3.47915E+006    3.47915E+006    6.02422E+004   -1.15183E+004    3.49067E+006   -1.17596E+006    3.45367E+006    7.53835E+004    3.42542E+006    2.70729E+004    2.84594E+005   -3.29374E+003   -3.21198E+005
            5908    3.05914E+006    2.95248E+006    2.95248E+006    5.39382E+004   -2.45283E+005    3.19776E+006   -9.20377E+005    3.02596E+006   -2.31676E+005    2.92042E+006    7.23893E+004    1.97939E+005   -3.39953E+004   -2.36391E+005
            5909    2.81906E+006    2.61980E+006    2.61980E+006    9.40951E+004   -4.21453E+005    3.04125E+006   -7.64148E+005    2.70994E+006   -4.15100E+005    2.61522E+006    9.23211E+004    7.13978E+004   -5.08738E+004   -8.43818E+004
            5910    4.58415E+006    4.59181E+006    4.59181E+006    6.36679E+005   -4.32404E+005    5.02422E+006   -1.59870E+006    4.29000E+006    6.42048E+005    4.51176E+006   -3.57716E+005    3.18935E+005    1.05832E+005   -5.26836E+005
            5911    4.38464E+006    4.58466E+006    4.58466E+006    5.09771E+005   -5.49908E+004    4.63965E+006   -1.67981E+006    4.30166E+006    5.25347E+005    4.45181E+006    6.22878E+004    2.89307E+005    4.78684E+003   -7.12781E+005
            5912    4.03818E+006    4.32576E+006    4.32576E+006    3.68658E+005    2.11113E+005    4.11465E+006   -1.63518E+006    4.03126E+006    3.58876E+005    4.24433E+006    3.02324E+005    1.97063E+005   -7.96651E+004   -5.32813E+005
            5913    3.79471E+006    4.09611E+006    4.09611E+006    4.44086E+005    1.73234E+005    3.92288E+006   -1.57114E+006    3.77287E+006    2.40716E+005    4.08434E+006    3.88372E+005    6.88854E+004   -1.20104E+005   -1.95418E+005
            5914    5.04651E+006    6.24005E+006    6.24005E+006    1.31863E+006    1.07713E+006    5.16292E+006   -2.87860E+006    5.03348E+006    1.24955E+006    6.21670E+006    1.16955E+006   -1.27150E+005    1.18964E+005   -3.16225E+005
            5915    6.20649E+006    8.08386E+006    8.08386E+006    2.07718E+006    1.69520E+006    6.38866E+006   -3.95208E+006    6.17996E+006    2.06427E+006    8.07262E+006    1.71935E+006   -1.47770E+005    8.31904E+004   -2.17990E+005
            5916    7.78401E+006    1.03820E+007    1.03820E+007    3.04241E+006    2.21895E+006    8.16300E+006   -5.21444E+006    7.68510E+006    3.04388E+006    1.03690E+007    2.23042E+006   -1.56420E+005    4.52024E+004   -2.78668E+005
            5917    9.45538E+006    1.28240E+007    1.28240E+007    4.11042E+006    2.76991E+006    1.00541E+007   -6.56811E+006    9.23796E+006    4.11300E+006    1.28165E+007    2.77483E+006   -1.51150E+005    1.17486E+004   -2.21171E+005
            5918    5.69375E+006    6.51058E+006    6.51058E+006    1.32572E+006    4.17191E+005    6.09339E+006   -2.75117E+006    5.52714E+006    1.34494E+006    6.40703E+006    5.01523E+005   -3.38845E+005   -9.06790E+003   -6.99668E+005
            5919    7.11035E+006    8.63734E+006    8.63734E+006    2.24557E+006    9.78721E+005    7.65862E+006   -3.95388E+006    6.84950E+006    2.26658E+006    8.52377E+006    1.07128E+006   -3.97777E+005   -2.12792E+004   -8.20696E+005
            5920    8.23215E+006    1.06696E+007    1.06696E+007    3.23722E+006    1.82140E+006    8.84823E+006   -5.24275E+006    7.95128E+006    3.25719E+006    1.05601E+007    1.91092E+006   -4.30930E+005   -3.69528E+004   -8.62100E+005
            5921    9.60644E+006    1.30052E+007    1.30052E+007    4.34869E+006    2.67002E+006    1.03351E+007   -6.67462E+006    9.26781E+006    4.36849E+006    1.29179E+007    2.73745E+006   -4.57460E+005   -4.51652E+004   -8.06695E+005
            5922    1.09251E+007    1.33562E+007    1.33562E+007    4.46742E+006    1.15944E+006    1.21968E+007   -6.32770E+006    9.69855E+006    4.47683E+006    1.29940E+007    1.51231E+006   -6.50237E+005   -2.21160E+005   -1.94624E+006
            5923    1.00642E+007    1.11546E+007    1.11546E+007    3.22338E+006   -1.66949E+005    1.13215E+007   -4.73701E+006    8.63158E+006    3.23334E+006    1.09249E+007    5.27788E+004   -5.89258E+005   -2.36601E+005   -1.45360E+006
            5924    8.90679E+006    9.18339E+006    9.18339E+006    2.28756E+006   -8.72588E+005    1.00560E+007   -3.53279E+006    7.47974E+006    2.29858E+006    9.03475E+006   -7.34961E+005   -5.22561E+005   -2.24618E+005   -1.05634E+006
            5925    7.68297E+006    7.50793E+006    7.50793E+006    1.59709E+006   -1.17676E+006    8.68469E+006   -2.64275E+006    6.40145E+006    1.60748E+006    7.43812E+006   -1.11734E+006   -4.57158E+005   -2.21137E+005   -5.61508E+005
            5926    6.54498E+006    5.86979E+006    5.86979E+006    9.83861E+005   -1.56642E+006    7.43622E+006   -1.76241E+006    5.23792E+006    9.86607E+005    5.83927E+006   -1.53865E+006   -3.85391E+005   -2.65580E+005    7.03026E+003
            5927    5.63194E+006    4.65482E+006    4.65482E+006    6.23660E+005   -1.78016E+006    6.43498E+006   -1.16610E+006    4.22223E+006    6.20385E+005    4.54821E+006   -1.67028E+006   -2.95434E+005   -3.02032E+005    7.09687E+005
            5928    4.66790E+006    3.92115E+006    3.92115E+006    5.71007E+005   -1.41064E+006    5.33180E+006   -1.02717E+006    3.51548E+006    5.66208E+005    3.64546E+006   -1.13015E+006   -2.29990E+005   -2.99468E+005    1.12229E+006
            5929    3.72096E+006    3.29668E+006    3.29668E+006    5.72957E+005   -9.42947E+005    4.23963E+006   -9.75564E+005    2.89263E+006    5.67747E+005    2.81230E+006   -4.53351E+005   -1.62600E+005   -2.70213E+005    1.31335E+006
            5930    3.40510E+006    3.52389E+006    3.52389E+006    7.34159E+005   -2.70507E+005    3.79439E+006   -1.32918E+006    3.04387E+006    7.35609E+005    3.40072E+006   -1.48784E+005   -1.82304E+005   -1.49558E+005    6.28736E+005
            5931    3.84513E+006    4.20240E+006    4.20240E+006    9.69067E+005   -4.94504E+004    4.25185E+006   -1.70734E+006    3.52195E+006    9.80882E+005    4.17974E+006   -3.86037E+004   -2.15002E+005   -6.35664E+004    1.83488E+005
            5932    3.95980E+006    3.91810E+006    3.91810E+006    6.84650E+005   -4.98378E+005    4.41648E+006   -1.36812E+006    3.52810E+006    6.85438E+005    3.86703E+006   -4.48091E+005   -2.38348E+005   -1.69319E+005    3.69581E+005
            5933    4.22572E+006    4.47002E+006    4.47002E+006    8.60563E+005   -1.78214E+005    4.64824E+006   -1.71746E+006    3.92272E+006    8.78602E+005    4.44716E+006   -1.73389E+005   -2.85721E+005   -7.14057E+004    1.91008E+004
            5934    4.61680E+006    4.43350E+006    4.43350E+006    6.47673E+005   -7.09879E+005    5.14338E+006   -1.45710E+006    4.13065E+006    6.48035E+005    4.40399E+006   -6.80731E+005   -3.00137E+005   -1.63048E+005   -1.83757E+005
            5935    4.13874E+006    4.29495E+006    4.29495E+006    6.04466E+005   -1.79819E+005    4.47477E+006   -1.57320E+006    3.96635E+006    6.26251E+005    4.25211E+006   -1.58765E+005   -3.29866E+005   -5.68472E+004   -2.47368E+005
            5936    4.80407E+006    4.89357E+006    4.89357E+006    7.14827E+005   -3.55346E+005    5.24891E+006   -1.75102E+006    4.52407E+006    7.22345E+005    4.76885E+006   -2.38146E+005   -3.33296E+005   -8.76131E+004   -7.16348E+005
            5937    3.71531E+006    3.80349E+006    3.80349E+006    2.62745E+005   -6.47104E+004    3.86820E+006   -1.33384E+006    3.68263E+006    2.82796E+005    3.74376E+006   -2.50298E+004   -3.14024E+005   -2.01074E+004   -3.50288E+005
            5938    3.29800E+006    3.25334E+006    3.25334E+006    1.30939E+004   -9.95309E+004    3.35287E+006   -1.05563E+006    3.29367E+006   -8.30611E+004    3.20641E+006    4.35483E+004   -2.33138E+005    2.02084E+004   -3.12151E+005
            5939    2.92960E+006    2.81316E+006    2.81316E+006    1.45894E+005   -3.22375E+005    3.13553E+006   -8.78892E+005    2.84357E+006   -3.14248E+005    2.80343E+006    1.47491E+005   -8.81412E+004    5.50283E+004   -1.37346E+005
            5940    4.55886E+006    4.92143E+006    4.92143E+006    6.33754E+005    1.32773E+005    4.78865E+006   -1.89598E+006    4.49630E+006    6.49943E+005    4.79488E+006    2.43128E+005   -2.66590E+005    2.44543E+004   -7.15520E+005
            5941    4.13384E+006    4.66908E+006    4.66908E+006    6.56565E+005    4.23756E+005    4.24532E+006   -1.91647E+006    4.11905E+006    5.21064E+005    4.64598E+006    5.82357E+005   -1.03643E+005    1.21874E+005   -2.86352E+005
            5942    1.14938E+007    1.55225E+007    1.55225E+007    5.96309E+006    2.76960E+006    1.27529E+007   -8.08505E+006    1.04234E+007    5.97054E+006    1.49422E+007    3.34241E+006    7.91132E+005    2.33018E+005   -2.52261E+006
            5943    1.09591E+007    1.54564E+007    1.54564E+007    5.71876E+006    3.58866E+006    1.18677E+007   -8.25461E+006    1.04780E+007    5.74387E+006    1.52460E+007    3.77400E+006    6.49680E+005    1.07525E+005   -1.40382E+006
            5944    1.08406E+007    1.51469E+007    1.51469E+007    5.47326E+006    3.43006E+006    1.17169E+007   -8.01675E+006    1.03941E+007    5.48754E+006    1.50766E+007    3.48610E+006    4.21476E+005    5.87922E+004   -7.80693E+005
            5945    1.11462E+007    1.52712E+007    1.52712E+007    5.21215E+006    3.28837E+006    1.19829E+007   -7.92392E+006    1.07631E+007    5.22567E+006    1.52464E+007    3.29963E+006    3.81127E+005    2.94365E+004   -3.52589E+005
            5946    1.12690E+007    1.52621E+007    1.52621E+007    5.07845E+006    3.15533E+006    1.21068E+007   -7.83196E+006    1.08906E+007    5.07867E+006    1.52611E+007    3.15613E+006    4.72207E+004    3.59465E+002   -9.88630E+004
            5947    1.06694E+007    1.70395E+007    1.70395E+007    7.46911E+006    5.53549E+006    1.15040E+007   -1.00147E+007    1.02640E+007    7.48395E+006    1.65612E+007    5.99896E+006    8.30416E+005    1.52027E+005   -2.13055E+006
            5948    1.13899E+007    1.72960E+007    1.72960E+007    6.88378E+006    5.13152E+006    1.21645E+007   -9.77045E+006    1.10806E+007    6.91707E+006    1.71566E+007    5.23772E+006    6.78919E+005    7.16274E+004   -1.07539E+006
            5949    1.19122E+007    1.71879E+007    1.71879E+007    6.52275E+006    4.33265E+006    1.28553E+007   -9.34778E+006    1.14460E+007    6.53641E+006    1.71463E+007    4.36062E+006    4.05677E+005    4.12357E+004   -5.81029E+005
            5950    1.25723E+007    1.74103E+007    1.74103E+007    6.19779E+006    3.81832E+006    1.35920E+007   -9.14213E+006    1.20499E+007    6.21138E+006    1.73917E+007    3.82334E+006    3.98093E+005    2.78747E+004   -2.47274E+005
            5951    1.28607E+007    1.74346E+007    1.74346E+007    5.99448E+006    3.51445E+006    1.39201E+007   -8.98116E+006    1.23053E+007    5.99463E+006    1.74340E+007    3.51486E+006    4.73028E+004    1.01099E+004   -7.17668E+004
            5952    9.58960E+006    1.76560E+007    1.76560E+007    8.42177E+006    7.74663E+006    9.90933E+006   -1.12748E+007    9.53591E+006    8.47425E+006    1.75057E+007    7.84437E+006    8.44671E+005    5.19571E+004   -8.48226E+005
            5953    1.15628E+007    1.83374E+007    1.83374E+007    7.57864E+006    6.11073E+006    1.22267E+007   -1.06756E+007    1.13503E+007    7.62131E+006    1.82797E+007    6.12580E+006    6.89963E+005    2.56755E+004   -4.04763E+005
            5954    1.25308E+007    1.83662E+007    1.83662E+007    7.12561E+006    4.85544E+006    1.35107E+007   -1.01157E+007    1.20551E+007    7.13885E+006    1.83494E+007    4.85900E+006    3.88426E+005    1.40829E+004   -2.13494E+005
            5955    1.34069E+007    1.86677E+007    1.86677E+007    6.77924E+006    4.13601E+006    1.45317E+007   -9.86098E+006    1.28008E+007    6.79287E+006    1.86532E+007    4.13681E+006    4.03701E+005    1.24883E+004   -1.01489E+005
            5956    1.38113E+007    1.87322E+007    1.87322E+007    6.54487E+006    3.73045E+006    1.50017E+007   -9.66917E+006    1.31427E+007    6.54502E+006    1.87320E+007    3.73050E+006    4.52437E+004    5.78518E+003   -2.47600E+004
            5957    3.67821E+006    3.24039E+006    3.24039E+006    5.58824E+005   -9.52784E+005    4.19318E+006   -9.48812E+005    2.84149E+006    5.52851E+005    2.74339E+006   -4.49802E+005    1.53908E+005   -2.67543E+005   -1.32204E+006
            5958    3.28696E+006    3.40802E+006    3.40802E+006    7.22215E+005   -2.57377E+005    3.66539E+006   -1.29095E+006    2.93054E+006    7.22065E+005    3.27561E+006   -1.24821E+005    1.64290E+005   -1.45812E+005   -6.47814E+005
            5959    3.72328E+006    4.05589E+006    4.05589E+006    9.45580E+005   -6.97251E+004    4.12562E+006   -1.64392E+006    3.39024E+006    9.55375E+005    4.03529E+006   -5.89136E+004    1.95218E+005   -6.22093E+004   -1.81028E+005
            5960    2.66455E+006    2.57283E+006    2.57283E+006    5.48013E+005   -4.45805E+005    3.01863E+006   -8.91679E+005    2.18502E+006    5.37191E+005    2.01956E+006    1.18283E+005    9.27298E+004   -2.20530E+005   -1.14517E+006
            5961    2.67305E+006    2.92768E+006    2.92768E+006    7.06587E+005   -3.90108E+004    2.96669E+006   -1.19842E+006    2.42202E+006    7.01622E+005    2.80489E+006    8.87484E+004    1.06308E+005   -1.18459E+005   -5.71793E+005
            5962    3.22121E+006    3.55535E+006    3.55535E+006    8.88682E+005   -2.36188E+004    3.57897E+006   -1.47347E+006    2.90856E+006    8.92305E+005    3.54033E+006   -1.22266E+004    1.22191E+005   -5.11500E+004   -1.80840E+005
            5963    1.55971E+006    1.80771E+006    1.80771E+006    5.27356E+005    7.06210E+004    1.73709E+006   -8.01894E+005    1.39694E+006    4.85103E+005    1.50050E+006    4.20080E+005    3.95636E+004   -1.78372E+005   -6.40639E+005
            5964    2.15899E+006    2.48946E+006    2.48946E+006    6.58946E+005    1.08557E+005    2.38091E+006   -1.08566E+006    1.99176E+006    6.44540E+005    2.44619E+006    1.66232E+005    4.69937E+004   -1.00587E+005   -3.09711E+005
            5965    2.82010E+006    3.14052E+006    3.14052E+006    8.10957E+005    5.25045E+003    3.13527E+006   -1.31891E+006    2.54115E+006    8.10244E+005    3.13622E+006    1.02595E+004    5.51326E+004   -4.25858E+004   -9.57553E+004
            5966    8.74278E+005    1.29721E+006    1.29721E+006    6.35284E+005    3.06135E+005    9.91078E+005   -7.46211E+005    7.13429E+005    4.47306E+005    1.29607E+006    4.95258E+005   -2.51103E+003   -1.63097E+005    2.91266E+004
            5967    1.97664E+006    2.34409E+006    2.34409E+006    6.49384E+005    1.72704E+005    2.17139E+006   -1.05539E+006    1.84053E+006    6.29703E+005    2.34321E+006    1.93270E+005   -4.65103E+003   -9.50095E+004    4.30084E+004
            5968    2.70200E+006    3.00789E+006    3.00789E+006    7.79006E+005    2.71133E+003    3.00518E+006   -1.26320E+006    2.43148E+006    7.76973E+005    3.00782E+006    4.81219E+003   -8.41145E+003   -4.00232E+004    1.02368E+004
            5969    1.68935E+006    1.90689E+006    1.90689E+006    5.30034E+005    2.17642E+004    1.88513E+006   -8.19564E+005    1.50231E+006    4.96502E+005    1.55771E+006    4.04478E+005   -4.75092E+004   -1.81377E+005    7.10901E+005
            5970    2.25412E+006    2.57344E+006    2.57344E+006    6.69449E+005    8.44966E+004    2.48894E+006   -1.10913E+006    2.07279E+006    6.57458E+005    2.51560E+006    1.54321E+005   -6.26495E+004   -1.03349E+005    3.63551E+005
            5971    2.89633E+006    3.22715E+006    3.22715E+006    8.30881E+005    8.58028E+003    3.21857E+006   -1.35554E+006    2.61373E+006    8.31124E+005    3.22004E+006    1.54513E+004   -7.21820E+004   -4.36737E+004    1.24623E+005
            5972    2.74772E+006    2.65391E+006    2.65391E+006    5.65251E+005   -4.58771E+005    3.11268E+006   -9.20130E+005    2.25414E+006    5.54816E+005    2.10804E+006    9.75338E+004   -9.94543E+004   -2.25016E+005    1.15996E+006
            5973    2.82640E+006    3.06475E+006    3.06475E+006    7.25181E+005   -7.56563E+004    3.14041E+006   -1.23809E+006    2.55181E+006    7.21552E+005    2.92874E+006    6.39841E+004   -1.17373E+005   -1.23723E+005    6.18021E+005
            5974    3.36738E+006    3.69410E+006    3.69410E+006    9.05195E+005   -4.67846E+004    3.74088E+006   -1.51750E+006    3.04181E+006    9.10467E+005    3.67737E+006   -3.53262E+004   -1.42357E+005   -5.35684E+004    1.84969E+005
            5975    1.12605E+007    1.52481E+007    1.52481E+007    5.07160E+006    3.15075E+006    1.20974E+007   -7.82349E+006    1.08827E+007    5.07182E+006    1.52471E+007    3.15152E+006    4.73029E+004   -5.64746E+002    9.65817E+004
            5976    1.11473E+007    1.52713E+007    1.52713E+007    5.21246E+006    3.28642E+006    1.19849E+007   -7.92339E+006    1.07634E+007    5.22597E+006    1.52464E+007    3.29776E+006    3.81126E+005   -2.98694E+004    3.53751E+005
            5977    1.08483E+007    1.51603E+007    1.51603E+007    5.48073E+006    3.43467E+006    1.17256E+007   -8.02522E+006    1.04008E+007    5.49508E+006    1.50891E+007    3.49150E+006    4.23147E+005   -5.91149E+004    7.86461E+005
            5978    1.09608E+007    1.54683E+007    1.54683E+007    5.72995E+006    3.59815E+006    1.18701E+007   -8.26545E+006    1.04790E+007    5.75496E+006    1.52542E+007    3.78718E+006    6.52124E+005   -1.08602E+005    1.41747E+006
            5979    1.14921E+007    1.55328E+007    1.55328E+007    5.97301E+006    2.78264E+006    1.27502E+007   -8.09615E+006    1.04237E+007    5.98045E+006    1.49515E+007    3.35654E+006    7.92331E+005   -2.33137E+005    2.52438E+006
            5980    1.28613E+007    1.74330E+007    1.74330E+007    5.99248E+006    3.51216E+006    1.39208E+007   -8.97920E+006    1.23058E+007    5.99262E+006    1.74324E+007    3.51259E+006    4.56056E+004   -9.96275E+003    7.32752E+004
            5981    1.25740E+007    1.74094E+007    1.74094E+007    6.19518E+006    3.81568E+006    1.35937E+007   -9.14008E+006    1.20517E+007    6.20863E+006    1.73909E+007    3.82066E+006    3.95988E+005   -2.76435E+004    2.46285E+005
            5982    1.19138E+007    1.71860E+007    1.71860E+007    6.51962E+006    4.32874E+006    1.28572E+007   -9.34477E+006    1.14474E+007    6.53332E+006    1.71442E+007    4.35681E+006    4.06424E+005   -4.13173E+004    5.82111E+005
            5983    1.13787E+007    1.73021E+007    1.73021E+007    6.89733E+006    5.15144E+006    1.21507E+007   -9.78363E+006    1.10713E+007    6.93075E+006    1.71603E+007    5.25985E+006    6.81611E+005   -7.20013E+004    1.08570E+006
            5984    1.06660E+007    1.70410E+007    1.70410E+007    7.47568E+006    5.53951E+006    1.15015E+007   -1.00187E+007    1.02594E+007    7.49002E+006    1.65572E+007    6.00895E+006    8.31820E+005   -1.52967E+005    2.14332E+006
            5985    1.38067E+007    1.87283E+007    1.87283E+007    6.54392E+006    3.73221E+006    1.49961E+007   -9.66815E+006    1.31391E+007    6.54407E+006    1.87281E+007    3.73226E+006    4.42804E+004   -5.99197E+003    2.40551E+004
            5986    1.34118E+007    1.86677E+007    1.86677E+007    6.77642E+006    4.12999E+006    1.45377E+007   -9.85803E+006    1.28044E+007    6.78997E+006    1.86534E+007    4.13077E+006    4.02553E+005   -1.25122E+004    1.00381E+005
            5987    1.25312E+007    1.83690E+007    1.83690E+007    7.12709E+006    4.85847E+006    1.35106E+007   -1.01182E+007    1.20562E+007    7.14034E+006    1.83523E+007    4.86193E+006    3.88577E+005   -1.38454E+004    2.10511E+005
            5988    1.15477E+007    1.83259E+007    1.83259E+007    7.57793E+006    6.11743E+006    1.22085E+007   -1.06738E+007    1.13372E+007    7.62068E+006    1.82687E+007    6.13193E+006    6.90015E+005   -2.54025E+004    3.96381E+005
            5989    9.58454E+006    1.76368E+007    1.76368E+007    8.41071E+006    7.73013E+006    9.90669E+006   -1.12592E+007    9.52995E+006    8.46300E+006    1.74860E+007    7.82862E+006    8.44493E+005   -5.27229E+004    8.51224E+005
            5990    6.90083E+006    6.04317E+006    6.04317E+006    1.06531E+006   -1.83437E+006    7.87754E+006   -1.75804E+006    5.24101E+006    1.06686E+006    6.00478E+006   -1.79753E+006    3.81809E+005   -3.02375E+005   -2.43538E+005
            5991    8.30513E+006    7.50783E+006    7.50783E+006    1.51863E+006   -1.97309E+006    9.48092E+006   -2.35113E+006    6.30470E+006    1.52393E+006    7.46693E+006   -1.93748E+006    4.63026E+005   -3.07552E+005    2.42576E+005
            5992    9.55998E+006    9.16818E+006    9.16818E+006    2.16985E+006   -1.72428E+006    1.08925E+007   -3.20458E+006    7.43258E+006    2.17665E+006    9.07854E+006   -1.64144E+006    5.45365E+005   -3.17269E+005    7.37807E+005
            5993    1.07159E+007    1.11957E+007    1.11957E+007    3.13638E+006   -9.65085E+005    1.21608E+007   -4.45567E+006    8.66559E+006    3.14355E+006    1.09758E+007   -7.52313E+005    6.35856E+005   -3.12188E+005    1.44796E+006
            5994    1.14747E+007    1.34394E+007    1.34394E+007    4.43824E+006    5.18501E+005    1.29209E+007   -6.13205E+006    9.78888E+006    4.44525E+006    1.30218E+007    9.29156E+005    7.23371E+005   -2.86507E+005    2.14295E+006
            5995    1.01948E+007    1.32113E+007    1.32113E+007    4.41837E+006    2.03643E+006    1.11749E+007   -6.55538E+006    9.53813E+006    4.43961E+006    1.29859E+007    2.24059E+006    6.14780E+005   -1.32838E+005    1.42343E+006
            5996    9.55553E+006    1.27993E+007    1.27993E+007    4.29499E+006    2.45897E+006    1.03403E+007   -6.51775E+006    9.14596E+006    4.31097E+006    1.27051E+007    2.53718E+006    4.35345E+005   -6.54269E+004    8.62055E+005
            5997    9.48019E+006    1.27958E+007    1.27958E+007    4.09837E+006    2.69033E+006    1.01055E+007   -6.52816E+006    9.24054E+006    4.11278E+006    1.27642E+007    2.70751E+006    3.62293E+005   -1.53351E+004    4.08263E+005
            5998    9.43687E+006    1.27324E+007    1.27324E+007    4.01307E+006    2.71281E+006    1.00196E+007   -6.48609E+006    9.23211E+006    4.01301E+006    1.27303E+007    2.71494E+006    5.51825E+004    2.38919E+004    1.31077E+005
            5999    9.23035E+006    1.09614E+007    1.09614E+007    3.22154E+006    7.45561E+005    1.02158E+007   -4.97616E+006    8.43335E+006    3.24130E+006    1.07716E+007    9.15573E+005    5.69621E+005   -1.48463E+005    1.22907E+006
            6000    8.24003E+006    1.05036E+007    1.05036E+007    3.17638E+006    1.58333E+006    8.92025E+006   -5.08776E+006    7.88232E+006    3.19471E+006    1.03960E+007    1.67260E+006    4.35173E+005   -6.12213E+004    8.52964E+005
            6001    7.93408E+006    1.04523E+007    1.04523E+007    3.04928E+006    2.07689E+006    8.37545E+006   -5.19284E+006    7.79833E+006    3.06479E+006    1.04118E+007    2.10189E+006    3.39199E+005    1.03806E+004    4.55876E+005
            6002    7.73334E+006    1.03437E+007    1.03437E+007    3.01413E+006    2.26164E+006    8.08207E+006   -5.20649E+006    7.65032E+006    3.01040E+006    1.03407E+007    2.26836E+006    6.47762E+004    5.79331E+004    1.39296E+005
            6003    8.14868E+006    8.90601E+006    8.90601E+006    2.22783E+006   -1.73495E+005    9.07950E+006   -3.65345E+006    7.28652E+006    2.24554E+006    8.75862E+006   -4.38195E+004    5.14378E+005   -1.56790E+005    9.93516E+005
            6004    7.12537E+006    8.56247E+006    8.56247E+006    2.24070E+006    8.41182E+005    7.72129E+006   -3.88145E+006    6.80575E+006    2.26041E+006    8.44625E+006    9.37695E+005    4.16272E+005   -5.23426E+004    8.25930E+005
            6005    6.59919E+006    8.42503E+006    8.42503E+006    2.16372E+006    1.53321E+006    6.89181E+006   -4.04065E+006    6.53091E+006    2.17853E+006    8.37471E+006    1.56873E+006    3.08051E+005    4.15476E+004    4.88698E+005
            6006    6.36636E+006    8.33006E+006    8.33006E+006    2.17090E+006    1.77498E+006    6.55509E+006   -4.09198E+006    6.33858E+006    2.14920E+006    8.32372E+006    1.80302E+006    7.18428E+004    9.39799E+004    1.88468E+005
            6007    7.09014E+006    7.22491E+006    7.22491E+006    1.50180E+006   -7.06617E+005    7.93153E+006   -2.67336E+006    6.24297E+006    1.51693E+006    7.12898E+006   -6.25825E+005    4.51235E+005   -1.59779E+005    7.00204E+005
            6008    6.02133E+006    6.87704E+006    6.87704E+006    1.49659E+006    3.73097E+005    6.50395E+006   -2.91558E+006    5.77841E+006    1.51551E+006    6.75873E+006    4.72495E+005    3.75737E+005   -3.98187E+004    7.70324E+005
            6009    5.59090E+006    6.82208E+006    6.82208E+006    1.45925E+006    1.02808E+006    5.79400E+006   -3.10314E+006    5.55331E+006    1.46952E+006    6.75226E+006    1.08763E+006    2.71773E+005    6.88249E+004    5.63235E+005
            6010    5.32939E+006    6.70206E+006    6.70206E+006    1.51188E+006    1.24358E+006    5.45848E+006   -3.15251E+006    5.31417E+006    1.43679E+006    6.69386E+006    1.32687E+006    7.17663E+004    1.23687E+005    1.95241E+005
            6011    5.68463E+006    5.59836E+006    5.59836E+006    9.48200E+005   -7.38823E+005    6.33719E+006   -1.93591E+006    5.07387E+006    9.55899E+005    5.53297E+006   -6.81124E+005    3.74464E+005   -1.56671E+005    4.82545E+005
            6012    5.15991E+006    5.63750E+006    5.63750E+006    9.69013E+005    9.72326E+004    5.54027E+006   -2.23458E+006    4.99017E+006    9.85612E+005    5.49228E+006    2.25858E+005    3.28328E+005   -2.11228E+004    8.14192E+005
            6013    4.78879E+006    5.50364E+006    5.50364E+006    8.77230E+005    5.67498E+005    4.93614E+006   -2.31612E+006    4.76618E+006    8.79198E+005    5.42015E+006    6.49021E+005    2.31776E+005    8.46463E+004    5.86362E+005
            6014    4.54138E+006    5.36528E+006    5.36528E+006    9.63234E+005    6.96349E+005    4.66893E+006   -2.34162E+006    4.52368E+006    8.28896E+005    5.35208E+006    8.43888E+005    6.95194E+004    1.37188E+005    2.32035E+005
            6015    3.81277E+006    4.12314E+006    4.12314E+006    4.51618E+005    1.83302E+005    3.93984E+006   -1.58602E+006    3.79144E+006    2.52891E+005    4.11129E+006    3.93884E+005    6.91614E+004    1.20614E+005    1.96740E+005
            6016    2.82317E+006    2.62660E+006    2.62660E+006    9.50668E+004   -4.17880E+005    3.04448E+006   -7.67928E+005    2.71534E+006   -4.11417E+005    2.62199E+006    9.32077E+004    7.18024E+004    5.12434E+004    8.45879E+004
            6017    4.03647E+006    4.32741E+006    4.32741E+006    3.71220E+005    2.15175E+005    4.11223E+006   -1.63793E+006    4.02968E+006    3.60244E+005    4.24623E+006    3.07327E+005    1.96421E+005    8.04890E+004    5.31852E+005
            6018    3.06238E+006    2.95814E+006    2.95814E+006    5.52931E+004   -2.42080E+005    3.20022E+006   -9.23785E+005    3.02965E+006   -2.28334E+005    2.92576E+006    7.39293E+004    1.98851E+005    3.43425E+004    2.37855E+005
            6019    4.37709E+006    4.57838E+006    4.57838E+006    5.07298E+005   -5.11156E+004    4.62950E+006   -1.67819E+006    4.29585E+006    5.22858E+005    4.44519E+006    6.65112E+004    2.88173E+005   -3.92938E+003    7.13395E+005
            6020    3.45889E+006    3.48143E+006    3.48143E+006    6.05254E+004   -1.42495E+004    3.49568E+006   -1.17590E+006    3.45707E+006    7.57828E+004    3.42790E+006    2.40145E+004    2.84699E+005    2.78633E+003    3.20329E+005
            6021    4.58117E+006    4.58954E+006    4.58954E+006    6.36092E+005   -4.30997E+005    5.02053E+006   -1.59821E+006    4.28796E+006    6.41408E+005    4.50903E+006   -3.55807E+005    3.18956E+005   -1.05775E+005    5.28681E+005
            6022    3.84875E+006    3.97784E+006    3.97784E+006    3.92633E+005   -8.90822E+004    4.06693E+006   -1.42713E+006    3.78003E+006    4.13850E+005    3.92855E+006   -6.10019E+004    3.20080E+005   -3.45105E+004    2.91189E+005
            6023    4.08641E+006    4.28605E+006    4.28605E+006    6.76969E+005   -1.50919E+005    4.43697E+006   -1.60403E+006    3.89096E+006    6.97532E+005    4.25303E+006   -1.38464E+005    3.12974E+005   -6.05804E+004    1.64373E+005
            6024    4.07891E+006    4.34830E+006    4.34830E+006    8.79230E+005   -1.45164E+005    4.49346E+006   -1.69412E+006    3.77286E+006    8.95256E+005    4.32756E+006   -1.40453E+005    2.64840E+005   -6.92871E+004   -3.83374E+004
            6025    4.41852E+006    4.32043E+006    4.32043E+006    6.91945E+005   -6.00081E+005    4.92051E+006   -1.47076E+006    3.95887E+006    6.91454E+005    4.29610E+006   -5.75260E+005    2.89608E+005   -1.66415E+005    9.04409E+004
            6026    3.90923E+006    3.86294E+006    3.86294E+006    6.93661E+005   -5.05368E+005    4.36831E+006   -1.35041E+006    3.45773E+006    6.94802E+005    3.80314E+006   -4.46711E+005    2.28663E+005   -1.67812E+005   -4.19395E+005
            6027    4.68044E+006    3.89119E+006    3.89119E+006    5.55708E+005   -1.45927E+006    5.35047E+006   -9.95876E+005    3.48264E+006    5.51564E+005    3.57438E+006   -1.13831E+006    2.23507E+005   -3.01777E+005   -1.20861E+006
            6028    5.79401E+006    4.80270E+006    4.80270E+006    6.73604E+005   -1.82074E+006    6.62344E+006   -1.21852E+006    4.31129E+006    6.70421E+005    4.69294E+006   -1.70780E+006    3.04338E+005   -3.12032E+005   -7.29758E+005
            6029    7.72251E+006    7.54038E+006    7.54038E+006    1.66572E+006   -1.20672E+006    8.74710E+006   -2.66646E+006    6.34163E+006    1.67045E+006    7.48192E+006   -1.15300E+006   -3.31178E+005    1.67653E+005    5.97308E+005
            6030    8.97935E+006    9.25097E+006    9.25097E+006    2.38681E+006   -9.10980E+005    1.01619E+007   -3.57560E+006    7.42078E+006    2.39222E+006    9.11219E+006   -7.77610E+005   -3.72727E+005    1.64875E+005    1.09900E+006
            6031    1.01339E+007    1.12490E+007    1.12490E+007    3.34858E+006   -1.76683E+005    1.14257E+007   -4.80697E+006    8.58207E+006    3.35475E+006    1.10281E+007    3.80668E+004   -4.15698E+005    1.61318E+005    1.50203E+006
            6032    1.09817E+007    1.34592E+007    1.34592E+007    4.59851E+006    1.17299E+006    1.22862E+007   -6.41024E+006    9.66537E+006    4.60505E+006    1.31062E+007    1.51943E+006   -4.50457E+005    1.42213E+005    1.99223E+006
            6033    9.54802E+006    1.30568E+007    1.30568E+007    4.62606E+006    2.68861E+006    1.03682E+007   -6.79048E+006    9.08983E+006    4.63354E+006    1.29742E+007    2.76374E+006   -3.10386E+005    5.71306E+004    8.58008E+005
            6034    9.30522E+006    1.28053E+007    1.28053E+007    4.39122E+006    2.81123E+006    9.99406E+006   -6.66924E+006    8.99598E+006    4.39265E+006    1.27994E+007    2.81566E+006   -1.10130E+005    1.05480E+003    2.10256E+005
            6035    8.19102E+006    1.07098E+007    1.07098E+007    3.46472E+006    1.82183E+006    8.88794E+006   -5.33211E+006    7.80731E+006    3.47335E+006    1.06033E+007    1.91973E+006   -3.03438E+005    4.54963E+004    9.09930E+005
            6036    7.63595E+006    1.03545E+007    1.03545E+007    3.29360E+006    2.25075E+006    8.10378E+006   -5.29963E+006    7.47322E+006    3.29498E+006    1.03432E+007    2.26074E+006   -1.05736E+005   -1.90164E+004    2.81194E+005
            6037    7.07858E+006    8.66798E+006    8.66798E+006    2.42799E+006    9.75991E+005    7.69199E+006   -4.02398E+006    6.73117E+006    2.43747E+006    8.55690E+006    1.07758E+006   -2.86358E+005    3.53915E+004    8.63712E+005
            6038    6.09769E+006    8.09342E+006    8.09342E+006    2.29184E+006    1.73747E+006    6.35595E+006   -4.04091E+006    6.04060E+006    2.29036E+006    8.08347E+006    1.74890E+006   -9.79301E+004   -4.54648E+004    2.28604E+005
            6039    5.67740E+006    6.54661E+006    6.54661E+006    1.46640E+006    4.18124E+005    6.12848E+006   -2.81038E+006    5.45325E+006    1.47608E+006    6.44144E+006    5.13618E+005   -2.51783E+005    1.92768E+004    7.48656E+005
            6040    4.96943E+006    6.25975E+006    6.25975E+006    1.43864E+006    1.15420E+006    5.10555E+006   -2.95086E+006    4.95107E+006    1.42478E+006    6.23617E+006    1.19163E+006   -8.63315E+004   -7.05145E+004    3.32853E+005
            6041    4.08039E+006    4.68227E+006    4.68227E+006    6.78972E+005    5.28927E+005    4.15334E+006   -1.96339E+006    4.07417E+006    6.33199E+005    4.65793E+006    5.99033E+005   -7.66970E+004   -7.56909E+004    3.04172E+005
            6042    2.87074E+006    2.78601E+006    2.78601E+006    1.45566E+005   -2.69787E+005    3.05579E+006   -8.87262E+005    2.80194E+006   -2.65781E+005    2.77639E+006    1.51173E+005   -7.08692E+004   -3.45979E+004    1.44077E+005
            6043    4.54986E+006    4.94158E+006    4.94158E+006    7.28353E+005    1.16917E+005    4.82466E+006   -1.92895E+006    4.45603E+006    7.36993E+005    4.80907E+006    2.40786E+005   -2.03919E+005   -6.70261E+003    7.58890E+005
            6044    3.25146E+006    3.23690E+006    3.23690E+006    1.67662E+004   -4.50121E+004    3.28191E+006   -1.06955E+006    3.25014E+006   -3.34333E+004    3.19207E+006    5.00199E+004   -1.85081E+005   -1.10641E+004    3.30273E+005
            6045    3.68316E+006    3.81307E+006    3.81307E+006    3.20291E+005   -3.47591E+004    3.84783E+006   -1.36620E+006    3.64436E+006    3.34153E+005    3.75953E+006    4.91532E+003   -2.49758E+005    1.21534E+004    3.69100E+005
            6046    4.12571E+006    4.33047E+006    4.33047E+006    6.65124E+005   -1.37618E+005    4.46808E+006   -1.61932E+006    3.94422E+006    6.80436E+005    4.29665E+006   -1.19119E+005   -2.62887E+005    3.58282E+004    2.59856E+005
            6047    4.23042E+006    4.52971E+006    4.52971E+006    9.25165E+005   -1.27702E+005    4.65742E+006   -1.77573E+006    3.91904E+006    9.37814E+005    4.51525E+006   -1.25886E+005   -2.27221E+005    4.37960E+004   -1.78073E+004
            6048    3.84678E+006    4.26045E+006    4.26045E+006    1.02625E+006    6.56057E+003    4.25389E+006   -1.76442E+006    3.52297E+006    1.03461E+006    4.24275E+006    1.59063E+004   -1.70712E+005    3.69134E+004   -1.89837E+005
            6049    4.82445E+006    4.90626E+006    4.90626E+006    7.75468E+005   -3.96076E+005    5.30233E+006   -1.76188E+006    4.48735E+006    7.77830E+005    4.77915E+006   -2.71328E+005   -2.58156E+005    8.13038E+004    7.62952E+005
            6050    4.63765E+006    4.44190E+006    4.44190E+006    6.83623E+005   -7.40912E+005    5.18282E+006   -1.46154E+006    4.10028E+006    6.82549E+005    4.41810E+006   -7.16032E+005   -2.37553E+005    1.37126E+005    2.21539E+005
            6051    3.96778E+006    3.91451E+006    3.91451E+006    7.13692E+005   -5.24805E+005    4.43931E+006   -1.36780E+006    3.49146E+006    7.13665E+005    3.87246E+006   -4.82726E+005   -1.94401E+005    1.43656E+005   -3.55691E+005
            6052    3.41663E+006    3.53031E+006    3.53031E+006    7.65490E+005   -2.89355E+005    3.81966E+006   -1.33548E+006    3.01627E+006    7.65083E+005    3.41501E+006   -1.73650E+005   -1.47669E+005    1.31570E+005   -6.23196E+005
            6053    3.70504E+006    3.31027E+006    3.31027E+006    5.95160E+005   -9.10588E+005    4.22086E+006   -9.98280E+005    2.88520E+006    5.95145E+005    2.83385E+006   -4.34152E+005   -1.19530E+005    1.77863E+005   -1.31834E+006
            6054    4.66817E+006    3.93638E+006    3.93638E+006    5.91214E+005   -1.39669E+006    5.33307E+006   -1.04363E+006    3.50653E+006    5.92094E+005    3.67443E+006   -1.13563E+006   -1.74119E+005    2.01518E+005   -1.12068E+006
            6055    5.64722E+006    4.67754E+006    4.67754E+006    6.43771E+005   -1.77641E+006    6.45395E+006   -1.18164E+006    4.21882E+006    6.45165E+005    4.58711E+006   -1.68737E+006   -2.22678E+005    2.04758E+005   -6.93341E+005
            6056    6.55915E+006    5.89425E+006    5.89425E+006    1.02746E+006   -1.56490E+006    7.45915E+006   -1.78560E+006    5.20353E+006    1.03067E+006    5.87774E+006   -1.55161E+006   -2.83097E+005    1.83821E+005    2.48258E+004
            6057    1.11352E+007    1.53664E+007    1.53664E+007    5.50179E+006    3.29186E+006    1.20745E+007   -8.05334E+006    1.06249E+007    5.50316E+006    1.53626E+007    3.29430E+006   -1.20373E+005    1.29432E+004    1.68013E+005
            6058    1.08627E+007    1.54196E+007    1.54196E+007    5.83028E+006    3.62263E+006    1.17970E+007   -8.29084E+006    1.03398E+007    5.83750E+006    1.53620E+007    3.67297E+006   -3.08735E+005    5.42588E+004    7.49612E+005
            6059    1.12600E+007    1.55738E+007    1.55738E+007    6.03143E+006    3.15437E+006    1.24194E+007   -8.25320E+006    1.03836E+007    6.03944E+006    1.51476E+007    3.57254E+006   -4.71191E+005    1.07220E+005    2.20409E+006
            6060    1.27121E+007    1.75425E+007    1.75425E+007    6.43642E+006    3.67749E+006    1.38650E+007   -9.21880E+006    1.20105E+007    6.43789E+006    1.75401E+007    3.67840E+006   -1.31040E+005    1.35331E+004    1.07527E+005
            6061    1.19747E+007    1.74353E+007    1.74353E+007    6.86372E+006    4.43094E+006    1.30043E+007   -9.57665E+006    1.13987E+007    6.87113E+006    1.74060E+007    4.45278E+006   -3.02239E+005    4.02904E+004    5.18437E+005
            6062    1.08438E+007    1.71666E+007    1.71666E+007    7.40097E+006    5.49677E+006    1.16698E+007   -1.00214E+007    1.04577E+007    7.41235E+006    1.68505E+007    5.80143E+006   -4.76486E+005    6.50028E+004    1.82723E+006
            6063    1.36406E+007    1.88200E+007    1.88200E+007    6.98348E+006    3.90239E+006    1.49176E+007   -9.90195E+006    1.28221E+007    6.98510E+006    1.88182E+007    3.90251E+006   -1.39183E+005    5.61615E+003    4.14998E+004
            6064    1.26186E+007    1.85957E+007    1.85957E+007    7.46019E+006    4.88975E+006    1.37059E+007   -1.03152E+007    1.20082E+007    7.46793E+006    1.85854E+007    4.89226E+006   -2.96165E+005    1.45987E+004    1.80422E+005
            6065    1.02009E+007    1.79433E+007    1.79433E+007    8.28165E+006    7.27746E+006    1.06658E+007   -1.11675E+007    1.00888E+007    8.30179E+006    1.78696E+007    7.33098E+006   -4.73998E+005    2.13826E+004    7.32077E+005
            6066    3.74097E+006    4.12482E+006    4.12482E+006    9.99682E+005   -2.03912E+004    4.14521E+006   -1.70137E+006    3.40639E+006    1.00678E+006    4.10850E+006   -1.11718E+004    1.56384E+005    3.73491E+004    1.85329E+005
            6067    3.30926E+006    3.41857E+006    3.41857E+006    7.50041E+005   -2.84326E+005    3.70289E+006   -1.29476E+006    2.91078E+006    7.49381E+005    3.29118E+006   -1.56281E+005    1.37229E+005    1.28042E+005    6.48719E+005
            6068    3.65987E+006    3.25463E+006    3.25463E+006    5.81664E+005   -9.16651E+005    4.17128E+006   -9.73214E+005    2.83521E+006    5.81590E+005    2.76845E+006   -4.30403E+005    1.15606E+005    1.75724E+005    1.32191E+006
            6069    3.23455E+006    3.62034E+006    3.62034E+006    9.35463E+005    2.93597E+004    3.59098E+006   -1.52839E+006    2.92795E+006    9.38553E+005    3.60666E+006    3.99470E+004    9.88943E+004    2.97536E+004    1.88405E+005
            6070    2.69035E+006    2.94087E+006    2.94087E+006    7.36571E+005   -5.69965E+004    2.99787E+006   -1.20682E+006    2.40511E+006    7.31697E+005    2.82116E+006    6.75918E+004    8.57691E+004    1.06952E+005    5.73605E+005
            6071    2.66028E+006    2.59374E+006    2.59374E+006    5.63226E+005   -4.17717E+005    3.01146E+006   -9.13084E+005    2.19418E+006    5.60296E+005    2.04603E+006    1.32926E+005    6.72625E+004    1.41249E+005    1.15161E+006
            6072    2.82662E+006    3.19149E+006    3.19149E+006    8.49085E+005    5.18688E+004    3.13962E+006   -1.36415E+006    2.55473E+006    8.49286E+005    3.18743E+006    5.57207E+004    4.49062E+004    2.48867E+004    9.95577E+004
            6073    2.17685E+006    2.50733E+006    2.50733E+006    6.86303E+005    9.62961E+004    2.41103E+006   -1.09664E+006    1.98466E+006    6.75682E+005    2.46473E+006    1.49515E+005    4.08105E+004    8.98054E+004    3.11226E+005
            6074    1.55799E+006    1.83358E+006    1.83358E+006    5.20641E+005    1.11995E+005    1.72159E+006   -8.22073E+005    1.42977E+006    5.04869E+005    1.52759E+006    4.33761E+005    3.07309E+004    1.11675E+005    6.48936E+005
            6075    2.70365E+006    3.05112E+006    3.05112E+006    8.13705E+005    4.68859E+004    3.00424E+006   -1.30390E+006    2.44042E+006    8.12996E+005    3.05108E+006    4.76399E+004   -5.65849E+003    2.35574E+004   -9.60944E+003
            6076    1.99363E+006    2.36011E+006    2.36011E+006    6.73233E+005    1.60067E+005    2.20004E+006   -1.06447E+006    1.83600E+006    6.58977E+005    2.35924E+006    1.75196E+005   -5.91974E+003    8.45661E+004   -4.28145E+004
            6077    8.47268E+005    1.31268E+006    1.31268E+006    5.87362E+005    3.81428E+005    9.31252E+005   -7.60490E+005    7.87952E+005    4.61374E+005    1.31219E+006    5.07907E+005   -2.71140E+003    1.00449E+005   -1.92302E+004
            6078    2.88922E+006    3.26548E+006    3.26548E+006    8.67861E+005    5.76525E+004    3.20783E+006   -1.39700E+006    2.61474E+006    8.68596E+005    3.25904E+006    6.33610E+004   -5.67976E+004    2.53569E+004   -1.27145E+005
            6079    2.26992E+006    2.59012E+006    2.59012E+006    6.99007E+005    7.28517E+004    2.51727E+006   -1.12066E+006    2.06179E+006    6.89381E+005    2.53448E+006    1.38122E+005   -4.87570E+004    9.27379E+004   -3.62487E+005
            6080    1.65847E+006    1.91254E+006    1.91254E+006    5.29482E+005    7.38888E+004    1.83865E+006   -8.38635E+005    1.50775E+006    5.16086E+005    1.57529E+006    4.24533E+005   -3.26930E+004    1.13193E+005   -7.02758E+005
            6081    3.36226E+006    3.73778E+006    3.73778E+006    9.49034E+005    4.18551E+003    3.73360E+006   -1.56367E+006    3.04138E+006    9.52998E+005    3.72328E+006    1.47218E+004   -1.12304E+005    3.12406E+004   -1.91404E+005
            6082    2.84675E+006    3.08007E+006    3.08007E+006    7.56130E+005   -9.52128E+004    3.17529E+006   -1.24700E+006    2.53571E+006    7.53079E+005    2.94882E+006    3.90918E+004   -9.91128E+004    1.09742E+005   -6.16328E+005
            6083    2.72265E+006    2.66054E+006    2.66054E+006    5.80051E+005   -4.20909E+005    3.08145E+006   -9.39895E+005    2.24894E+006    5.77887E+005    2.11746E+006    1.24333E+005   -7.42520E+004    1.43837E+005   -1.16332E+006
            6084    1.12631E+007    1.55803E+007    1.55803E+007    6.03492E+006    3.15770E+006    1.24226E+007   -8.25764E+006    1.03869E+007    6.04292E+006    1.51532E+007    3.57679E+006   -4.71463E+005   -1.07283E+005   -2.20674E+006
            6085    1.08712E+007    1.54352E+007    1.54352E+007    5.83741E+006    3.62946E+006    1.18057E+007   -8.30067E+006    1.03485E+007    5.84463E+006    1.53797E+007    3.67772E+006   -3.07941E+005   -5.38493E+004   -7.33904E+005
            6086    1.11604E+007    1.54016E+007    1.54016E+007    5.51691E+006    3.29867E+006    1.21029E+007   -8.07239E+006    1.06473E+007    5.51828E+006    1.53978E+007    3.30104E+006   -1.20445E+005   -1.29708E+004   -1.65738E+005
            6087    1.08309E+007    1.71734E+007    1.71734E+007    7.41233E+006    5.52173E+006    1.16517E+007   -1.00358E+007    1.04499E+007    7.42370E+006    1.68582E+007    5.82553E+006   -4.76593E+005   -6.47742E+004   -1.82306E+006
            6088    1.19891E+007    1.74342E+007    1.74342E+007    6.85573E+006    4.41120E+006    1.30230E+007   -9.56705E+006    1.14080E+007    6.86312E+006    1.74052E+007    4.43280E+006   -3.01652E+005   -4.03356E+004   -5.15850E+005
            6089    1.27219E+007    1.75563E+007    1.75563E+007    6.44220E+006    3.68038E+006    1.38759E+007   -9.22630E+006    1.20193E+007    6.44366E+006    1.75539E+007    3.68131E+006   -1.30929E+005   -1.35532E+004   -1.08479E+005
            6090    1.01904E+007    1.79444E+007    1.79444E+007    8.28760E+006    7.29326E+006    1.06511E+007   -1.11751E+007    1.00804E+007    8.30786E+006    1.78734E+007    7.34396E+006   -4.74030E+005   -2.10867E+004   -7.11746E+005
            6091    1.26258E+007    1.85903E+007    1.85903E+007    7.45274E+006    4.87442E+006    1.37159E+007   -1.03058E+007    1.20118E+007    7.46046E+006    1.85798E+007    4.87725E+006   -2.95974E+005   -1.49724E+004   -1.91767E+005
            6092    1.36381E+007    1.88184E+007    1.88184E+007    6.98340E+006    3.90382E+006    1.49146E+007   -9.90188E+006    1.28203E+007    6.98502E+006    1.88167E+007    3.90395E+006   -1.39183E+005   -5.85040E+003   -4.12133E+004
            6093    4.46137E+006    5.35076E+006    5.35076E+006    9.92214E+005    7.93219E+005    4.55754E+006   -2.37873E+006    4.45137E+006    9.48566E+005    5.33824E+006    8.49384E+005    6.47234E+004   -8.64454E+004   -2.26852E+005
            6094    5.22506E+006    6.68688E+006    6.68688E+006    1.61950E+006    1.31726E+006    5.36962E+006   -3.20788E+006    5.20534E+006    1.60287E+006    6.67798E+006    1.34279E+006    7.69938E+004   -7.42759E+004   -2.02202E+005
            6095    6.24775E+006    8.33166E+006    8.33166E+006    2.37363E+006    1.82975E+006    6.50191E+006   -4.17835E+006    6.19416E+006    2.37078E+006    8.32526E+006    1.83899E+006    9.02006E+004   -5.04164E+004   -1.79990E+005
            6096    7.63940E+006    1.03952E+007    1.03952E+007    3.29097E+006    2.31447E+006    8.08070E+006   -5.33353E+006    7.49706E+006    3.29210E+006    1.03912E+007    2.31732E+006    1.05503E+005   -2.27614E+004   -1.39243E+005
            6097    9.34441E+006    1.28032E+007    1.28032E+007    4.34027E+006    2.77499E+006    1.00282E+007   -6.63948E+006    9.04237E+006    4.34198E+006    1.27997E+007    2.77674E+006    1.20417E+005    1.52372E+003   -1.32326E+005
            6098    4.72752E+006    5.50044E+006    5.50044E+006    1.00501E+006    5.70782E+005    4.92966E+006   -2.35875E+006    4.68234E+006    1.01009E+006    5.41056E+006    6.55594E+005    1.63962E+005   -4.49706E+004   -6.35883E+005
            6099    5.49895E+006    6.81417E+006    6.81417E+006    1.64726E+006    1.03451E+006    5.77966E+006   -3.16531E+006    5.42134E+006    1.65304E+006    6.74111E+006    1.10179E+006    1.75298E+005   -3.38665E+004   -6.17971E+005
            6100    6.46980E+006    8.40429E+006    8.40429E+006    2.40612E+006    1.54842E+006    6.85587E+006   -4.11961E+006    6.34000E+006    2.41167E+006    8.35775E+006    1.58941E+006    1.81793E+005   -1.50280E+004   -5.28327E+005
            6101    7.80074E+006    1.04515E+007    1.04515E+007    3.34945E+006    2.10236E+006    8.34916E+006   -5.30111E+006    7.57158E+006    3.35375E+006    1.04176E+007    2.13194E+006    1.78199E+005    3.26465E+003   -4.94672E+005
            6102    9.34261E+006    1.27981E+007    1.27981E+007    4.42555E+006    2.72039E+006    1.00777E+007   -6.64802E+006    8.98245E+006    4.42830E+006    1.27756E+007    2.74020E+006    1.61618E+005    1.66105E+004   -4.42567E+005
            6103    5.17826E+006    5.67679E+006    5.67679E+006    1.05846E+006    7.86143E+004    5.59818E+006   -2.27129E+006    4.96322E+006    1.06768E+006    5.52886E+006    2.17318E+005    2.49222E+005    2.06810E+004   -8.57883E+005
            6104    6.03284E+006    6.94296E+006    6.94296E+006    1.61929E+006    3.90225E+005    6.55273E+006   -2.98416E+006    5.74093E+006    1.62971E+006    6.82812E+006    4.94632E+005    2.80624E+005    3.32016E+004   -8.04801E+005
            6105    7.15551E+006    8.68486E+006    8.68486E+006    2.40673E+006    8.93899E+005    7.79096E+006   -3.99516E+006    6.78154E+006    2.41787E+006    8.57637E+006    9.91252E+005    3.13109E+005    4.23377E+004   -8.47271E+005
            6106    8.27506E+006    1.06537E+007    1.06537E+007    3.36428E+006    1.65877E+006    8.99493E+006   -5.22558E+006    7.86490E+006    3.37539E+006    1.05564E+007    1.74490E+006    3.37747E+005    5.02481E+004   -8.54809E+005
            6107    9.62195E+006    1.29970E+007    1.29970E+007    4.50705E+006    2.54536E+006    1.04516E+007   -6.68313E+006    9.15567E+006    4.51813E+006    1.29112E+007    2.62001E+006    3.58246E+005    5.43198E+004   -8.58227E+005
            6108    5.70669E+006    5.63249E+006    5.63249E+006    1.02947E+006   -7.52589E+005    6.38508E+006   -1.96979E+006    5.02095E+006    1.03262E+006    5.57074E+006   -6.93990E+005    2.83534E+005    1.27751E+005   -5.36942E+005
            6109    7.12523E+006    7.27344E+006    7.27344E+006    1.62573E+006   -7.31767E+005    8.00521E+006   -2.72247E+006    6.15126E+006    1.63112E+006    7.18197E+006   -6.45690E+005    3.32411E+005    1.39953E+005   -7.62585E+005
            6110    8.18842E+006    8.99149E+006    8.99149E+006    2.42653E+006   -1.83895E+005    9.17538E+006   -3.74471E+006    7.15834E+006    2.43313E+006    8.84577E+006   -4.47741E+004    3.72590E+005    1.37531E+005   -1.06852E+006
            6111    9.22234E+006    1.10207E+007    1.10207E+007    3.47438E+006    7.40456E+005    1.02802E+007   -5.07850E+006    8.23384E+006    3.48112E+006    1.08313E+007    9.23026E+005    4.03751E+005    1.35367E+005   -1.30835E+006
            6112    1.01076E+007    1.32140E+007    1.32140E+007    4.72061E+006    2.03474E+006    1.11792E+007   -6.65644E+006    9.25227E+006    4.72770E+006    1.29882E+007    2.25339E+006    4.21100E+005    1.21746E+005   -1.50431E+006
            6113    1.15851E+007    1.35548E+007    1.35548E+007    4.47280E+006    5.07750E+005    1.30470E+007   -6.17844E+006    9.87566E+006    4.47841E+006    1.31641E+007    8.92780E+005    4.51424E+005    1.58517E+005   -2.16683E+006
            6114    1.08047E+007    1.12659E+007    1.12659E+007    3.16042E+006   -1.00067E+006    1.22666E+007   -4.47522E+006    8.70670E+006    3.16570E+006    1.10682E+007   -8.08219E+005    4.18658E+005    1.89930E+005   -1.46769E+006
            6115    9.63050E+006    9.21532E+006    9.21532E+006    2.19086E+006   -1.76279E+006    1.09781E+007   -3.21446E+006    7.44542E+006    2.19587E+006    9.14420E+006   -1.69669E+006    3.76707E+005    2.06271E+005   -7.56108E+005
            6116    8.36588E+006    7.54999E+006    7.54999E+006    1.53782E+006   -2.00424E+006    9.55423E+006   -2.36119E+006    6.31453E+006    1.54156E+006    7.52496E+006   -1.98295E+006    3.30830E+005    2.11875E+005   -2.66485E+005
            6117    6.94303E+006    6.07197E+006    6.07197E+006    1.07890E+006   -1.85665E+006    7.92862E+006   -1.76474E+006    5.24658E+006    1.08102E+006    6.04879E+006   -1.83560E+006    2.82226E+005    2.14519E+005    2.26611E+005
            6118    5.78333E+006    4.81354E+006    4.81354E+006    7.00818E+005   -1.79924E+006    6.61278E+006   -1.23837E+006    4.28741E+006    7.02093E+005    4.71953E+006   -1.70651E+006    2.27864E+005    2.12411E+005    7.16052E+005
            6119    4.66008E+006    3.90018E+006    3.90018E+006    5.79281E+005   -1.42702E+006    5.32720E+006   -1.01748E+006    3.46735E+006    5.80175E+005    3.59699E+006   -1.12473E+006    1.65753E+005    2.00197E+005    1.20588E+006
            6120    3.93889E+006    3.87339E+006    3.87339E+006    7.23736E+005   -5.43015E+005    4.41641E+006   -1.35137E+006    3.43363E+006    7.23090E+005    3.82387E+006   -4.92844E+005    1.85084E+005    1.45809E+005    4.01920E+005
            6121    4.08454E+006    4.40757E+006    4.40757E+006    9.37532E+005   -9.37875E+004    4.50136E+006   -1.75044E+006    3.77457E+006    9.48973E+005    4.39423E+006   -9.18947E+004    2.12172E+005    4.25198E+004    3.52398E+004
            6122    4.44601E+006    4.33456E+006    4.33456E+006    7.27184E+005   -6.32541E+005    4.96710E+006   -1.47640E+006    3.93578E+006    7.26202E+005    4.31694E+006   -6.13937E+005    2.32424E+005    1.38868E+005   -1.23414E+005
            6123    4.07872E+006    4.32642E+006    4.32642E+006    7.39001E+005   -1.09984E+005    4.43640E+006   -1.65181E+006    3.87237E+006    7.53411E+005    4.30238E+006   -1.00353E+005    2.49410E+005    3.86475E+004   -1.74014E+005
            6124    3.83902E+006    3.99287E+006    3.99287E+006    4.52386E+005   -8.75264E+004    4.08040E+006   -1.45258E+006    3.75218E+006    4.66831E+005    3.95066E+006   -5.97625E+004    2.56150E+005    2.54571E+004   -3.11110E+005
            6125    3.42453E+006    3.47215E+006    3.47215E+006    1.14286E+005   -1.53581E+004    3.48751E+006   -1.19036E+006    3.41900E+006    1.24962E+005    3.42276E+006    2.33580E+004    2.29608E+005    2.09529E+003   -3.40764E+005
            6126    3.00945E+006    2.92911E+006    2.92911E+006    5.40733E+004   -1.98798E+005    3.12791E+006   -9.28129E+005    2.98541E+006   -1.90266E+005    2.89892E+006    7.57348E+004    1.59657E+005   -2.16500E+004   -2.49559E+005
            6127    2.75848E+006    2.58365E+006    2.58365E+006    9.23467E+004   -3.80808E+005    2.96446E+006   -7.65062E+005    2.66488E+006   -3.77747E+005    2.57919E+006    9.37383E+004    5.70052E+004   -3.21861E+004   -9.07846E+004
            6128    4.59979E+006    4.61568E+006    4.61568E+006    6.92038E+005   -4.46443E+005    5.06212E+006   -1.62043E+006    4.26517E+006    6.94961E+005    4.53673E+006   -3.70416E+005    2.47736E+005    8.57106E+004   -5.67091E+005
            6129    4.38274E+006    4.60531E+006    4.60531E+006    5.86357E+005   -6.76903E+004    4.67300E+006   -1.70799E+006    4.27087E+006    5.95523E+005    4.46690E+006    6.15519E+004    2.25441E+005    7.47030E+003   -7.56264E+005
            6130    4.00793E+006    4.33451E+006    4.33451E+006    4.36882E+005    2.24697E+005    4.10981E+006   -1.66536E+006    3.99527E+006    4.40505E+005    4.24772E+006    3.07862E+005    1.52663E+005   -4.58659E+004   -5.68572E+005
            6131    3.74092E+006    4.09245E+006    4.09245E+006    4.33971E+005    2.74203E+005    3.81824E+006   -1.60021E+006    3.73323E+006    3.24323E+005    4.08027E+006    3.96024E+005    5.50741E+004   -7.69105E+004   -2.03825E+005
            6132    4.96458E+006    6.25330E+006    6.25330E+006    1.43596E+006    1.15354E+006    5.09976E+006   -2.94760E+006    4.94646E+006    1.42200E+006    6.22952E+006    1.19127E+006   -8.62220E+004    7.04665E+004   -3.34286E+005
            6133    6.10255E+006    8.10473E+006    8.10473E+006    2.29817E+006    1.74399E+006    6.36074E+006   -4.04896E+006    6.04555E+006    2.29672E+006    8.09491E+006    1.75525E+006   -9.77080E+004    4.51324E+004   -2.27006E+005
            6134    7.67775E+006    1.04163E+007    1.04163E+007    3.32128E+006    2.26523E+006    8.15111E+006   -5.33428E+006    7.51174E+006    3.32266E+006    1.04052E+007    2.27499E+006   -1.05542E+005    1.85912E+004   -2.78849E+005
            6135    9.35672E+006    1.28785E+007    1.28785E+007    4.42312E+006    2.82599E+006    1.00525E+007   -6.70920E+006    9.04239E+006    4.42455E+006    1.28727E+007    2.83039E+006   -1.10239E+005   -1.19774E+003   -2.09944E+005
            6136    5.68002E+006    6.54933E+006    6.54933E+006    1.46680E+006    4.18003E+005    6.13133E+006   -2.81138E+006    5.45576E+006    1.47646E+006    6.44452E+006    5.13152E+005   -2.51723E+005   -1.93683E+004   -7.47464E+005
            6137    7.09452E+006    8.69045E+006    8.69045E+006    2.43697E+006    9.80837E+005    7.70961E+006   -4.03608E+006    6.74590E+006    2.44644E+006    8.57878E+006    1.08304E+006   -2.86452E+005   -3.53484E+004   -8.67359E+005
            6138    8.20100E+006    1.07422E+007    1.07422E+007    3.48400E+006    1.84565E+006    8.89650E+006   -5.35727E+006    7.81998E+006    3.49262E+006    1.06361E+007    1.94304E+006   -3.03437E+005   -4.54442E+004   -9.07978E+005
            6139    9.55926E+006    1.30899E+007    1.30899E+007    4.64565E+006    2.71148E+006    1.03784E+007   -6.81568E+006    9.10326E+006    4.65312E+006    1.30078E+007    2.78613E+006   -3.10020E+005   -5.67858E+004   -8.55759E+005
            6140    1.09811E+007    1.34503E+007    1.34503E+007    4.59276E+006    1.16390E+006    1.22864E+007   -6.40234E+006    9.66183E+006    4.59927E+006    1.30973E+007    1.51045E+006   -4.50266E+005   -1.42502E+005   -1.99252E+006
            6141    1.01270E+007    1.12385E+007    1.12385E+007    3.34327E+006   -1.79484E+005    1.14179E+007   -4.80075E+006    8.57642E+006    3.34943E+006    1.10189E+007    3.38853E+004   -4.15479E+005   -1.61454E+005   -1.49644E+006
            6142    8.97044E+006    9.24763E+006    9.24763E+006    2.38710E+006   -9.03402E+005    1.01510E+007   -3.57711E+006    7.41785E+006    2.39252E+006    9.10874E+006   -7.69932E+005   -3.72550E+005   -1.64533E+005   -1.09891E+006
            6143    7.73085E+006    7.55603E+006    7.55603E+006    1.67167E+006   -1.19964E+006    8.75568E+006   -2.67602E+006    6.35324E+006    1.67644E+006    7.49710E+006   -1.14548E+006   -3.31688E+005   -1.67362E+005   -6.00885E+005
            6144    6.56916E+006    5.90109E+006    5.90109E+006    1.02877E+006   -1.56988E+006    7.47097E+006   -1.78666E+006    5.20852E+006    1.03200E+006    5.88458E+006   -1.55661E+006   -2.83286E+005   -1.83945E+005   -2.45295E+004
            6145    5.64215E+006    4.67583E+006    4.67583E+006    6.45393E+005   -1.77229E+006    6.44812E+006   -1.18298E+006    4.21554E+006    6.46780E+005    4.58477E+006   -1.68261E+006   -2.22450E+005   -2.04784E+005    6.95862E+005
            6146    4.65720E+006    3.93157E+006    3.93157E+006    5.92571E+005   -1.38865E+006    5.32023E+006   -1.04516E+006    3.50130E+006    5.93449E+005    3.66964E+006   -1.12760E+006   -1.73887E+005   -2.01218E+005    1.11924E+006
            6147    3.70884E+006    3.31541E+006    3.31541E+006    5.96944E+005   -9.09646E+005    4.22506E+006   -1.00090E+006    2.88910E+006    5.96955E+005    2.84090E+006   -4.35148E+005   -1.19877E+005   -1.77755E+005    1.31670E+006
            6148    3.42031E+006    3.53114E+006    3.53114E+006    7.64463E+005   -2.93027E+005    3.82417E+006   -1.33419E+006    3.01826E+006    7.64028E+005    3.41557E+006   -1.77019E+005   -1.47715E+005   -1.31907E+005    6.24343E+005
            6149    3.84967E+006    4.26334E+006    4.26334E+006    1.02620E+006    6.46578E+003    4.25687E+006   -1.76533E+006    3.52610E+006    1.03459E+006    4.24554E+006    1.58798E+004   -1.71343E+005   -3.74659E+004    1.90334E+005
            6150    3.97611E+006    3.92102E+006    3.92102E+006    7.15182E+005   -5.28192E+005    4.44921E+006   -1.36934E+006    3.49685E+006    7.15216E+005    3.87865E+006   -4.85853E+005   -1.94831E+005   -1.43916E+005    3.57803E+005
            6151    4.23116E+006    4.52738E+006    4.52738E+006    9.24088E+005   -1.31693E+005    4.65908E+006   -1.77326E+006    3.91801E+006    9.36677E+005    4.51294E+006   -1.29836E+005   -2.26969E+005   -4.43148E+004    1.85783E+004
            6152    4.64913E+006    4.44698E+006    4.44698E+006    6.83011E+005   -7.49944E+005    5.19693E+006   -1.46002E+006    4.10636E+006    6.81949E+005    4.42341E+006   -7.25307E+005   -2.37841E+005   -1.37746E+005   -2.18895E+005
            6153    4.12979E+006    4.33663E+006    4.33663E+006    6.70630E+005   -1.37481E+005    4.47411E+006   -1.62326E+006    3.94597E+006    6.85894E+005    4.30317E+006   -1.19286E+005   -2.62512E+005   -3.61299E+004   -2.57490E+005
            6154    4.82815E+006    4.91234E+006    4.91234E+006    7.78484E+005   -3.94105E+005    5.30644E+006   -1.76557E+006    4.49070E+006    7.80821E+005    4.78465E+006   -2.68756E+005   -2.58377E+005   -8.14120E+004   -7.65127E+005
            6155    3.68950E+006    3.82150E+006    3.82150E+006    3.25616E+005   -3.51328E+004    3.85663E+006   -1.37066E+006    3.64951E+006    3.39530E+005    3.76805E+006    4.39797E+003   -2.50204E+005   -1.24435E+004   -3.68831E+005
            6156    3.25501E+006    3.24114E+006    3.24114E+006    1.60522E+004   -4.29959E+004    3.28414E+006   -1.07140E+006    3.25381E+006   -3.12027E+004    3.19603E+006    4.93724E+004   -1.85951E+005    1.09440E+004   -3.31439E+005
            6157    2.86990E+006    2.78347E+006    2.78347E+006    1.44003E+005   -2.71557E+005    3.05503E+006   -8.85306E+005    2.80101E+006   -2.67561E+005    2.77365E+006    1.49830E+005   -7.15968E+004    3.43829E+004   -1.45625E+005
            6158    4.55132E+006    4.94296E+006    4.94296E+006    7.28545E+005    1.16658E+005    4.82631E+006   -1.92939E+006    4.45737E+006    7.37197E+005    4.81014E+006    2.40832E+005   -2.04103E+005    6.72552E+003   -7.59930E+005
            6159    4.07462E+006    4.67203E+006    4.67203E+006    6.74010E+005    5.24891E+005    4.14714E+006   -1.95698E+006    4.06848E+006    6.27816E+005    4.64766E+006    5.95459E+005   -7.67408E+004    7.55527E+004   -3.04160E+005
            6160    1.15953E+007    1.56906E+007    1.56906E+007    6.01853E+006    2.83658E+006    1.28540E+007   -8.18190E+006    1.05439E+007    6.02466E+006    1.51421E+007    3.37891E+006    4.66573E+005    1.13424E+005   -2.54997E+006
            6161    1.07914E+007    1.54018E+007    1.54018E+007    6.06270E+006    3.58815E+006    1.18137E+007   -8.35090E+006    1.01230E+007    6.07118E+006    1.51938E+007    3.78770E+006    4.25003E+005    9.95287E+004   -1.48475E+006
            6162    1.09224E+007    1.53813E+007    1.53813E+007    5.71394E+006    3.53295E+006    1.18484E+007   -8.20939E+006    1.04155E+007    5.72581E+006    1.53153E+007    3.58705E+006    3.79014E+005    5.15363E+004   -7.78352E+005
            6163    1.10159E+007    1.52859E+007    1.52859E+007    5.54873E+006    3.32933E+006    1.19566E+007   -8.05466E+006    1.04950E+007    5.55047E+006    1.52718E+007    3.34172E+006    1.43060E+005    2.29115E+004   -3.79406E+005
            6164    1.11741E+007    1.53454E+007    1.53454E+007    5.44507E+006    3.22946E+006    1.21159E+007   -8.00664E+006    1.06630E+007    5.44673E+006    1.53427E+007    3.23045E+006    1.32387E+005    1.43646E+004   -1.03196E+005
            6165    1.07743E+007    1.72389E+007    1.72389E+007    7.52884E+006    5.64811E+006    1.15908E+007   -1.01386E+007    1.03953E+007    7.53687E+006    1.68048E+007    6.07418E+006    4.64555E+005    6.48934E+004   -2.14742E+006
            6166    1.11215E+007    1.71772E+007    1.71772E+007    7.26399E+006    5.15062E+006    1.20266E+007   -9.86394E+006    1.06556E+007    7.27560E+006    1.70517E+007    5.26446E+006    4.16625E+005    6.58712E+004   -1.13663E+006
            6167    1.20020E+007    1.74585E+007    1.74585E+007    6.79901E+006    4.45866E+006    1.29998E+007   -9.57205E+006    1.14717E+007    6.81263E+006    1.74176E+007    4.48591E+006    4.01044E+005    3.79137E+004   -5.79585E+005
            6168    1.24658E+007    1.74495E+007    1.74495E+007    6.52662E+006    3.86929E+006    1.35802E+007   -9.28179E+006    1.18030E+007    6.52799E+006    1.74428E+007    3.87456E+006    1.30271E+005    1.87912E+004   -2.63056E+005
            6169    1.27614E+007    1.75251E+007    1.75251E+007    6.38914E+006    3.59974E+006    1.39254E+007   -9.17133E+006    1.20465E+007    6.39078E+006    1.75229E+007    3.60026E+006    1.39515E+005    1.63896E+004   -7.63321E+004
            6170    9.70354E+006    1.78707E+007    1.78707E+007    8.50428E+006    7.86187E+006    1.00088E+007   -1.14123E+007    9.65552E+006    8.52099E+006    1.77750E+007    7.94079E+006    4.58747E+005    1.97924E+004   -8.53095E+005
            6171    1.12312E+007    1.81814E+007    1.81814E+007    7.97472E+006    6.14926E+006    1.20321E+007   -1.07684E+007    1.08899E+007    7.99029E+006    1.81498E+007    6.16522E+006    4.08476E+005    2.16588E+004   -4.27777E+005
            6172    1.26225E+007    1.86554E+007    1.86554E+007    7.42281E+006    4.99552E+006    1.36599E+007   -1.03579E+007    1.20806E+007    7.43742E+006    1.86373E+007    4.99901E+006    4.07651E+005    1.47768E+004   -2.12376E+005
            6173    1.33139E+007    1.87200E+007    1.87200E+007    7.10110E+006    4.19218E+006    1.45278E+007   -1.00044E+007    1.25687E+007    7.10227E+006    1.87180E+007    4.19298E+006    1.17937E+005    7.28866E+003   -1.06227E+005
            6174    1.37090E+007    1.88270E+007    1.88270E+007    6.95378E+006    3.82356E+006    1.50034E+007   -9.86811E+006    1.28676E+007    6.95547E+006    1.88252E+007    3.82363E+006    1.42493E+005    7.12765E+003   -2.70467E+004
            6175    3.66608E+006    3.25602E+006    3.25602E+006    5.79946E+005   -9.22643E+005    4.17866E+006   -9.71107E+005    2.83766E+006    5.79879E+005    2.76806E+006   -4.34618E+005    1.15720E+005   -1.76135E+005   -1.32535E+006
            6176    3.30163E+006    3.41508E+006    3.41508E+006    7.51500E+005   -2.78859E+005    3.69394E+006   -1.29591E+006    2.90545E+006    7.50797E+005    3.28843E+006   -1.51506E+005    1.36562E+005   -1.27507E+005   -6.46163E+005
            6177    3.72877E+006    4.11378E+006    4.11378E+006    9.99015E+005   -1.79843E+004    4.13176E+006   -1.69827E+006    3.39510E+006    1.00602E+006    4.09742E+006   -8.63358E+003    1.55048E+005   -3.70576E+004   -1.86650E+005
            6178    2.65466E+006    2.59096E+006    2.59096E+006    5.63866E+005   -4.13922E+005    3.00488E+006   -9.13634E+005    2.19076E+006    5.60918E+005    2.04269E+006    1.37296E+005    6.70458E+004   -1.41120E+005   -1.15054E+006
            6179    2.68743E+006    2.93803E+006    2.93803E+006    7.36315E+005   -5.66518E+004    2.99469E+006   -1.20590E+006    2.40229E+006    7.31391E+005    2.81924E+006    6.70719E+004    8.54185E+004   -1.06849E+005   -5.71171E+005
            6180    3.22390E+006    3.60884E+006    3.60884E+006    9.33004E+005    2.96102E+004    3.57923E+006   -1.52382E+006    2.91811E+006    9.36017E+005    3.59541E+006    4.00198E+004    9.77100E+004   -2.96321E+004   -1.86402E+005
            6181    1.54659E+006    1.82390E+006    1.82390E+006    5.18986E+005    1.15591E+005    1.70831E+006   -8.19492E+005    1.42081E+006    5.02935E+005    1.51966E+006    4.35881E+005    3.04002E+004   -1.11513E+005   -6.44320E+005
            6182    2.17513E+006    2.50492E+006    2.50492E+006    6.85651E+005    9.56616E+004    2.40926E+006   -1.09541E+006    1.98278E+006    6.74923E+005    2.46256E+006    1.48751E+005    4.04991E+004   -9.00585E+004   -3.10281E+005
            6183    2.82286E+006    3.18718E+006    3.18718E+006    8.48071E+005    5.16746E+004    3.13550E+006   -1.36231E+006    2.55115E+006    8.48233E+005    3.18325E+006    5.54386E+004    4.39193E+004   -2.48433E+004   -9.80848E+004
            6184    8.47670E+005    1.31354E+006    1.31354E+006    5.87831E+005    3.81868E+005    9.31673E+005   -7.61080E+005    7.88369E+005    4.61904E+005    1.31240E+006    5.08934E+005   -3.11091E+003   -1.00565E+005    2.95377E+004
            6185    1.99393E+006    2.36105E+006    2.36105E+006    6.73781E+005    1.60721E+005    2.20033E+006   -1.06518E+006    1.83641E+006    6.59519E+005    2.36015E+006    1.75885E+005   -6.17248E+003   -8.45906E+004    4.34508E+004
            6186    2.70502E+006    3.05287E+006    3.05287E+006    8.14243E+005    4.71455E+004    3.00573E+006   -1.30475E+006    2.44174E+006    8.13538E+005    3.05281E+006    4.79074E+004   -6.47715E+003   -2.35845E+004    1.06181E+004
            6187    1.67794E+006    1.92425E+006    1.92425E+006    5.28784E+005    6.24740E+004    1.86178E+006   -8.38503E+005    1.52161E+006    5.15883E+005    1.57856E+006    4.21063E+005   -3.31812E+004   -1.13703E+005    7.15161E+005
            6188    2.26974E+006    2.58873E+006    2.58873E+006    6.97905E+005    7.15943E+004    2.51714E+006   -1.11941E+006    2.06148E+006    6.88243E+005    2.53296E+006    1.37028E+005   -4.89567E+004   -9.29770E+004    3.62840E+005
            6189    2.89845E+006    3.27471E+006    3.27471E+006    8.69687E+005    5.65261E+004    3.21818E+006   -1.40031E+006    2.62282E+006    8.70483E+005    3.26817E+006    6.22720E+004   -5.79226E+004   -2.52507E+004    1.27961E+005
            6190    2.73744E+006    2.67161E+006    2.67161E+006    5.81345E+005   -4.26972E+005    3.09858E+006   -9.41995E+005    2.25902E+006    5.79197E+005    2.13029E+006    1.16500E+005   -7.48620E+004   -1.44316E+005    1.16571E+006
            6191    2.84067E+006    3.07498E+006    3.07498E+006    7.55102E+005   -9.32069E+004    3.16819E+006   -1.24562E+006    2.53127E+006    7.52031E+005    2.94222E+006    4.26255E+004   -9.89601E+004   -1.09873E+005    6.19121E+005
            6192    3.37224E+006    3.74932E+006    3.74932E+006    9.51797E+005    4.83561E+003    3.74448E+006   -1.56865E+006    3.05091E+006    9.55840E+005    3.73482E+006    1.52914E+004   -1.13457E+005   -3.12926E+004    1.90900E+005
            6193    1.11655E+007    1.53312E+007    1.53312E+007    5.43808E+006    3.22478E+006    1.21064E+007   -7.99801E+006    1.06550E+007    5.43973E+006    1.53285E+007    3.22574E+006    1.32212E+005   -1.46239E+004    1.01272E+005
            6194    1.10185E+007    1.52873E+007    1.52873E+007    5.54850E+006    3.32734E+006    1.19599E+007   -8.05437E+006    1.04970E+007    5.55027E+006    1.52730E+007    3.33980E+006    1.44263E+005   -2.28724E+004    3.80494E+005
            6195    1.09290E+007    1.53939E+007    1.53939E+007    5.72221E+006    3.53752E+006    1.18563E+007   -8.21786E+006    1.04206E+007    5.73412E+006    1.53270E+007    3.59249E+006    3.80387E+005   -5.21522E+004    7.84686E+005
            6196    1.07933E+007    1.54137E+007    1.54137E+007    6.07263E+006    3.59785E+006    1.18158E+007   -8.36138E+006    1.01250E+007    6.08110E+006    1.52021E+007    3.80093E+006    4.25627E+005   -9.94025E+004    1.49818E+006
            6197    1.15944E+007    1.57021E+007    1.57021E+007    6.02753E+006    2.85031E+006    1.28518E+007   -8.19330E+006    1.05463E+007    6.03367E+006    1.51528E+007    3.39339E+006    4.66510E+005   -1.13013E+005    2.55153E+006
            6198    1.27619E+007    1.75237E+007    1.75237E+007    6.38761E+006    3.59763E+006    1.39260E+007   -9.16964E+006    1.20467E+007    6.38925E+006    1.75215E+007    3.59817E+006    1.39272E+005   -1.63466E+004    7.77789E+004
            6199    1.24669E+007    1.74480E+007    1.74480E+007    6.52436E+006    3.86640E+006    1.35816E+007   -9.27957E+006    1.18039E+007    6.52569E+006    1.74414E+007    3.87162E+006    1.28696E+005   -1.86674E+004    2.62060E+005
            6200    1.20010E+007    1.74537E+007    1.74537E+007    6.79652E+006    4.45409E+006    1.29996E+007   -9.56809E+006    1.14697E+007    6.81001E+006    1.74128E+007    4.48144E+006    3.99236E+005   -3.79838E+004    5.80649E+005
            6201    1.11127E+007    1.71852E+007    1.71852E+007    7.27498E+006    5.17089E+006    1.20143E+007   -9.87703E+006    1.06506E+007    7.28658E+006    1.70576E+007    5.28695E+006    4.17330E+005   -6.58364E+004    1.14708E+006
            6202    1.07731E+007    1.72419E+007    1.72419E+007    7.53183E+006    5.65297E+006    1.15889E+007   -1.01422E+007    1.03948E+007    7.53980E+006    1.68028E+007    6.08412E+006    4.65113E+005   -6.47932E+004    2.15963E+006
            6203    1.37043E+007    1.88230E+007    1.88230E+007    6.95283E+006    3.82531E+006    1.49977E+007   -9.86706E+006    1.28641E+007    6.95452E+006    1.88213E+007    3.82537E+006    1.42504E+005   -7.26672E+003    2.61679E+004
            6204    1.33185E+007    1.87200E+007    1.87200E+007    7.09867E+006    4.18635E+006    1.45336E+007   -1.00017E+007    1.25717E+007    7.09983E+006    1.87180E+007    4.18713E+006    1.17443E+005   -7.32743E+003    1.05252E+005
            6205    1.26220E+007    1.86574E+007    1.86574E+007    7.42467E+006    4.99841E+006    1.36590E+007   -1.03602E+007    1.20805E+007    7.43926E+006    1.86395E+007    5.00180E+006    4.07315E+005   -1.45711E+004    2.09179E+005
            6206    1.12167E+007    1.81702E+007    1.81702E+007    7.97359E+006    6.15556E+006    1.20147E+007   -1.07665E+007    1.08778E+007    7.98916E+006    1.81393E+007    6.17097E+006    4.08158E+005   -2.16388E+004    4.19674E+005
            6207    9.69948E+006    1.78530E+007    1.78530E+007    8.49322E+006    7.84625E+006    1.00068E+007   -1.13975E+007    9.65076E+006    8.50996E+006    1.77569E+007    7.92562E+006    4.58733E+005   -1.98122E+004    8.55667E+005
            6208    6.94192E+006    6.07239E+006    6.07239E+006    1.07984E+006   -1.85491E+006    7.92730E+006   -1.76577E+006    5.24624E+006    1.08196E+006    6.04949E+006   -1.83413E+006    2.82441E+005   -2.14425E+005   -2.21590E+005
            6209    8.37327E+006    7.55364E+006    7.55364E+006    1.53867E+006   -2.00951E+006    9.56315E+006   -2.36093E+006    6.31570E+006    1.54239E+006    7.52854E+006   -1.98812E+006    3.30723E+005   -2.12040E+005    2.68376E+005
            6210    9.64773E+006    9.23898E+006    9.23898E+006    2.20172E+006   -1.75872E+006    1.09977E+007   -3.22733E+006    7.45913E+006    2.20674E+006    9.16672E+006   -1.69148E+006    3.77120E+005   -2.06087E+005    7.64973E+005
            6211    1.08175E+007    1.12970E+007    1.12970E+007    3.17690E+006   -9.82961E+005    1.22799E+007   -4.49697E+006    8.72446E+006    3.18222E+006    1.10964E+007   -7.87716E+005    4.19448E+005   -1.89338E+005    1.47980E+006
            6212    1.15807E+007    1.35760E+007    1.35760E+007    4.48998E+006    5.36115E+005    1.30399E+007   -6.20069E+006    9.88140E+006    4.49561E+006    1.31821E+007    9.24341E+005    4.51647E+005   -1.57767E+005    2.17525E+006
            6213    1.01144E+007    1.32067E+007    1.32067E+007    4.71315E+006    2.01759E+006    1.11891E+007   -6.64582E+006    9.25317E+006    4.72021E+006    1.29810E+007    2.23627E+006    4.21266E+005   -1.22386E+005    1.50498E+006
            6214    9.61679E+006    1.29834E+007    1.29834E+007    4.50070E+006    2.53597E+006    1.04474E+007   -6.67335E+006    9.14874E+006    4.51186E+006    1.28967E+007    2.61154E+006    3.60264E+005   -5.51926E+004    8.62955E+005
            6215    9.34105E+006    1.27965E+007    1.27965E+007    4.42570E+006    2.72024E+006    1.00763E+007   -6.64749E+006    8.98071E+006    4.42852E+006    1.27736E+007    2.74031E+006    1.63732E+005   -1.70662E+004    4.45234E+005
            6216    9.34263E+006    1.28017E+007    1.28017E+007    4.34015E+006    2.77556E+006    1.00261E+007   -6.63914E+006    9.04081E+006    4.34186E+006    1.27982E+007    2.77735E+006    1.20598E+005   -1.24436E+003    1.33882E+005
            6217    9.21014E+006    1.09855E+007    1.09855E+007    3.45409E+006    7.17085E+005    1.02684E+007   -5.05222E+006    8.21766E+006    3.46085E+006    1.07970E+007    8.98848E+005    4.03186E+005   -1.35375E+005    1.30466E+006
            6218    8.27578E+006    1.06353E+007    1.06353E+007    3.35153E+006    1.63631E+006    8.99899E+006   -5.20771E+006    7.86079E+006    3.36267E+006    1.05366E+007    1.72389E+006    3.38853E+005   -5.08710E+004    8.62045E+005
            6219    7.80229E+006    1.04484E+007    1.04484E+007    3.34744E+006    2.09608E+006    8.35234E+006   -5.29732E+006    7.57158E+006    3.35177E+006    1.04139E+007    2.12630E+006    1.79140E+005   -3.65909E+003    4.99904E+005
            6220    7.63736E+006    1.03959E+007    1.03959E+007    3.29278E+006    2.31785E+006    8.07801E+006   -5.33550E+006    7.49544E+006    3.29394E+006    1.03918E+007    2.32072E+006    1.06376E+005    2.27052E+004    1.39719E+005
            6221    8.16301E+006    8.94130E+006    8.94130E+006    2.40285E+006   -2.07657E+005    9.14895E+006   -3.71216E+006    7.12893E+006    2.40938E+006    8.79740E+006   -7.02934E+004    3.71967E+005   -1.38428E+005    1.05929E+006
            6222    7.14256E+006    8.64855E+006    8.64855E+006    2.38752E+006    8.68766E+005    7.77978E+006   -3.96828E+006    6.76480E+006    2.39864E+006    8.53963E+006    9.66567E+005    3.13797E+005   -4.33865E+004    8.48167E+005
            6223    6.49026E+006    8.42599E+006    8.42599E+006    2.41466E+006    1.54458E+006    6.88141E+006   -4.12841E+006    6.35706E+006    2.42031E+006    8.37808E+006    1.58684E+006    1.83598E+005    1.45301E+004    5.37388E+005
            6224    6.27212E+006    8.36572E+006    8.36572E+006    2.38837E+006    1.83543E+006    6.53029E+006   -4.19651E+006    6.21693E+006    2.38575E+006    8.35886E+006    1.84491E+006    9.15552E+004    4.99170E+004    1.87812E+005
            6225    7.12038E+006    7.25764E+006    7.25764E+006    1.61863E+006   -7.43664E+005    8.00130E+006   -2.71087E+006    6.14113E+006    1.62401E+006    7.16657E+006   -6.57983E+005    3.32182E+005   -1.40294E+005    7.60316E+005
            6226    6.02960E+006    6.93467E+006    6.93467E+006    1.61546E+006    3.84619E+005    6.55005E+006   -2.97825E+006    5.73664E+006    1.62593E+006    6.82000E+006    4.88805E+005    2.81119E+005   -3.33371E+004    8.03707E+005
            6227    5.51289E+006    6.83008E+006    6.83008E+006    1.65362E+006    1.03325E+006    5.79683E+006   -3.17232E+006    5.43352E+006    1.65952E+006    6.75778E+006    1.09966E+006    1.76561E+005    3.27491E+004    6.15148E+005
            6228    5.24593E+006    6.72563E+006    6.72563E+006    1.63934E+006    1.33345E+006    5.39218E+006   -3.23281E+006    5.22581E+006    1.62304E+006    6.71730E+006    1.35808E+006    7.72604E+004    7.39981E+004    1.94900E+005
            6229    5.70553E+006    5.62724E+006    5.62724E+006    1.02615E+006   -7.56883E+005    6.38412E+006   -1.96550E+006    5.01879E+006    1.02928E+006    5.56595E+006   -6.98738E+005    2.83443E+005   -1.27990E+005    5.34174E+005
            6230    5.17043E+006    5.67712E+006    5.67712E+006    1.06095E+006    9.00656E+004    5.58705E+006   -2.27604E+006    4.95909E+006    1.07024E+006    5.52901E+006    2.28878E+005    2.48743E+005   -1.96455E+004    8.57634E+005
            6231    4.73964E+006    5.51629E+006    5.51629E+006    1.01099E+006    5.72743E+005    4.94355E+006   -2.36668E+006    4.69373E+006    1.01595E+006    5.42689E+006    6.57190E+005    1.63134E+005    4.53388E+004    6.35247E+005
            6232    4.47524E+006    5.37872E+006    5.37872E+006    1.00693E+006    8.06742E+005    4.57197E+006   -2.39746E+006    4.46515E+006    9.64047E+005    5.36532E+006    8.63026E+005    6.53033E+004    8.64210E+004    2.35628E+005
            6233    3.75906E+006    4.11995E+006    4.11995E+006    4.42196E+005    2.84554E+005    3.83540E+006   -1.61557E+006    3.75161E+006    3.37395E+005    4.10767E+006    4.01634E+005    5.53139E+004    7.72601E+004    2.05334E+005
            6234    2.76267E+006    2.59069E+006    2.59069E+006    9.32679E+004   -3.76890E+005    2.96758E+006   -7.69023E+005    2.67043E+006   -3.73778E+005    2.58622E+006    9.46308E+004    5.73571E+004    3.23946E+004    9.10186E+004
            6235    4.00597E+006    4.33608E+006    4.33608E+006    4.38833E+005    2.29596E+005    4.10649E+006   -1.66817E+006    3.99365E+006    4.42251E+005    4.24952E+006    3.12745E+005    1.52083E+005    4.62910E+004    5.67705E+005
            6236    3.01268E+006    2.93495E+006    2.93495E+006    5.56447E+004   -1.95404E+005    3.13035E+006   -9.31729E+005    2.98901E+006   -1.86796E+005    2.90446E+006    7.75247E+004    1.60325E+005    2.19164E+004    2.51036E+005
            6237    4.37504E+006    4.59893E+006    4.59893E+006    5.84072E+005   -6.40042E+004    4.66293E+006   -1.70633E+006    4.26504E+006    5.93195E+005    4.46007E+006    6.57261E+004    2.24602E+005   -7.05325E+003    7.56941E+005
            6238    3.42822E+006    3.47469E+006    3.47469E+006    1.14653E+005   -1.78723E+004    3.49256E+006   -1.19049E+006    3.42245E+006    1.25353E+005    3.42554E+006    2.05780E+004    2.29695E+005   -2.40579E+003    3.39816E+005
            6239    4.59674E+006    4.61337E+006    4.61337E+006    6.91405E+005   -4.44986E+005    5.05835E+006   -1.61993E+006    4.26317E+006    6.94292E+005    4.53392E+006   -3.68425E+005    2.47720E+005   -8.56623E+004    5.69033E+005
            6240    3.83598E+006    3.99297E+006    3.99297E+006    4.54190E+005   -8.34776E+004    4.07645E+006   -1.45456E+006    3.74980E+006    4.68649E+005    3.95084E+006   -5.58081E+004    2.55977E+005   -2.52360E+004    3.10523E+005
            6241    4.08124E+006    4.32817E+006    4.32817E+006    7.40733E+005   -1.12105E+005    4.44027E+006   -1.65227E+006    3.87307E+006    7.55093E+005    4.30427E+006   -1.02564E+005    2.48968E+005   -3.87372E+004    1.73094E+005
            6242    4.08081E+006    4.40517E+006    4.40517E+006    9.40168E+005   -9.28816E+004    4.49806E+006   -1.75082E+006    3.76940E+006    9.51513E+005    4.39187E+006   -9.09266E+004    2.11007E+005   -4.25024E+004   -4.02218E+004
            6243    4.44284E+006    4.33001E+006    4.33001E+006    7.25663E+005   -6.33703E+005    4.96371E+006   -1.47399E+006    3.93246E+006    7.24687E+005    4.31259E+006   -6.15309E+005    2.32085E+005   -1.38929E+005    1.19552E+005
            6244    3.92732E+006    3.86585E+006    3.86585E+006    7.24055E+005   -5.37134E+005    4.40298E+006   -1.35092E+006    3.42518E+006    7.23413E+005    3.81559E+006   -4.86236E+005    1.84328E+005   -1.45406E+005   -4.05474E+005
            6245    4.67303E+006    3.90738E+006    3.90738E+006    5.78838E+005   -1.43491E+006    5.34229E+006   -1.01710E+006    3.47412E+006    5.79745E+005    3.60398E+006   -1.13241E+006    1.66129E+005   -2.00594E+005   -1.20806E+006
            6246    5.80402E+006    4.82285E+006    4.82285E+006    6.98179E+005   -1.81409E+006    6.63694E+006   -1.23564E+006    4.29768E+006    6.99471E+005    4.72912E+006   -1.72165E+006    2.28363E+005   -2.12797E+005   -7.16062E+005
            6247    7.76636E+006    7.57872E+006    7.57872E+006    1.71457E+006   -1.22916E+006    8.80788E+006   -2.68805E+006    6.31443E+006    1.71667E+006    7.52617E+006   -1.17871E+006   -2.28305E+005    1.18092E+005    6.22885E+005
            6248    9.03351E+006    9.30445E+006    9.30445E+006    2.44860E+006   -9.31732E+005    1.02362E+007   -3.60711E+006    7.39519E+006    2.45080E+006    9.17005E+006   -7.99531E+005   -2.53409E+005    1.16497E+005    1.12816E+006
            6249    1.01937E+007    1.13188E+007    1.13188E+007    3.43074E+006   -1.91362E+005    1.15101E+007   -4.85272E+006    8.55491E+006    3.43285E+006    1.11019E+007    2.33880E+004   -2.75728E+005    1.15144E+005    1.53380E+006
            6250    1.10348E+007    1.35489E+007    1.35489E+007    4.70793E+006    1.18200E+006    1.23669E+007   -6.47960E+006    9.63955E+006    4.70990E+006    1.31993E+007    1.52961E+006   -2.91661E+005    1.02103E+005    2.02468E+006
            6251    9.51140E+006    1.30911E+007    1.30911E+007    4.79740E+006    2.70903E+006    1.03820E+007   -6.86583E+006    8.97354E+006    4.80078E+006    1.30128E+007    2.78393E+006   -1.98547E+005    3.35986E+004    8.71303E+005
            6252    9.24497E+006    1.28405E+007    1.28405E+007    4.60681E+006    2.83939E+006    1.00011E+007   -6.76223E+006    8.85282E+006    4.60736E+006    1.28345E+007    2.84484E+006   -7.34636E+004    1.16366E+004    2.31201E+005
            6253    8.16045E+006    1.07370E+007    1.07370E+007    3.62215E+006    1.82908E+006    8.90788E+006   -5.39606E+006    7.69828E+006    3.62554E+006    1.06332E+007    1.92946E+006   -1.94308E+005    3.43889E+004    9.32190E+005
            6254    7.57453E+006    1.03795E+007    1.03795E+007    3.48418E+006    2.27191E+006    8.10755E+006   -5.37852E+006    7.35151E+006    3.48498E+006    1.03677E+007    2.28289E+006   -7.41259E+004   -1.93908E+003    2.98195E+005
            6255    7.05798E+006    8.69381E+006    8.69381E+006    2.56393E+006    9.77687E+005    7.71613E+006   -4.07848E+006    6.63892E+006    2.56778E+006    8.58374E+006    1.08391E+006   -1.86424E+005    2.80623E+004    8.92197E+005
            6256    6.03625E+006    8.10767E+006    8.10767E+006    2.44892E+006    1.75407E+006    6.35360E+006   -4.10355E+006    5.94527E+006    2.44939E+006    8.09746E+006    1.76381E+006   -7.01308E+004   -1.95884E+004    2.43205E+005
            6257    5.66561E+006    6.56287E+006    6.56287E+006    1.56906E+006    4.05970E+005    6.15690E+006   -2.84597E+006    5.38709E+006    1.57284E+006    6.45666E+006    5.08398E+005   -1.67229E+005    2.12150E+004    7.81164E+005
            6258    4.91571E+006    6.26759E+006    6.26759E+006    1.54889E+006    1.17608E+006    5.09150E+006   -2.99752E+006    4.88375E+006    1.54678E+006    6.24298E+006    1.20281E+006   -6.28733E+004   -3.77984E+004    3.46472E+005
            6259    4.03537E+006    4.67944E+006    4.67944E+006    7.23757E+005    5.68856E+005    4.11059E+006   -1.99069E+006    4.02867E+006    7.14131E+005    4.65407E+006    6.03854E+005   -5.44587E+004   -4.32225E+004    3.16187E+005
            6260    2.81486E+006    2.75907E+006    2.75907E+006    1.45446E+005   -2.21101E+005    2.98017E+006   -8.94472E+005    2.76040E+006   -2.19404E+005    2.74960E+006    1.53218E+005   -5.04167E+004   -2.01084E+004    1.49493E+005
            6261    4.53799E+006    4.95366E+006    4.95366E+006    8.01639E+005    1.09274E+005    4.84438E+006   -1.95486E+006    4.41681E+006    8.05429E+005    4.81660E+006    2.42540E+005   -1.41977E+005    1.74656E+003    7.89232E+005
            6262    3.21431E+006    3.22177E+006    3.22177E+006    1.74117E+004   -2.41584E+003    3.22418E+006   -1.07892E+006    3.21418E+006    1.19795E+004    3.17917E+006    4.56162E+004   -1.34068E+005   -4.56850E+003    3.42617E+005
            6263    3.66930E+006    3.80817E+006    3.80817E+006    3.71246E+005   -5.60904E+004    3.86426E+006   -1.37444E+006    3.61268E+006    3.78293E+005    3.76016E+006   -1.51230E+004   -1.80817E+005    1.29386E+004    3.84251E+005
            6264    4.13840E+006    4.33996E+006    4.33996E+006    7.12933E+005   -1.67969E+005    4.50793E+006   -1.62831E+006    3.91904E+006    7.20839E+005    4.31359E+006   -1.49509E+005   -1.90063E+005    2.89337E+004    2.72734E+005
            6265    4.25696E+006    4.54885E+006    4.54885E+006    9.68176E+005   -1.57950E+005    4.70680E+006   -1.78636E+006    3.90017E+006    9.74766E+005    4.54116E+006   -1.56849E+005   -1.65371E+005    3.51470E+004   -1.20954E+004
            6266    3.87920E+006    4.27983E+006    4.27983E+006    1.06199E+006   -2.76600E+004    4.30749E+006   -1.77139E+006    3.50933E+006    1.06631E+006    4.26672E+006   -1.88678E+004   -1.24985E+005    3.17997E+004   -1.87141E+005
            6267    4.83373E+006    4.93303E+006    4.93303E+006    8.24494E+005   -3.93072E+005    5.32610E+006   -1.78815E+006    4.46875E+006    8.26412E+005    4.80447E+006   -2.66438E+005   -1.80631E+005    5.25312E+004    7.94155E+005
            6268    4.64193E+006    4.46837E+006    4.46837E+006    7.17212E+005   -7.22939E+005    5.19131E+006   -1.48755E+006    4.09210E+006    7.18445E+005    4.45039E+006   -7.06186E+005   -1.68207E+005    8.48963E+004    2.36197E+005
            6269    3.96932E+006    3.94333E+006    3.94333E+006    7.41757E+005   -4.97861E+005    4.44120E+006   -1.39574E+006    3.49226E+006    7.43754E+005    3.90866E+006   -4.65188E+005   -1.37280E+005    8.54711E+004   -3.52440E+005
            6270    3.41715E+006    3.56045E+006    3.56045E+006    7.93554E+005   -2.59206E+005    3.81966E+006   -1.36493E+006    3.01860E+006    7.95562E+005    3.44868E+006   -1.49442E+005   -1.05503E+005    7.38490E+004   -6.29252E+005
            6271    3.70934E+006    3.31049E+006    3.31049E+006    5.96221E+005   -9.16091E+005    4.22658E+006   -9.96874E+005    2.88204E+006    5.95378E+005    2.83919E+006   -4.43948E+005   -9.00971E+004    1.43065E+005   -1.31991E+006
            6272    4.67841E+006    3.93760E+006    3.93760E+006    5.92594E+005   -1.40855E+006    5.34616E+006   -1.04055E+006    3.50088E+006    5.91936E+005    3.68461E+006   -1.15490E+006   -1.27303E+005    1.58653E+005   -1.11727E+006
            6273    5.66485E+006    4.67684E+006    4.67684E+006    6.48945E+005   -1.80058E+006    6.47742E+006   -1.17507E+006    4.19854E+006    6.48554E+005    4.59659E+006   -1.71993E+006   -1.60094E+005    1.58436E+005   -6.80902E+005
            6274    6.58932E+006    5.90934E+006    5.90934E+006    1.05187E+006   -1.59118E+006    7.50051E+006   -1.79001E+006    5.17752E+006    1.05245E+006    5.90095E+006   -1.58337E+006   -1.99154E+005    1.39657E+005    4.62615E+004
            6275    1.10729E+007    1.54096E+007    1.54096E+007    5.73942E+006    3.33048E+006    1.20791E+007   -8.15983E+006    1.04587E+007    5.73976E+006    1.54060E+007    3.33367E+006   -6.90143E+004    1.77932E+004    1.91829E+005
            6276    1.08335E+007    1.54653E+007    1.54653E+007    5.99512E+006    3.65195E+006    1.18133E+007   -8.37078E+006    1.02398E+007    5.99847E+006    1.54126E+007    3.70129E+006   -1.99762E+005    2.98267E+004    7.55740E+005
            6277    1.12934E+007    1.56752E+007    1.56752E+007    6.17260E+006    3.18969E+006    1.24855E+007   -8.34581E+006    1.03500E+007    6.17459E+006    1.52523E+007    3.61055E+006   -2.98464E+005    8.25664E+004    2.23599E+006
            6278    1.26435E+007    1.75880E+007    1.75880E+007    6.69027E+006    3.72566E+006    1.38624E+007   -9.33465E+006    1.18229E+007    6.69053E+006    1.75865E+007    3.72691E+006   -6.19839E+004    1.57158E+004    1.26714E+005
            6279    1.19607E+007    1.74967E+007    1.74967E+007    7.01827E+006    4.46582E+006    1.30309E+007   -9.66027E+006    1.13234E+007    7.02180E+006    1.74723E+007    4.48673E+006   -2.00507E+005    1.85334E+004    5.17967E+005
            6280    1.08430E+007    1.72724E+007    1.72724E+007    7.57889E+006    5.56293E+006    1.17095E+007   -1.01381E+007    1.04087E+007    7.58231E+006    1.69634E+007    5.86854E+006   -2.96180E+005    5.25363E+004    1.85115E+006
            6281    1.35655E+007    1.88652E+007    1.88652E+007    7.24711E+006    3.95733E+006    1.49079E+007   -1.00232E+007    1.26204E+007    7.24737E+006    1.88648E+007    3.95751E+006   -5.58132E+004    5.97208E+003    4.96781E+004
            6282    1.26193E+007    1.86699E+007    1.86699E+007    7.60285E+006    4.92742E+006    1.37425E+007   -1.04001E+007    1.19559E+007    7.60647E+006    1.86639E+007    4.92981E+006   -2.01073E+005    6.67574E+003    1.80043E+005
            6283    1.01658E+007    1.80435E+007    1.80435E+007    8.48534E+006    7.36320E+006    1.06803E+007   -1.12973E+007    1.00250E+007    8.49276E+006    1.79829E+007    7.41634E+006   -2.91741E+005    1.89487E+004    7.41400E+005
            6284    3.77164E+006    4.14337E+006    4.14337E+006    1.03375E+006   -5.20684E+004    4.19544E+006   -1.70835E+006    3.39234E+006    1.03742E+006    4.13103E+006   -4.33942E+004    1.14609E+005    3.17297E+004    1.83133E+005
            6285    3.31112E+006    3.44875E+006    3.44875E+006    7.76490E+005   -2.55463E+005    3.70421E+006   -1.32326E+006    2.91497E+006    7.77897E+005    3.32526E+006   -1.33385E+005    9.52175E+004    7.25207E+004    6.53118E+005
            6286    3.66563E+006    3.25738E+006    3.25738E+006    5.83429E+005   -9.21132E+005    4.17852E+006   -9.73227E+005    2.83435E+006    5.82247E+005    2.77630E+006   -4.38864E+005    8.50573E+004    1.41696E+005    1.32389E+006
            6287    3.26564E+006    3.63577E+006    3.63577E+006    9.63142E+005   -4.27296E+003    3.64005E+006   -1.53155E+006    2.91614E+006    9.64625E+005    3.62410E+006    5.92038E+003    7.24435E+004    2.68887E+004    1.87015E+005
            6288    2.69380E+006    2.97119E+006    2.97119E+006    7.57205E+005   -2.79635E+004    2.99915E+006   -1.23348E+006    2.41552E+006    7.57122E+005    2.85236E+006    9.09488E+004    6.18347E+004    5.67890E+004    5.79029E+005
            6289    2.66628E+006    2.60076E+006    2.60076E+006    5.65178E+005   -4.17365E+005    3.01813E+006   -9.16191E+005    2.19982E+006    5.62635E+005    2.05463E+006    1.31310E+005    5.18999E+004    1.16332E+005    1.15539E+006
            6290    2.85589E+006    3.20642E+006    3.20642E+006    8.72992E+005    2.16761E+004    3.18474E+006   -1.36703E+006    2.54605E+006    8.72909E+005    3.20285E+006    2.53279E+004    3.29197E+004    2.30054E+004    9.90496E+004
            6291    2.18071E+006    2.53456E+006    2.53456E+006    6.99521E+005    1.23733E+005    2.41083E+006   -1.11927E+006    1.99868E+006    6.96909E+005    2.49250E+006    1.68400E+005    2.67941E+004    4.66904E+004    3.13220E+005
            6292    1.56185E+006    1.84217E+006    1.84217E+006    5.20714E+005    1.18572E+005    1.72360E+006   -8.27152E+005    1.43829E+006    5.08739E+005    1.53699E+006    4.35729E+005    2.17603E+004    9.30570E+004    6.51736E+005
            6293    2.73247E+006    3.06561E+006    3.06561E+006    8.36283E+005    1.73119E+004    3.04830E+006   -1.30640E+006    2.43247E+006    8.35713E+005    3.06557E+006    1.79186E+004   -4.22396E+003    2.17763E+004   -9.23121E+003
            6294    1.99793E+006    2.38720E+006    2.38720E+006    6.83112E+005    1.88385E+005    2.19882E+006   -1.08623E+006    1.85245E+006    6.79222E+005    2.38636E+006    1.93123E+005   -2.05648E+003    4.37726E+004   -4.29974E+004
            6295    8.47892E+005    1.32223E+006    1.32223E+006    5.75352E+005    4.00565E+005    9.21665E+005   -7.66049E+005    8.05850E+005    4.65700E+005    1.32177E+006    5.10680E+005   -9.95474E+002    8.45561E+004   -1.91763E+004
            6296    2.91893E+006    3.28047E+006    3.28047E+006    8.92307E+005    2.66146E+004    3.25386E+006   -1.39980E+006    2.60576E+006    8.92514E+005    3.27481E+006    3.20700E+004   -4.17459E+004    2.35493E+004   -1.26155E+005
            6297    2.27390E+006    2.61775E+006    2.61775E+006    7.13599E+005    1.00020E+005    2.51773E+006   -1.14379E+006    2.07505E+006    7.11615E+005    2.56231E+006    1.57435E+005   -3.59225E+004    4.81733E+004   -3.66035E+005
            6298    1.66288E+006    1.92109E+006    1.92109E+006    5.29110E+005    7.96784E+004    1.84141E+006   -8.43291E+005    1.51696E+006    5.19571E+005    1.58415E+006    4.26153E+005   -2.63602E+004    9.42269E+004   -7.05918E+005
            6299    3.39313E+006    3.75408E+006    3.75408E+006    9.78197E+005   -2.84800E+004    3.78256E+006   -1.56793E+006    3.02881E+006    9.80167E+005    3.74198E+006   -1.83531E+004   -8.24138E+004    2.78460E+004   -1.89949E+005
            6300    2.85123E+006    3.11181E+006    3.11181E+006    7.78925E+005   -6.65406E+004    3.17835E+006   -1.27473E+006    2.54544E+006    7.79215E+005    2.98243E+006    6.25464E+004   -6.79622E+004    5.93039E+004   -6.21386E+005
            6301    2.72897E+006    2.66878E+006    2.66878E+006    5.83222E+005   -4.19746E+005    3.08853E+006   -9.44086E+005    2.25450E+006    5.80762E+005    2.12789E+006    1.23607E+005   -5.48674E+004    1.18362E+005   -1.16709E+006
            6302    1.12964E+007    1.56815E+007    1.56815E+007    6.17606E+006    3.19295E+006    1.24886E+007   -8.35018E+006    1.03531E+007    6.17806E+006    1.52578E+007    3.61472E+006   -2.98629E+005   -8.24399E+004   -2.23867E+006
            6303    1.08419E+007    1.54807E+007    1.54807E+007    6.00222E+006    3.65868E+006    1.18220E+007   -8.38052E+006    1.02485E+007    6.00556E+006    1.54301E+007    3.70595E+006   -1.99312E+005   -2.95751E+004   -7.39918E+005
            6304    1.10979E+007    1.54447E+007    1.54447E+007    5.75474E+006    3.33736E+006    1.21074E+007   -8.17895E+006    1.04807E+007    5.75508E+006    1.54413E+007    3.34047E+006   -6.89347E+004   -1.78023E+004   -1.89535E+005
            6305    1.08296E+007    1.72789E+007    1.72789E+007    7.59002E+006    5.58807E+006    1.16908E+007   -1.01523E+007    1.04009E+007    7.59346E+006    1.69708E+007    5.89273E+006   -2.96244E+005   -5.21070E+004   -1.84681E+006
            6306    1.19753E+007    1.74956E+007    1.74956E+007    7.01024E+006    4.44586E+006    1.30498E+007   -9.65058E+006    1.13326E+007    7.01375E+006    1.74714E+007    4.46654E+006   -2.00216E+005   -1.86835E+004   -5.15547E+005
            6307    1.26531E+007    1.76019E+007    1.76019E+007    6.69643E+006    3.72868E+006    1.38732E+007   -9.34233E+006    1.18314E+007    6.69669E+006    1.76003E+007    3.72994E+006   -6.17506E+004   -1.56498E+004   -1.27441E+005
            6308    1.01550E+007    1.80443E+007    1.80443E+007    8.49120E+006    7.37904E+006    1.06653E+007   -1.13049E+007    1.00166E+007    8.49868E+006    1.79866E+007    7.42932E+006   -2.91719E+005   -1.84689E+004   -7.20677E+005
            6309    1.26266E+007    1.86645E+007    1.86645E+007    7.59526E+006    4.91188E+006    1.37526E+007   -1.03905E+007    1.19596E+007    7.59886E+006    1.86581E+007    4.91459E+006   -2.00968E+005   -7.12684E+003   -1.91718E+005
            6310    1.35630E+007    1.88635E+007    1.88635E+007    7.24697E+006    3.95881E+006    1.49047E+007   -1.00231E+007    1.26185E+007    7.24723E+006    1.88631E+007    3.95898E+006   -5.57487E+004   -6.04705E+003   -4.90880E+004
            6311    4.40797E+006    5.35085E+006    5.35085E+006    1.06178E+006    8.32906E+005    4.51795E+006   -2.41518E+006    4.39457E+006    1.05226E+006    5.33725E+006    8.56036E+005    3.72794E+004   -4.86358E+004   -2.43924E+005
            6312    5.15818E+006    6.68951E+006    6.68951E+006    1.74614E+006    1.34048E+006    5.34903E+006   -3.25871E+006    5.12210E+006    1.74280E+006    6.68002E+006    1.35332E+006    3.53744E+004   -3.96286E+004   -2.21775E+005
            6313    6.16941E+006    8.33592E+006    8.33592E+006    2.54492E+006    1.84740E+006    6.48853E+006   -4.24275E+006    6.07975E+006    2.54435E+006    8.32969E+006    1.85420E+006    2.97358E+004   -2.34842E+004   -1.98373E+005
            6314    7.55512E+006    1.04024E+007    1.04024E+007    3.49450E+006    2.33424E+006    8.06813E+006   -5.41037E+006    7.35066E+006    3.49451E+006    1.03994E+007    2.33723E+006    1.79264E+004   -6.29349E+003   -1.54363E+005
            6315    9.26259E+006    1.28178E+007    1.28178E+007    4.56358E+006    2.80025E+006    1.00175E+007   -6.72719E+006    8.87310E+006    4.56355E+006    1.28157E+007    2.80233E+006    1.39968E+002    7.26999E+003   -1.43332E+005
            6316    4.70288E+006    5.51376E+006    5.51376E+006    1.09239E+006    5.72569E+005    4.94119E+006   -2.39291E+006    4.63759E+006    1.09549E+006    5.42193E+006    6.61295E+005    1.18011E+005   -2.56284E+004   -6.55279E+005
            6317    5.47098E+006    6.83836E+006    6.83836E+006    1.76056E+006    1.04469E+006    5.79367E+006   -3.21454E+006    5.36409E+006    1.76395E+006    6.76503E+006    1.11463E+006    1.30280E+005   -1.72465E+004   -6.32468E+005
            6318    6.44313E+006    8.44230E+006    8.44230E+006    2.54286E+006    1.56685E+006    6.87545E+006   -4.18400E+006    6.27357E+006    2.54632E+006    8.39652E+006    1.60916E+006    1.44108E+005   -4.00036E+003   -5.37254E+005
            6319    7.78470E+006    1.05120E+007    1.05120E+007    3.50762E+006    2.13080E+006    8.38125E+006   -5.38349E+006    7.50340E+006    3.51094E+006    1.04786E+007    2.16091E+006    1.59248E+005    9.61669E+003   -4.99114E+005
            6320    9.33610E+006    1.28817E+007    1.28817E+007    4.60599E+006    2.76075E+006    1.01209E+007   -6.74948E+006    8.91187E+006    4.60918E+006    1.28586E+007    2.78066E+006    1.73309E+005    1.96604E+004   -4.43868E+005
            6321    5.17621E+006    5.69434E+006    5.69434E+006    1.14616E+006    6.18754E+004    5.63246E+006   -2.30079E+006    4.91085E+006    1.14954E+006    5.54083E+006    2.11998E+005    1.70324E+005    2.51619E+004   -8.99021E+005
            6322    6.01913E+006    6.95538E+006    6.95538E+006    1.73820E+006    3.69898E+005    6.58549E+006   -3.02116E+006    5.65310E+006    1.74164E+006    6.83768E+006    4.84165E+005    1.84489E+005    3.64325E+004   -8.49493E+005
            6323    7.12190E+006    8.69119E+006    8.69119E+006    2.56354E+006    8.77582E+005    7.81360E+006   -4.04410E+006    6.65030E+006    2.56689E+006    8.58181E+006    9.83615E+005    1.96411E+005    4.32926E+004   -8.92716E+005
            6324    8.21095E+006    1.06442E+007    1.06442E+007    3.55888E+006    1.64548E+006    8.99871E+006   -5.28285E+006    7.68495E+006    3.56169E+006    1.05476E+007    1.73930E+006    1.97674E+005    4.79241E+004   -9.02055E+005
            6325    9.52501E+006    1.29695E+007    1.29695E+007    4.73114E+006    2.53983E+006    1.04297E+007   -6.74683E+006    8.93107E+006    4.73341E+006    1.28863E+007    2.62077E+006    1.88809E+005    4.71369E+004   -9.04651E+005
            6326    5.72971E+006    5.65556E+006    5.65556E+006    1.06997E+006   -7.67482E+005    6.42304E+006   -1.98602E+006    4.99937E+006    1.07174E+006    5.59772E+006   -7.11413E+005    1.95712E+005    8.69437E+004   -5.64900E+005
            6327    7.15817E+006    7.31349E+006    7.31349E+006    1.67714E+006   -7.40430E+005    8.05392E+006   -2.75007E+006    6.13330E+006    1.68036E+006    7.22726E+006   -6.57412E+005    2.24728E+005    8.80581E+004   -7.88239E+005
            6328    8.23197E+006    9.04860E+006    9.04860E+006    2.48445E+006   -1.87413E+005    9.23601E+006   -3.78188E+006    7.15413E+006    2.48817E+006    8.90965E+006   -5.21775E+004    2.46826E+005    8.34135E+004   -1.08938E+006
            6329    9.27897E+006    1.11085E+007    1.11085E+007    3.54060E+006    7.56066E+005    1.03524E+007   -5.13505E+006    8.25746E+006    3.54491E+006    1.09288E+007    9.31425E+005    2.62964E+005    7.29442E+004   -1.31983E+006
            6330    1.01841E+007    1.33404E+007    1.33404E+007    4.78771E+006    2.07446E+006    1.12660E+007   -6.73419E+006    9.31750E+006    4.79223E+006    1.31266E+007    2.28374E+006    2.71852E+005    6.05942E+004   -1.50801E+006
            6331    1.16373E+007    1.36325E+007    1.36325E+007    4.59449E+006    5.01730E+005    1.31307E+007   -6.24289E+006    9.81006E+006    4.59530E+006    1.32396E+007    8.93796E+005    3.27807E+005    1.38862E+005   -2.20787E+006
            6332    1.08697E+007    1.13366E+007    1.13366E+007    3.25173E+006   -1.02001E+006    1.23566E+007   -4.52278E+006    8.65378E+006    3.25280E+006    1.11419E+007   -8.26377E+005    2.97185E+005    1.53646E+005   -1.50055E+006
            6333    9.69320E+006    9.26963E+006    9.26963E+006    2.25371E+006   -1.79086E+006    1.10605E+007   -3.24416E+006    7.40265E+006    2.25476E+006    9.20495E+006   -1.72723E+006    2.63776E+005    1.61220E+005   -7.81966E+005
            6334    8.41640E+006    7.58852E+006    7.58852E+006    1.57865E+006   -2.03056E+006    9.61908E+006   -2.37887E+006    6.28411E+006    1.57951E+006    7.57131E+006   -2.01422E+006    2.31966E+005    1.59982E+005   -2.87557E+005
            6335    6.97555E+006    6.09511E+006    6.09511E+006    1.10610E+006   -1.87576E+006    7.97087E+006   -1.77515E+006    5.22265E+006    1.10656E+006    6.08127E+006   -1.86238E+006    1.98521E+005    1.57504E+005    2.11119E+005
            6336    5.80549E+006    4.81895E+006    4.81895E+006    7.05983E+005   -1.82188E+006    6.64084E+006   -1.23435E+006    4.27529E+006    7.05538E+005    4.73492E+006   -1.73741E+006    1.63626E+005    1.63588E+005    7.06072E+005
            6337    4.66951E+006    3.89757E+006    3.89757E+006    5.79008E+005   -1.44202E+006    5.33959E+006   -1.01152E+006    3.45788E+006    5.78498E+005    3.60298E+006   -1.14691E+006    1.23328E+005    1.59548E+005    1.20267E+006
            6338    3.93966E+006    3.90294E+006    3.90294E+006    7.51370E+005   -5.13900E+005    4.41684E+006   -1.38014E+006    3.43583E+006    7.53353E+005    3.85976E+006   -4.72697E+005    1.32283E+005    8.53251E+004    4.02086E+005
            6339    4.11234E+006    4.42450E+006    4.42450E+006    9.77804E+005   -1.27542E+005    4.55204E+006   -1.75825E+006    3.75570E+006    9.83724E+005    4.41738E+006   -1.26336E+005    1.54340E+005    3.46209E+004    2.88226E+004
            6340    4.44999E+006    4.36042E+006    4.36042E+006    7.59148E+005   -6.14406E+005    4.97483E+006   -1.50172E+006    3.92881E+006    7.60152E+005    4.34940E+006   -6.04385E+005    1.62829E+005    8.71629E+004   -1.38738E+005
            6341    4.09238E+006    4.33803E+006    4.33803E+006    7.84104E+005   -1.36121E+005    4.47415E+006   -1.66200E+006    3.84913E+006    7.91675E+005    4.32121E+006   -1.26877E+005    1.81679E+005    3.07743E+004   -1.84651E+005
            6342    3.83107E+006    4.00019E+006    4.00019E+006    5.00368E+005   -9.29064E+004    4.09310E+006   -1.46922E+006    3.72561E+006    5.08088E+005    3.96482E+006   -6.52527E+004    1.86111E+005    1.94925E+004   -3.22732E+005
            6343    3.39503E+006    3.46525E+006    3.46525E+006    1.60708E+005   -1.35607E+004    3.47881E+006   -1.20413E+006    3.38495E+006    1.66709E+005    3.42069E+006    2.49951E+004    1.65631E+005    2.55087E+003   -3.53219E+005
            6344    2.96217E+006    2.90599E+006    2.90599E+006    5.14030E+004   -1.53170E+005    3.05916E+006   -9.34739E+005    2.94622E+006   -1.48761E+005    2.87777E+006    7.52142E+004    1.15411E+005   -1.15780E+004   -2.59446E+005
            6345    2.70117E+006    2.55181E+006    2.55181E+006    9.19787E+004   -3.38893E+005    2.89070E+006   -7.68299E+005    2.62218E+006   -3.37558E+005    2.54765E+006    9.48069E+004    4.13349E+004   -1.92198E+004   -9.33949E+004
            6346    4.60861E+006    4.63342E+006    4.63342E+006    7.34529E+005   -4.52626E+005    5.08604E+006   -1.63844E+006    4.24366E+006    7.36383E+005    4.55535E+006   -3.76408E+005    1.76793E+005    5.97243E+004   -5.95061E+005
            6347    4.38004E+006    4.61788E+006    4.61788E+006    6.46049E+005   -7.97066E+004    4.69758E+006   -1.72807E+006    4.24159E+006    6.50026E+005    4.47572E+006    5.84750E+004    1.59391E+005    1.18548E+004   -7.87217E+005
            6348    3.98016E+006    4.33460E+006    4.33460E+006    5.01194E+005    2.22344E+005    4.11225E+006   -1.68604E+006    3.95809E+006    5.04054E+005    4.24502E+006    3.09060E+005    1.08706E+005   -2.62984E+004   -5.89302E+005
            6349    3.69546E+006    4.08413E+006    4.08413E+006    4.31925E+005    3.46894E+005    3.73724E+006   -1.62098E+006    3.69326E+006    3.92071E+005    4.07121E+006    3.99670E+005    3.85915E+004   -4.47772E+004   -2.14282E+005
            6350    4.91092E+006    6.26119E+006    6.26119E+006    1.54604E+006    1.17551E+006    5.08568E+006   -2.99425E+006    4.87932E+006    1.54391E+006    6.23635E+006    1.20248E+006   -6.27898E+004    3.77700E+004   -3.47961E+005
            6351    6.04105E+006    8.11903E+006    8.11903E+006    2.45546E+006    1.76059E+006    6.35843E+006   -4.11169E+006    5.95014E+006    2.45594E+006    8.10896E+006    1.77018E+006   -6.99774E+004    1.93866E+004   -2.41453E+005
            6352    7.61646E+006    1.04416E+007    1.04416E+007    3.51236E+006    2.28662E+006    8.15499E+006   -5.41353E+006    7.38966E+006    3.51315E+006    1.04301E+007    2.29737E+006   -7.41018E+004    1.66638E+003   -2.95835E+005
            6353    9.29646E+006    1.29140E+007    1.29140E+007    4.63935E+006    2.85449E+006    1.00595E+007   -6.80260E+006    8.89863E+006    4.63990E+006    1.29080E+007    2.85989E+006   -7.34732E+004   -1.17347E+004   -2.30960E+005
            6354    5.66819E+006    6.56558E+006    6.56558E+006    1.56956E+006    4.05853E+005    6.15973E+006   -2.84700E+006    5.38950E+006    1.57334E+006    6.45975E+006    5.07904E+005   -1.67186E+005   -2.12479E+004   -7.79919E+005
            6355    7.07386E+006    8.71637E+006    8.71637E+006    2.57328E+006    9.82600E+005    7.73377E+006   -4.09075E+006    6.65337E+006    2.57712E+006    8.60568E+006    1.08945E+006   -1.86439E+005   -2.80905E+004   -8.95832E+005
            6356    8.16998E+006    1.07692E+007    1.07692E+007    3.64187E+006    1.85296E+006    8.91621E+006   -5.42133E+006    7.71064E+006    3.64526E+006    1.06659E+007    1.95282E+006   -1.94209E+005   -3.42265E+004   -9.30216E+005
            6357    9.52238E+006    1.31243E+007    1.31243E+007    4.81721E+006    2.73221E+006    1.03921E+007   -6.89125E+006    8.98701E+006    4.82059E+006    1.30465E+007    2.80662E+006   -1.98235E+005   -3.33033E+004   -8.68932E+005
            6358    1.10342E+007    1.35399E+007    1.35399E+007    4.70201E+006    1.17293E+006    1.23670E+007   -6.47163E+006    9.63606E+006    4.70398E+006    1.31903E+007    1.52066E+006   -2.91663E+005   -1.02255E+005   -2.02498E+006
            6359    1.01868E+007    1.13082E+007    1.13082E+007    3.42558E+006   -1.94107E+005    1.15023E+007   -4.84656E+006    8.54905E+006    3.42769E+006    1.10928E+007    1.92192E+004   -2.75537E+005   -1.15178E+005   -1.52813E+006
            6360    9.02449E+006    9.30119E+006    9.30119E+006    2.44922E+006   -9.24003E+005    1.02252E+007   -3.60880E+006    7.39207E+006    2.45142E+006    9.16667E+006   -7.91678E+005   -2.53312E+005   -1.16325E+005   -1.12809E+006
            6361    7.77462E+006    7.59440E+006    7.59440E+006    1.72088E+006   -1.22208E+006    8.81648E+006   -2.69773E+006    6.32571E+006    1.72300E+006    7.54137E+006   -1.17117E+006   -2.28613E+005   -1.17866E+005   -6.26460E+005
            6362    6.59953E+006    5.91622E+006    5.91622E+006    1.05319E+006   -1.59634E+006    7.51256E+006   -1.79102E+006    5.18243E+006    1.05377E+006    5.90784E+006   -1.58854E+006   -1.99259E+005   -1.39802E+005   -4.59819E+004
            6363    5.65967E+006    4.67503E+006    4.67503E+006    6.50459E+005   -1.79639E+006    6.47143E+006   -1.17637E+006    4.19535E+006    6.50064E+005    4.59415E+006   -1.71512E+006   -1.59951E+005   -1.58470E+005    6.83470E+005
            6364    4.66737E+006    3.93276E+006    3.93276E+006    5.93947E+005   -1.40047E+006    5.33323E+006   -1.04208E+006    3.49564E+006    5.93277E+005    3.67977E+006   -1.14682E+006   -1.27210E+005   -1.58604E+005    1.11581E+006
            6365    3.71316E+006    3.31556E+006    3.31556E+006    5.97986E+005   -9.15273E+005    4.23083E+006   -9.99425E+005    2.88584E+006    5.97152E+005    2.84618E+006   -4.45058E+005   -9.03818E+004   -1.43073E+005    1.31825E+006
            6366    3.42082E+006    3.56124E+006    3.56124E+006    7.92446E+005   -2.62897E+005    3.82414E+006   -1.36360E+006    3.02064E+006    7.94436E+005    3.44922E+006   -1.52862E+005   -1.05537E+005   -7.41485E+004    6.30342E+005
            6367    3.88202E+006    4.28277E+006    4.28277E+006    1.06204E+006   -2.76339E+004    4.31041E+006   -1.77239E+006    3.51244E+006    1.06638E+006    4.26959E+006   -1.87921E+004   -1.25414E+005   -3.20898E+004    1.87627E+005
            6368    3.97776E+006    3.94993E+006    3.94993E+006    7.43189E+005   -5.01280E+005    4.45121E+006   -1.39728E+006    3.49781E+006    7.45198E+005    3.91495E+006   -4.68310E+005   -1.37596E+005   -8.57696E+004    3.54614E+005
            6369    4.25776E+006    4.54641E+006    4.54641E+006    9.67026E+005   -1.62102E+005    4.70852E+006   -1.78378E+006    3.89901E+006    9.73586E+005    4.53873E+006   -1.60982E+005   -1.65173E+005   -3.54646E+004    1.28307E+004
            6370    4.65339E+006    4.47341E+006    4.47341E+006    7.16545E+005   -7.31964E+005    5.20538E+006   -1.48600E+006    4.09815E+006    7.17784E+005    4.45569E+006   -7.15483E+005   -1.68361E+005   -8.52711E+004   -2.33524E+005
            6371    4.14290E+006    4.34639E+006    4.34639E+006    7.18366E+005   -1.67927E+005    4.51432E+006   -1.63228E+006    3.92099E+006    7.26249E+005    4.32037E+006   -1.49783E+005   -1.89832E+005   -2.91669E+004   -2.70346E+005
            6372    4.83750E+006    4.93924E+006    4.93924E+006    8.27567E+005   -3.91059E+005    5.33029E+006   -1.79191E+006    4.47218E+006    8.29480E+005    4.81008E+006   -2.63818E+005   -1.80782E+005   -5.25702E+004   -7.96375E+005
            6373    3.67594E+006    3.81681E+006    3.81681E+006    3.76563E+005   -5.64713E+004    3.87328E+006   -1.37897E+006    3.61789E+006    3.83635E+005    3.76892E+006   -1.56578E+004   -1.81123E+005   -1.31463E+004   -3.83965E+005
            6374    3.21802E+006    3.22613E+006    3.22613E+006    1.81811E+004   -1.88162E+003    3.22801E+006   -1.08081E+006    3.21788E+006    1.41658E+004    3.18327E+006    4.49886E+004   -1.34718E+005    4.49578E+003   -3.43835E+005
            6375    2.81398E+006    2.75647E+006    2.75647E+006    1.43957E+005   -2.22982E+005    2.97945E+006   -8.92481E+005    2.75939E+006   -2.21286E+005    2.74679E+006    1.51937E+005   -5.09154E+004    1.99755E+004   -1.51096E+005
            6376    4.53945E+006    4.95505E+006    4.95505E+006    8.01886E+005    1.08995E+005    4.84606E+006   -1.95531E+006    4.41812E+006    8.05677E+005    4.81767E+006    2.42584E+005   -1.42074E+005   -1.75343E+003   -7.90297E+005
            6377    4.02967E+006    4.66913E+006    4.66913E+006    7.18243E+005    5.65050E+005    4.10408E+006   -1.98414E+006    4.02311E+006    7.08531E+005    4.64373E+006    6.00167E+005   -5.45335E+004    4.31559E+004   -3.16119E+005
            6378    1.16147E+007    1.57642E+007    1.57642E+007    6.17311E+006    2.85014E+006    1.29140E+007   -8.26248E+006    1.04624E+007    6.17390E+006    1.52092E+007    3.40433E+006    3.48363E+005    1.10793E+005   -2.59291E+006
            6379    1.08986E+007    1.55763E+007    1.55763E+007    6.13193E+006    3.65120E+006    1.19251E+007   -8.45315E+006    1.02340E+007    6.13709E+006    1.53818E+007    3.84057E+006    2.76680E+005    4.44634E+004   -1.48043E+006
            6380    1.07939E+007    1.53338E+007    1.53338E+007    5.95314E+006    3.53647E+006    1.17974E+007   -8.27448E+006    1.01581E+007    5.95508E+006    1.52736E+007    3.59478E+006    1.73215E+005    4.05653E+004   -8.19082E+005
            6381    1.10113E+007    1.53862E+007    1.53862E+007    5.75476E+006    3.38191E+006    1.20043E+007   -8.17430E+006    1.04125E+007    5.75806E+006    1.53704E+007    3.39442E+006    1.88887E+005    2.37218E+004   -3.81447E+005
            6382    1.11014E+007    1.53720E+007    1.53720E+007    5.67685E+006    3.26195E+006    1.21100E+007   -8.10359E+006    1.04857E+007    5.67680E+006    1.53710E+007    3.26302E+006   -1.65356E+004    1.35704E+004   -1.09439E+005
            6383    1.07363E+007    1.72906E+007    1.72906E+007    7.71063E+006    5.68618E+006    1.16044E+007   -1.02291E+007    1.02937E+007    7.71280E+006    1.68523E+007    6.12229E+006    3.57502E+005    7.25267E+004   -2.18114E+006
            6384    1.12664E+007    1.74016E+007    1.74016E+007    7.33283E+006    5.23311E+006    1.21685E+007   -9.98919E+006    1.08129E+007    7.33911E+006    1.72881E+007    5.34035E+006    2.81120E+005    2.73362E+004   -1.12967E+006
            6385    1.18510E+007    1.73957E+007    1.73957E+007    7.03897E+006    4.47140E+006    1.29243E+007   -9.63536E+006    1.11993E+007    7.04079E+006    1.73648E+007    4.50049E+006    1.54646E+005    2.67412E+004   -6.07715E+005
            6386    1.24513E+007    1.75549E+007    1.75549E+007    6.75836E+006    3.93402E+006    1.36209E+007   -9.41576E+006    1.16976E+007    6.76198E+006    1.75459E+007    3.93940E+006    2.03418E+005    1.93509E+004   -2.65637E+005
            6387    1.27004E+007    1.75653E+007    1.75653E+007    6.62127E+006    3.63919E+006    1.39261E+007   -9.27525E+006    1.18738E+007    6.62128E+006    1.75648E+007    3.63969E+006   -2.69566E+004    1.23699E+004   -7.89100E+004
            6388    9.60806E+006    1.78997E+007    1.78997E+007    8.70636E+006    7.92472E+006    9.97500E+006   -1.15103E+007    9.53614E+006    8.71606E+006    1.78100E+007    8.00475E+006    3.58834E+005    2.48632E+004   -8.66518E+005
            6389    1.13973E+007    1.84322E+007    1.84322E+007    8.05061E+006    6.23666E+006    1.21955E+007   -1.09065E+007    1.10655E+007    8.05801E+006    1.84097E+007    6.25166E+006    2.81441E+005    9.49347E+003   -4.24465E+005
            6390    1.24582E+007    1.85832E+007    1.85832E+007    7.66179E+006    5.01383E+006    1.35693E+007   -1.04196E+007    1.17999E+007    7.66355E+006    1.85777E+007    5.01754E+006    1.40662E+005    9.00731E+003   -2.22987E+005
            6391    1.32916E+007    1.88274E+007    1.88274E+007    7.34786E+006    4.26542E+006    1.45620E+007   -1.01469E+007    1.24487E+007    7.35170E+006    1.88227E+007    4.26625E+006    2.10710E+005    8.30124E+003   -1.07706E+005
            6392    1.36550E+007    1.88753E+007    1.88753E+007    7.18455E+006    3.86736E+006    1.50080E+007   -9.97575E+006    1.27001E+007    7.18463E+006    1.88752E+007    3.86742E+006   -3.34130E+004    5.03354E+003   -2.73909E+004
            6393    3.67181E+006    3.25881E+006    3.25881E+006    5.81806E+005   -9.27048E+005    4.18585E+006   -9.71188E+005    2.83671E+006    5.80636E+005    2.77593E+006   -4.43007E+005    8.50294E+004   -1.41784E+005   -1.32738E+006
            6394    3.30349E+006    3.44527E+006    3.44527E+006    7.77949E+005   -2.49976E+005    3.69525E+006   -1.32442E+006    2.90965E+006    7.79348E+005    3.32248E+006   -1.28585E+005    9.47344E+004   -7.19960E+004   -6.50566E+005
            6395    3.75944E+006    4.13218E+006    4.13218E+006    1.03290E+006   -4.98042E+004    4.18199E+006   -1.70509E+006    3.38108E+006    1.03652E+006    4.11975E+006   -4.09916E+004    1.13684E+005   -3.15939E+004   -1.84468E+005
            6396    2.66071E+006    2.59809E+006    2.59809E+006    5.65788E+005   -4.13483E+005    3.01157E+006   -9.16798E+005    2.19658E+006    5.63246E+005    2.05139E+006    1.35755E+005    5.17655E+004   -1.16164E+005   -1.15432E+006
            6397    2.69086E+006    2.96845E+006    2.96845E+006    7.56926E+005   -2.74386E+004    2.99589E+006   -1.23265E+006    2.41284E+006    7.56829E+005    2.85052E+006    9.05895E+004    6.15578E+004   -5.66206E+004   -5.76603E+005
            6398    3.25503E+006    3.62421E+006    3.62421E+006    9.60567E+005   -4.12916E+003    3.62834E+006   -1.52688E+006    2.90633E+006    9.62004E+005    3.61275E+006    5.89026E+003    7.15435E+004   -2.68264E+004   -1.85005E+005
            6399    1.55030E+006    1.83235E+006    1.83235E+006    5.18973E+005    1.22227E+005    1.71012E+006   -8.24516E+005    1.42924E+006    5.06783E+005    1.52894E+006    4.37826E+005    2.16091E+004   -9.30372E+004   -6.47052E+005
            6400    2.17895E+006    2.53214E+006    2.53214E+006    6.98745E+005    1.23185E+005    2.40895E+006   -1.11802E+006    1.99690E+006    6.96097E+005    2.49029E+006    1.67677E+005    2.65363E+004   -4.68227E+004   -3.12347E+005
            6401    2.85214E+006    3.20205E+006    3.20205E+006    8.71915E+005    2.14030E+004    3.18065E+006   -1.36512E+006    2.54246E+006    8.71812E+005    3.19859E+006    2.49620E+004    3.22699E+004   -2.29974E+004   -9.74546E+004
            6402    8.48312E+005    1.32309E+006    1.32309E+006    5.75771E+005    4.01011E+005    9.22082E+005   -7.66625E+005    8.06305E+005    4.66200E+005    1.32199E+006    5.11682E+005   -1.16193E+003   -8.46094E+004    2.95825E+004
            6403    1.99818E+006    2.38818E+006    2.38818E+006    6.83695E+005    1.89177E+005    2.19901E+006   -1.08702E+006    1.85285E+006    6.79806E+005    2.38731E+006    1.93936E+005   -2.36947E+003   -4.37708E+004    4.35299E+004
            6404    2.73384E+006    3.06732E+006    3.06732E+006    8.36835E+005    1.75010E+004    3.04982E+006   -1.30722E+006    2.43374E+006    8.36267E+005    3.06728E+006    1.81155E+004   -4.84249E+003   -2.17955E+004    1.03634E+004
            6405    1.68246E+006    1.93279E+006    1.93279E+006    5.28562E+005    6.80239E+004    1.86477E+006   -8.43127E+005    1.53073E+006    5.19345E+005    1.58739E+006    4.22643E+005   -2.65976E+004   -9.46324E+004    7.18406E+005
            6406    2.27366E+006    2.61630E+006    2.61630E+006    7.12439E+005    9.88043E+004    2.51750E+006   -1.14251E+006    2.07474E+006    7.10449E+005    2.56078E+006    1.56319E+005   -3.61143E+004   -4.83241E+004    3.66290E+005
            6407    2.92824E+006    3.28984E+006    3.28984E+006    8.94222E+005    2.55491E+004    3.26429E+006   -1.40320E+006    2.61389E+006    8.94459E+005    3.28409E+006    3.10592E+004   -4.25108E+004   -2.35078E+004    1.27135E+005
            6408    2.74384E+006    2.67992E+006    2.67992E+006    5.84590E+005   -4.25863E+005    3.10578E+006   -9.46214E+005    2.26455E+006    5.82134E+005    2.14080E+006    1.15707E+005   -5.52564E+004   -1.18689E+005    1.16950E+006
            6409    2.84507E+006    3.10665E+006    3.10665E+006    7.77875E+005   -6.44918E+004    3.17114E+006   -1.27334E+006    2.54095E+006    7.78153E+005    2.97577E+006    6.61096E+004   -6.79000E+004   -5.95021E+004    6.24146E+005
            6410    3.40304E+006    3.76564E+006    3.76564E+006    9.81065E+005   -2.77475E+004    3.79339E+006   -1.57299E+006    3.03829E+006    9.83081E+005    3.75358E+006   -1.76997E+004   -8.32599E+004   -2.78423E+004    1.89457E+005
            6411    1.10929E+007    1.53578E+007    1.53578E+007    5.66987E+006    3.25719E+006    1.21006E+007   -8.09496E+006    1.04778E+007    5.66982E+006    1.53568E+007    3.25822E+006   -1.64835E+004   -1.36509E+004    1.07261E+005
            6412    1.10132E+007    1.53868E+007    1.53868E+007    5.75491E+006    3.37992E+006    1.20069E+007   -8.17389E+006    1.04134E+007    5.75820E+006    1.53710E+007    3.39251E+006    1.88743E+005   -2.39386E+004    3.82653E+005
            6413    1.08017E+007    1.53473E+007    1.53473E+007    5.96039E+006    3.54103E+006    1.18062E+007   -8.28289E+006    1.01649E+007    5.96234E+006    1.52862E+007    3.60015E+006    1.73800E+005   -4.05153E+004    8.25139E+005
            6414    1.09011E+007    1.55887E+007    1.55887E+007    6.14162E+006    3.66106E+006    1.19276E+007   -8.46378E+006    1.02368E+007    6.14678E+006    1.53906E+007    3.85398E+006    2.77751E+005   -4.49132E+004    1.49410E+006
            6415    1.16133E+007    1.57751E+007    1.57751E+007    6.18254E+006    2.86366E+006    1.29114E+007   -8.27377E+006    1.04639E+007    6.18331E+006    1.52192E+007    3.41877E+006    3.48933E+005   -1.10913E+005    2.59464E+006
            6416    1.27008E+007    1.75637E+007    1.75637E+007    6.61961E+006    3.63695E+006    1.39267E+007   -9.27341E+006    1.18739E+007    6.61964E+006    1.75631E+007    3.63747E+006   -2.80131E+004   -1.23211E+004    8.03902E+004
            6417    1.24525E+007    1.75536E+007    1.75536E+007    6.75609E+006    3.93135E+006    1.36223E+007   -9.41368E+006    1.16987E+007    6.75967E+006    1.75447E+007    3.93668E+006    2.02375E+005   -1.92640E+004    2.64503E+005
            6418    1.18521E+007    1.73929E+007    1.73929E+007    7.03568E+006    4.46713E+006    1.29258E+007   -9.63190E+006    1.11999E+007    7.03752E+006    1.73619E+007    4.49633E+006    1.55363E+005   -2.68048E+004    6.08772E+005
            6419    1.12564E+007    1.74090E+007    1.74090E+007    7.34483E+006    5.25359E+006    1.21554E+007   -1.00025E+007    1.08063E+007    7.35115E+006    1.72933E+007    5.36295E+006    2.82400E+005   -2.74523E+004    1.14008E+006
            6420    1.07340E+007    1.72930E+007    1.72930E+007    7.71531E+006    5.69092E+006    1.16021E+007   -1.02331E+007    1.02913E+007    7.71735E+006    1.68494E+007    6.13248E+006    3.58192E+005   -7.31217E+004    2.19388E+006
            6421    1.36501E+007    1.88713E+007    1.88713E+007    7.18365E+006    3.86916E+006    1.50021E+007   -9.97470E+006    1.26965E+007    7.18374E+006    1.88712E+007    3.86921E+006   -3.40212E+004   -5.15544E+003    2.66254E+004
            6422    1.32965E+007    1.88274E+007    1.88274E+007    7.34539E+006    4.25931E+006    1.45681E+007   -1.01440E+007    1.24518E+007    7.34920E+006    1.88228E+007    4.26012E+006    2.10100E+005   -8.28316E+003    1.06611E+005
            6423    1.24583E+007    1.85859E+007    1.85859E+007    7.66357E+006    5.01690E+006    1.35690E+007   -1.04221E+007    1.18007E+007    7.66533E+006    1.85805E+007    5.02052E+006    1.40755E+005   -8.92092E+003    2.19893E+005
            6424    1.13823E+007    1.84206E+007    1.84206E+007    8.04935E+006    6.24322E+006    1.21774E+007   -1.09044E+007    1.10530E+007    8.05676E+006    1.83988E+007    6.25765E+006    2.81434E+005   -9.31155E+003    4.15964E+005
            6425    9.60375E+006    1.78810E+007    1.78810E+007    8.69464E+006    7.90828E+006    9.97275E+006   -1.14946E+007    9.53091E+006    8.70429E+006    1.77908E+007    7.98889E+006    3.58852E+005   -2.53200E+004    8.69366E+005
            6426    6.97438E+006    6.09553E+006    6.09553E+006    1.10707E+006   -1.87396E+006    7.96949E+006   -1.77621E+006    5.22228E+006    1.10752E+006    6.08195E+006   -1.86083E+006    1.98649E+005   -1.57477E+005   -2.05956E+005
            6427    8.42412E+006    7.59210E+006    7.59210E+006    1.57937E+006   -2.03628E+006    9.62838E+006   -2.37840E+006    6.28511E+006    1.58022E+006    7.57480E+006   -2.01983E+006    2.31877E+005   -1.60081E+005    2.89524E+005
            6428    9.71045E+006    9.29329E+006    9.29329E+006    2.26452E+006   -1.78681E+006    1.10801E+007   -3.25700E+006    7.41643E+006    2.26556E+006    9.22740E+006   -1.72196E+006    2.64288E+005   -1.61381E+005    7.91035E+005
            6429    1.08826E+007    1.13677E+007    1.13677E+007    3.26899E+006   -1.00274E+006    1.23704E+007   -4.54463E+006    8.67047E+006    3.27003E+006    1.11700E+007   -8.06126E+005    2.97856E+005   -1.53881E+005    1.51307E+006
            6430    1.16325E+007    1.36538E+007    1.36538E+007    4.61215E+006    5.30512E+005    1.31232E+007   -6.26547E+006    9.81571E+006    4.61295E+006    1.32576E+007    9.25820E+005    3.27960E+005   -1.38450E+005    2.21623E+006
            6431    1.01913E+007    1.33334E+007    1.33334E+007    4.77996E+006    2.05724E+006    1.12762E+007   -6.72353E+006    9.31894E+006    4.78449E+006    1.31196E+007    2.26654E+006    2.72154E+005   -6.08598E+004    1.50874E+006
            6432    9.52005E+006    1.29558E+007    1.29558E+007    4.72441E+006    2.53018E+006    1.04256E+007   -6.73678E+006    8.92410E+006    4.72667E+006    1.28716E+007    2.61207E+006    1.89347E+005   -4.76732E+004    9.09600E+005
            6433    9.33403E+006    1.28795E+007    1.28795E+007    4.60658E+006    2.76026E+006    1.01192E+007   -6.74877E+006    8.90918E+006    4.60980E+006    1.28560E+007    2.78047E+006    1.74398E+005   -1.99692E+004    4.47053E+005
            6434    9.26116E+006    1.28166E+007    1.28166E+007    4.56321E+006    2.80087E+006    1.00157E+007   -6.72689E+006    8.87206E+006    4.56318E+006    1.28145E+007    2.80299E+006    9.55632E+002   -7.07647E+003    1.44822E+005
            6435    9.26671E+006    1.10732E+007    1.10732E+007    3.52059E+006    7.32534E+005    1.03406E+007   -5.10876E+006    8.24075E+006    3.52487E+006    1.08943E+007    9.07116E+005    2.62733E+005   -7.33464E+004    1.31605E+006
            6436    8.21242E+006    1.06255E+007    1.06255E+007    3.54532E+006    1.62221E+006    9.00333E+006   -5.26436E+006    7.68090E+006    3.54814E+006    1.05274E+007    1.71756E+006    1.98172E+005   -4.80550E+004    9.09649E+005
            6437    7.78630E+006    1.05090E+007    1.05090E+007    3.50549E+006    2.12470E+006    8.38433E+006   -5.37974E+006    7.50340E+006    3.50884E+006    1.04749E+007    2.15543E+006    1.60394E+005   -1.00726E+004    5.04218E+005
            6438    7.55330E+006    1.04032E+007    1.04032E+007    3.49628E+006    2.33752E+006    8.06572E+006   -5.41235E+006    7.34933E+006    3.49630E+006    1.04002E+007    2.34053E+006    1.83871E+004    6.29453E+003    1.54955E+005
            6439    8.20644E+006    8.99856E+006    8.99856E+006    2.45970E+006   -2.10412E+005    9.20897E+006   -3.74928E+006    7.12603E+006    2.46341E+006    8.86152E+006   -7.70822E+004    2.46598E+005   -8.38920E+004    1.07979E+006
            6440    7.10966E+006    8.65455E+006    8.65455E+006    2.54347E+006    8.51566E+005    7.80299E+006   -4.01653E+006    6.63364E+006    2.54679E+006    8.54467E+006    9.58125E+005    1.96774E+005   -4.39842E+004    8.94107E+005
            6441    6.46404E+006    8.46442E+006    8.46442E+006    2.55146E+006    1.56314E+006    6.90128E+006   -4.19301E+006    6.29068E+006    2.55498E+006    8.41728E+006    1.60677E+006    1.45679E+005    3.48912E+003    5.46420E+005
            6442    6.19403E+006    8.37020E+006    8.37020E+006    2.56012E+006    1.85292E+006    6.51728E+006   -4.26108E+006    6.10221E+006    2.55959E+006    8.36349E+006    1.86017E+006    3.03756E+004    2.32794E+004    2.06411E+005
            6443    7.15381E+006    7.29774E+006    7.29774E+006    1.66941E+006   -7.52685E+005    8.05042E+006   -2.73815E+006    6.12380E+006    1.67263E+006    7.21192E+006   -6.70091E+005    2.24694E+005   -8.83006E+004    7.85904E+005
            6444    6.01577E+006    6.94714E+006    6.94714E+006    1.73442E+006    3.64583E+005    6.58256E+006   -3.01538E+006    5.64865E+006    1.73787E+006    6.82962E+006    4.78654E+005    1.84770E+005   -3.66033E+004    8.48511E+005
            6445    5.48507E+006    6.85424E+006    6.85424E+006    1.76720E+006    1.04307E+006    5.81117E+006   -3.22150E+006    5.37596E+006    1.77062E+006    6.78172E+006    1.11217E+006    1.31079E+005    1.66754E+004    6.29644E+005
            6446    5.17877E+006    6.72842E+006    6.72842E+006    1.76695E+006    1.35676E+006    5.37167E+006   -3.28404E+006    5.14202E+006    1.76370E+006    6.71957E+006    1.36886E+006    3.57957E+004    3.93582E+004    2.14345E+005
            6447    5.72849E+006    5.65025E+006    5.65025E+006    1.06653E+006   -7.71707E+005    6.42196E+006   -1.98169E+006    4.99727E+006    1.06828E+006    5.59290E+006   -7.16111E+005    1.95751E+005   -8.71734E+004    5.62117E+005
            6448    5.16807E+006    5.69465E+006    5.69465E+006    1.14863E+006    7.36261E+004    5.62102E+006   -2.30563E+006    4.90696E+006    1.15205E+006    5.54095E+006    2.23905E+005    1.70000E+005   -2.44034E+004    8.98702E+005
            6449    4.71503E+006    5.52963E+006    5.52963E+006    1.09869E+006    5.74345E+005    4.95529E+006   -2.40089E+006    4.64876E+006    1.10175E+006    5.43829E+006    6.62626E+005    1.17446E+005    2.57539E+004    6.54583E+005
            6450    4.42176E+006    5.37899E+006    5.37899E+006    1.07769E+006    8.45887E+005    4.53311E+006   -2.43419E+006    4.40806E+006    1.06835E+006    5.36445E+006    8.69781E+005    3.77094E+004    4.86627E+004    2.52750E+005
            6451    3.71373E+006    4.11202E+006    4.11202E+006    4.42090E+005    3.55977E+005    3.75604E+006   -1.63669E+006    3.71148E+006    4.05756E+005    4.09898E+006    4.05346E+005    3.87000E+004    4.49274E+004    2.15886E+005
            6452    2.70545E+006    2.55898E+006    2.55898E+006    9.28196E+004   -3.34813E+005    2.89380E+006   -7.72330E+005    2.62780E+006   -3.33457E+005    2.55481E+006    9.56418E+004    4.15645E+004    1.93443E+004    9.36357E+004
            6453    3.97796E+006    4.33616E+006    4.33616E+006    5.03149E+005    2.27583E+005    4.10857E+006   -1.68896E+006    3.95640E+006    5.05956E+005    4.24680E+006    3.14140E+005    1.08352E+005    2.66579E+004    5.88377E+005
            6454    2.96553E+006    2.91193E+006    2.91193E+006    5.28317E+004   -1.49642E+005    3.06157E+006   -9.38374E+005    2.94991E+006   -1.45198E+005    2.88342E+006    7.69016E+004    1.15895E+005    1.17232E+004    2.61050E+005
            6455    4.37202E+006    4.61133E+006    4.61133E+006    6.43828E+005   -7.58921E+004    4.68722E+006   -1.72642E+006    4.23566E+006    6.47794E+005    4.46870E+006    6.27712E+004    1.58781E+005   -1.14820E+004    7.87744E+005
            6456    3.39891E+006    3.46777E+006    3.46777E+006    1.61095E+005   -1.64203E+004    3.48419E+006   -1.20415E+006    3.38846E+006    1.67092E+005    3.42346E+006    2.18929E+004    1.65673E+005   -2.80380E+003    3.52323E+005
            6457    4.60552E+006    4.63109E+006    4.63109E+006    7.33958E+005   -4.51176E+005    5.08227E+006   -1.63796E+006    4.24162E+006    7.35793E+005    4.55249E+006   -3.74409E+005    1.76788E+005   -5.97075E+004    5.97031E+005
            6458    3.82803E+006    4.00038E+006    4.00038E+006    5.02187E+005   -8.87650E+004    4.08914E+006   -1.47127E+006    3.72333E+006    5.09912E+005    3.96508E+006   -6.11893E+004    1.85984E+005   -1.93496E+004    3.22159E+005
            6459    4.09503E+006    4.33990E+006    4.33990E+006    7.85765E+005   -1.38151E+005    4.47806E+006   -1.66251E+006    3.84990E+006    7.93310E+005    4.32321E+006   -1.29004E+005    1.81353E+005   -3.08329E+004    1.83642E+005
            6460    4.10887E+006    4.42223E+006    4.42223E+006    9.80290E+005   -1.26742E+005    4.54897E+006   -1.75859E+006    3.75072E+006    9.86157E+005    4.41509E+006   -1.25475E+005    1.53491E+005   -3.46427E+004   -3.39594E+004
            6461    4.44685E+006    4.35582E+006    4.35582E+006    7.57580E+005   -6.15675E+005    4.97150E+006   -1.49924E+006    3.92548E+006    7.58591E+005    4.34502E+006   -6.05883E+005    1.62601E+005   -8.71764E+004    1.34813E+005
            6462    3.92809E+006    3.89556E+006    3.89556E+006    7.51804E+005   -5.07831E+005    4.40339E+006   -1.37985E+006    3.42745E+006    7.53801E+005    3.85161E+006   -4.65872E+005    1.31762E+005   -8.49157E+004   -4.05734E+005
            6463    4.68259E+006    3.90486E+006    3.90486E+006    5.78562E+005   -1.44996E+006    5.35482E+006   -1.01116E+006    3.46471E+006    5.78069E+005    3.61007E+006   -1.15468E+006    1.23581E+005   -1.59721E+005   -1.20487E+006
            6464    5.82643E+006    4.82841E+006    4.82841E+006    7.03383E+005   -1.83686E+006    6.66527E+006   -1.23165E+006    4.28556E+006    7.02951E+005    4.74465E+006   -1.75267E+006    1.63907E+005   -1.63784E+005   -7.06156E+005
            6465    7.79097E+006    7.59931E+006    7.59931E+006    1.74755E+006   -1.24407E+006    8.84339E+006   -2.70093E+006    6.28878E+006    1.74808E+006    7.55006E+006   -1.19535E+006   -1.30113E+005    7.05204E+004    6.40071E+005
            6466    9.06500E+006    9.33124E+006    9.33124E+006    2.49143E+006   -9.50651E+005    1.02819E+007   -3.62401E+006    7.36313E+006    2.49204E+006    9.19892E+006   -8.18939E+005   -1.42696E+005    6.77285E+004    1.14720E+006
            6467    1.02235E+007    1.13528E+007    1.13528E+007    3.48282E+006   -2.02367E+005    1.15551E+007   -4.87774E+006    8.52445E+006    3.48356E+006    1.11374E+007    1.22308E+004   -1.55220E+005    6.38383E+004    1.55281E+006
            6468    1.10596E+007    1.35851E+007    1.35851E+007    4.76493E+006    1.17699E+006    1.24081E+007   -6.50900E+006    9.61304E+006    4.76574E+006    1.32357E+007    1.52558E+006   -1.64146E+005    5.44422E+004    2.04468E+006
            6469    9.50358E+006    1.31249E+007    1.31249E+007    4.90529E+006    2.71849E+006    1.04064E+007   -6.91621E+006    8.91073E+006    4.90618E+006    1.30467E+007    2.79570E+006   -1.14136E+005    2.70759E+004    8.89418E+005
            6470    9.20496E+006    1.28542E+007    1.28542E+007    4.73518E+006    2.85394E+006    1.00003E+007   -6.81444E+006    8.75663E+006    4.73530E+006    1.28488E+007    2.85924E+006   -3.62271E+004    7.95136E+003    2.29277E+005
            6471    8.15310E+006    1.07629E+007    1.07629E+007    3.71768E+006    1.83231E+006    8.93062E+006   -5.43764E+006    7.63918E+006    3.71876E+006    1.06589E+007    1.93527E+006   -1.13671E+005    2.31050E+004    9.50212E+005
            6472    7.53434E+006    1.03885E+007    1.03885E+007    3.60213E+006    2.28098E+006    8.10754E+006   -5.42388E+006    7.26685E+006    3.60233E+006    1.03771E+007    2.29220E+006   -3.73200E+004    2.03373E+003    3.01334E+005
            6473    7.05422E+006    8.71182E+006    8.71182E+006    2.64430E+006    9.71583E+005    7.74024E+006   -4.10924E+006    6.58546E+006    2.64547E+006    8.60104E+006    1.08120E+006   -1.09564E+005    2.11822E+004    9.11556E+005
            6474    5.99654E+006    8.11280E+006    8.11280E+006    2.55008E+006    1.76065E+006    6.35215E+006   -4.14118E+006    5.87793E+006    2.55027E+006    8.10277E+006    1.77049E+006   -3.62887E+004   -7.41735E+003    2.49184E+005
            6475    5.66082E+006    6.57630E+006    6.57630E+006    1.63270E+006    4.01053E+005    6.17524E+006   -2.87002E+006    5.34674E+006    1.63396E+006    6.46856E+006    5.07526E+005   -9.96971E+004    1.51114E+004    8.01302E+005
            6476    4.88107E+006    6.26906E+006    6.26906E+006    1.62600E+006    1.18052E+006    5.08854E+006   -3.02519E+006    4.83502E+006    1.62573E+006    6.24393E+006    1.20592E+006   -3.30494E+004   -1.76876E+004    3.54862E+005
            6477    4.00409E+006    4.67512E+006    4.67512E+006    7.70424E+005    5.78531E+005    4.09659E+006   -2.00803E+006    3.99373E+006    7.68831E+005    4.64910E+006    6.06148E+005   -3.15262E+004   -2.14353E+004    3.23638E+005
            6478    2.77414E+006    2.73966E+006    2.73966E+006    1.44719E+005   -1.84332E+005    2.92399E+006   -9.00015E+005    2.72972E+006   -1.83789E+005    2.73031E+006    1.53523E+005   -3.05761E+004   -1.01675E+004    1.52689E+005
            6479    4.53166E+006    4.95939E+006    4.95939E+006    8.49439E+005    9.95758E+004    4.85982E+006   -1.96947E+006    4.38881E+006    8.50645E+005    4.81953E+006    2.38230E+005   -8.42390E+004    4.10629E+003    8.07638E+005
            6480    3.18543E+006    3.21156E+006    3.21156E+006    4.55586E+004    7.05027E+003    3.20451E+006   -1.08805E+006    3.18490E+006    4.61246E+004    3.17073E+006    4.73108E+004   -8.01198E+004   -1.50935E+003    3.50345E+005
            6481    3.65382E+006    3.81281E+006    3.81281E+006    4.06849E+005   -4.65563E+004    3.85936E+006   -1.39103E+006    3.58971E+006    4.09541E+005    3.76916E+006   -5.60451E+003   -1.08275E+005    6.45912E+003    3.91991E+005
            6482    4.13541E+006    4.35798E+006    4.35798E+006    7.45860E+005   -1.52895E+005    4.51088E+006   -1.65032E+006    3.90650E+006    7.48876E+005    4.33733E+006   -1.35262E+005   -1.14079E+005    1.46242E+004    2.77183E+005
            6483    4.26346E+006    4.57606E+006    4.57606E+006    9.96716E+005   -1.40776E+005    4.71684E+006   -1.81067E+006    3.89955E+006    9.99231E+005    4.57327E+006   -1.40497E+005   -9.93990E+004    1.71140E+004   -1.16814E+004
            6484    3.88698E+006    4.30999E+006    4.30999E+006    1.08590E+006   -6.22468E+003    4.31621E+006   -1.79655E+006    3.51615E+006    1.08757E+006    4.29987E+006    2.21759E+003   -7.51839E+004    1.41614E+004   -1.89444E+005
            6485    4.84353E+006    4.94155E+006    4.94155E+006    8.57301E+005   -4.09499E+005    5.35104E+006   -1.79645E+006    4.44733E+006    8.57547E+005    4.81215E+006   -2.80349E+005   -1.07910E+005    3.71322E+004    8.13854E+005
            6486    4.65749E+006    4.47670E+006    4.47670E+006    7.37437E+005   -7.40412E+005    5.21711E+006   -1.49124E+006    4.07765E+006    7.37397E+005    4.46212E+006   -7.25791E+005   -1.01661E+005    5.77326E+004    2.49496E+005
            6487    3.98092E+006    3.94820E+006    3.94820E+006    7.57878E+005   -5.12989E+005    4.46119E+006   -1.39770E+006    3.47858E+006    7.58100E+005    3.91826E+006   -4.83275E+005   -8.46310E+004    6.04892E+004   -3.48648E+005
            6488    3.43037E+006    3.56752E+006    3.56752E+006    8.05949E+005   -2.72476E+005    3.84000E+006   -1.36700E+006    3.01200E+006    8.06037E+005    3.45963E+006   -1.64672E+005   -6.44708E+004    5.59610E+004   -6.28723E+005
            6489    3.71083E+006    3.32465E+006    3.32465E+006    6.08013E+005   -9.03368E+005    4.22802E+006   -1.00977E+006    2.88529E+006    6.08347E+005    2.85693E+006   -4.35973E+005   -5.06653E+004    6.81926E+004   -1.32334E+006
            6490    4.68044E+006    3.94685E+006    3.94685E+006    6.03445E+005   -1.40218E+006    5.34903E+006   -1.04937E+006    3.49692E+006    6.03892E+005    3.69961E+006   -1.15539E+006   -7.34709E+004    7.94586E+004   -1.11753E+006
            6491    5.67426E+006    4.68760E+006    4.68760E+006    6.60036E+005   -1.80182E+006    6.48942E+006   -1.18194E+006    4.19261E+006    6.60461E+005    4.61391E+006   -1.72856E+006   -9.33499E+004    8.26984E+004   -6.75405E+005
            6492    6.60408E+006    5.92319E+006    5.92319E+006    1.07273E+006   -1.59798E+006    7.52117E+006   -1.79931E+006    5.16043E+006    1.07325E+006    5.92002E+006   -1.59533E+006   -1.14832E+005    7.52268E+004    5.98444E+004
            6493    1.10376E+007    1.54295E+007    1.54295E+007    5.87096E+006    3.34932E+006    1.20802E+007   -8.21660E+006    1.03593E+007    5.87106E+006    1.54265E+007    3.35221E+006   -3.69389E+004    1.00178E+004    1.85600E+005
            6494    1.08180E+007    1.55049E+007    1.55049E+007    6.12057E+006    3.67273E+006    1.18322E+007   -8.43274E+006    1.01665E+007    6.12146E+006    1.54529E+007    3.72383E+006   -1.11597E+005    2.38302E+004    7.72800E+005
            6495    1.13080E+007    1.57110E+007    1.57110E+007    6.22874E+006    3.19585E+006    1.25152E+007   -8.37855E+006    1.03319E+007    6.22985E+006    1.52887E+007    3.61708E+006   -1.68663E+005    3.82728E+004    2.25266E+006
            6496    1.26138E+007    1.76150E+007    1.76150E+007    6.82076E+006    3.74892E+006    1.38660E+007   -9.39488E+006    1.17271E+007    6.82087E+006    1.76138E+007    3.74998E+006   -3.86102E+004    7.70162E+003    1.20030E+005
            6497    1.19329E+007    1.75367E+007    1.75367E+007    7.15864E+006    4.49803E+006    1.30387E+007   -9.73112E+006    1.12361E+007    7.15953E+006    1.75139E+007    4.51997E+006   -1.07198E+005    1.87239E+004    5.31929E+005
            6498    1.08478E+007    1.73035E+007    1.73035E+007    7.62722E+006    5.57677E+006    1.17267E+007   -1.01691E+007    1.03983E+007    7.62877E+006    1.69970E+007    5.88168E+006   -1.68742E+005    2.25041E+004    1.86231E+006
            6499    1.35405E+007    1.88969E+007    1.88969E+007    7.37519E+006    3.98272E+006    1.49142E+007   -1.00849E+007    1.25297E+007    7.37533E+006    1.88966E+007    3.98286E+006   -4.10096E+004    2.97365E+003    4.63832E+004
            6500    1.25800E+007    1.87073E+007    1.87073E+007    7.75483E+006    4.96724E+006    1.37400E+007   -1.04764E+007    1.18549E+007    7.75579E+006    1.87038E+007    4.96975E+006   -1.03553E+005    6.05387E+003    1.85010E+005
            6501    1.01655E+007    1.80718E+007    1.80718E+007    8.52992E+006    7.38045E+006    1.06914E+007   -1.13274E+007    1.00177E+007    8.53252E+006    1.80167E+007    7.43294E+006   -1.66936E+005    6.36675E+003    7.45125E+005
            6502    3.77991E+006    4.17236E+006    4.17236E+006    1.05602E+006   -3.23282E+004    4.20469E+006   -1.73202E+006    3.39967E+006    1.05745E+006    4.16264E+006   -2.40488E+004    6.89142E+004    1.43231E+004    1.85044E+005
            6503    3.32369E+006    3.45521E+006    3.45521E+006    7.88122E+005   -2.68293E+005    3.72351E+006   -1.32501E+006    2.90835E+006    7.88174E+005    3.33480E+006   -1.47935E+005    6.04239E+004    5.45697E+004    6.53582E+005
            6504    3.66701E+006    3.27044E+006    3.27044E+006    5.94469E+005   -9.09435E+005    4.17988E+006   -9.85159E+005    2.83710E+006    5.94816E+005    2.79247E+006   -4.31807E+005    4.91855E+004    6.68259E+004    1.32747E+006
            6505    3.27277E+006    3.66399E+006    3.66399E+006    9.81214E+005    1.75989E+004    3.64639E+006   -1.55427E+006    2.92715E+006    9.81864E+005    3.65343E+006    2.75120E+004    4.36790E+004    1.09478E+004    1.89098E+005
            6506    2.70626E+006    2.97853E+006    2.97853E+006    7.66303E+005   -3.89635E+004    3.01749E+006   -1.23529E+006    2.41380E+006    7.65405E+005    2.86169E+006    7.87772E+004    3.71056E+004    4.65798E+004    5.79646E+005
            6507    2.66755E+006    2.61479E+006    2.61479E+006    5.74917E+005   -4.03904E+005    3.01869E+006   -9.28601E+005    2.20550E+006    5.74765E+005    2.07003E+006    1.41003E+005    2.78939E+004    5.15801E+004    1.15945E+006
            6508    2.86287E+006    3.23227E+006    3.23227E+006    8.87766E+005    4.17202E+004    3.19055E+006   -1.38725E+006    2.55810E+006    8.87863E+005    3.22896E+006    4.49345E+004    1.99432E+004    8.75056E+003    9.99802E+004
            6509    2.19332E+006    2.54371E+006    2.54371E+006    7.06541E+005    1.15399E+005    2.42831E+006   -1.12188E+006    2.00200E+006    7.04534E+005    2.50207E+006    1.59038E+005    1.83658E+004    3.95782E+004    3.13936E+005
            6510    1.56063E+006    1.85442E+006    1.85442E+006    5.20241E+005    1.38262E+005    1.71615E+006   -8.37640E+005    1.44975E+006    5.18489E+005    1.55001E+006    4.44424E+005    1.31944E+004    3.91133E+004    6.54354E+005
            6511    2.73939E+006    3.09096E+006    3.09096E+006    8.50178E+005    3.70581E+004    3.05390E+006   -1.32606E+006    2.44495E+006    8.50100E+005    3.09092E+006    3.71691E+004   -2.58785E+003    8.14378E+003   -9.49842E+003
            6512    2.01061E+006    2.39664E+006    2.39664E+006    6.89277E+005    1.80516E+005    2.21612E+006   -1.08881E+006    1.85733E+006    6.86522E+005    2.39579E+006    1.84121E+005   -3.08117E+003    3.74599E+004   -4.31676E+004
            6513    8.40365E+005    1.33354E+006    1.33354E+006    5.36864E+005    4.55409E+005    8.78126E+005   -7.75270E+005    8.31414E+005    4.74295E+005    1.33307E+006    5.18449E+005   -1.41975E+003    3.44158E+004   -1.94561E+004
            6514    2.92575E+006    3.30671E+006    3.30671E+006    9.07690E+005    4.72096E+004    3.25950E+006   -1.42054E+006    2.61753E+006    9.07886E+005    3.30144E+006    5.22831E+004   -2.51092E+004    8.97660E+003   -1.27549E+005
            6515    2.28669E+006    2.62710E+006    2.62710E+006    7.21107E+005    9.15926E+004    2.53551E+006   -1.14660E+006    2.07793E+006    7.19264E+005    2.57263E+006    1.47912E+005   -2.10371E+004    4.08257E+004   -3.66203E+005
            6516    1.66240E+006    1.93396E+006    1.93396E+006    5.31345E+005    9.77282E+004    1.83623E+006   -8.54345E+005    1.52719E+006    5.29839E+005    1.59808E+006    4.35115E+005   -1.34587E+004    3.97677E+004   -7.08747E+005
            6517    3.40111E+006    3.78282E+006    3.78282E+006    9.97048E+005   -7.39263E+003    3.79021E+006   -1.59082E+006    3.03956E+006    9.97875E+005    3.77213E+006    2.46406E+003   -4.97687E+004    1.15815E+004   -1.92212E+005
            6518    2.86361E+006    3.11897E+006    3.11897E+006    7.88854E+005   -7.78795E+004    3.19685E+006   -1.27665E+006    2.54238E+006    7.88359E+005    2.99139E+006    5.01916E+004   -4.37158E+004    4.76611E+004   -6.22695E+005
            6519    2.73035E+006    2.68273E+006    2.68273E+006    5.93145E+005   -4.06580E+005    3.08931E+006   -9.56430E+005    2.25978E+006    5.93160E+005    2.14284E+006    1.33295E+005   -3.13980E+004    5.26340E+004   -1.17160E+006
            6520    1.13110E+007    1.57176E+007    1.57176E+007    6.23222E+006    3.19923E+006    1.25183E+007   -8.38301E+006    1.03352E+007    6.23333E+006    1.52943E+007    3.62139E+006   -1.68760E+005   -3.82995E+004   -2.25534E+006
            6521    1.08261E+007    1.55203E+007    1.55203E+007    6.12801E+006    3.67966E+006    1.18406E+007   -8.44265E+006    1.01749E+007    6.12890E+006    1.54704E+007    3.72864E+006   -1.11285E+005   -2.36986E+004   -7.56876E+005
            6522    1.10626E+007    1.54648E+007    1.54648E+007    5.88639E+006    3.35633E+006    1.21085E+007   -8.23583E+006    1.03813E+007    5.88649E+006    1.54619E+007    3.35914E+006   -3.69394E+004   -1.00191E+004   -1.83278E+005
            6523    1.08344E+007    1.73102E+007    1.73102E+007    7.63851E+006    5.60207E+006    1.17081E+007   -1.01836E+007    1.03906E+007    7.64006E+006    1.70047E+007    5.90604E+006   -1.68703E+005   -2.24648E+004   -1.85798E+006
            6524    1.19475E+007    1.75355E+007    1.75355E+007    7.15080E+006    4.47804E+006    1.30575E+007   -9.72146E+006    1.12449E+007    7.15169E+006    1.75129E+007    4.49974E+006   -1.06983E+005   -1.87254E+004   -5.29396E+005
            6525    1.26235E+007    1.76288E+007    1.76288E+007    6.82679E+006    3.75192E+006    1.38769E+007   -9.40250E+006    1.17357E+007    6.82691E+006    1.76276E+007    3.75299E+006   -3.85618E+004   -7.69239E+003   -1.20870E+005
            6526    1.01547E+007    1.80728E+007    1.80728E+007    8.53589E+006    7.39635E+006    1.06764E+007   -1.13350E+007    1.00094E+007    8.53851E+006    1.80205E+007    7.44601E+006   -1.66922E+005   -6.32748E+003   -7.24395E+005
            6527    1.25874E+007    1.87019E+007    1.87019E+007    7.74735E+006    4.95171E+006    1.37502E+007   -1.04670E+007    1.18583E+007    7.74831E+006    1.86981E+007    4.95455E+006   -1.03492E+005   -6.15384E+003   -1.96627E+005
            6528    1.35380E+007    1.88953E+007    1.88953E+007    7.37513E+006    3.98418E+006    1.49111E+007   -1.00849E+007    1.25279E+007    7.37527E+006    1.88950E+007    3.98433E+006   -4.09953E+004   -3.06455E+003   -4.59761E+004
            6529    4.37509E+006    5.35002E+006    5.35002E+006    1.11920E+006    8.43691E+005    4.50633E+006   -2.43764E+006    4.35551E+006    1.11730E+006    5.33645E+006    8.59157E+005    2.54279E+004   -2.51730E+004   -2.45343E+005
            6530    5.12209E+006    6.69359E+006    6.69359E+006    1.82716E+006    1.34933E+006    5.34426E+006   -3.29003E+006    5.07158E+006    1.82665E+006    6.68428E+006    1.35915E+006    3.04848E+004   -1.96262E+004   -2.20445E+005
            6531    6.13275E+006    8.34574E+006    8.34574E+006    2.64517E+006    1.85700E+006    6.48874E+006   -4.28264E+006    6.01722E+006    2.64533E+006    8.33956E+006    1.86302E+006    3.83987E+004   -1.03977E+004   -1.95828E+005
            6532    7.52198E+006    1.04203E+007    1.04203E+007    3.60925E+006    2.34703E+006    8.07323E+006   -5.45885E+006    7.27797E+006    3.60963E+006    1.04170E+007    2.34988E+006    5.08453E+004   -3.54980E+002   -1.51495E+005
            6533    9.23423E+006    1.28447E+007    1.28447E+007    4.69016E+006    2.81774E+006    1.00269E+007   -6.78420E+006    8.79176E+006    4.69069E+006    1.28421E+007    2.81978E+006    6.79294E+004    7.61893E+003   -1.41534E+005
            6534    4.68277E+006    5.51714E+006    5.51714E+006    1.15843E+006    5.66578E+005    4.95056E+006   -2.41405E+006    4.59750E+006    1.15947E+006    5.42210E+006    6.60585E+005    6.66162E+004   -8.85675E+003   -6.75611E+005
            6535    5.44295E+006    6.84085E+006    6.84085E+006    1.84812E+006    1.03839E+006    5.80246E+006   -3.24245E+006    5.30490E+006    1.84901E+006    6.76501E+006    1.11334E+006    6.75647E+004   -3.10536E+003   -6.55046E+005
            6536    6.40252E+006    8.44058E+006    8.44058E+006    2.65253E+006    1.56332E+006    6.87726E+006   -4.21881E+006    6.18891E+006    2.65315E+006    8.39406E+006    1.60921E+006    6.55190E+004    5.12476E+003   -5.59283E+005
            6537    7.73162E+006    1.05042E+007    1.05042E+007    3.63681E+006    2.13022E+006    8.37403E+006   -5.42376E+006    7.39046E+006    3.63712E+006    1.04714E+007    2.16278E+006    5.71724E+004    1.18017E+004   -5.19931E+005
            6538    9.27281E+006    1.28683E+007    1.28683E+007    4.74802E+006    2.76410E+006    1.01042E+007   -6.79347E+006    8.77603E+006    4.74807E+006    1.28469E+007    2.78547E+006    4.06911E+004    1.53740E+004   -4.62548E+005
            6539    5.17905E+006    5.70737E+006    5.70737E+006    1.19197E+006    5.39379E+004    5.65343E+006   -2.31776E+006    4.88570E+006    1.19326E+006    5.55199E+006    2.08028E+005    1.00588E+005    1.37307E+004   -9.17984E+005
            6540    6.02174E+006    6.97486E+006    6.97486E+006    1.79356E+006    3.68381E+005    6.60648E+006   -3.04560E+006    5.62318E+006    1.79500E+006    6.85743E+006    4.84376E+005    1.09866E+005    1.83721E+004   -8.64717E+005
            6541    7.13010E+006    8.72145E+006    8.72145E+006    2.62606E+006    8.80732E+005    7.84071E+006   -4.07608E+006    6.62341E+006    2.62764E+006    8.61365E+006    9.86943E+005    1.20530E+005    2.05309E+004   -9.03331E+005
            6542    8.22891E+006    1.06931E+007    1.06931E+007    3.62596E+006    1.65894E+006    9.03417E+006   -5.32600E+006    7.67274E+006    3.62764E+006    1.05990E+007    1.75137E+006    1.29283E+005    2.09379E+004   -9.06149E+005
            6543    9.55741E+006    1.30416E+007    1.30416E+007    4.80294E+006    2.56328E+006    1.04784E+007   -6.80262E+006    8.93792E+006    4.80470E+006    1.29608E+007    2.64235E+006    1.37824E+005    2.05761E+004   -9.04003E+005
            6544    5.74209E+006    5.66969E+006    5.66969E+006    1.10631E+006   -7.77717E+005    6.44741E+006   -1.99943E+006    4.97179E+006    1.10664E+006    5.61326E+006   -7.21613E+005    1.15493E+005    5.57404E+004   -5.86193E+005
            6545    7.17649E+006    7.32919E+006    7.32919E+006    1.72841E+006   -7.60385E+005    8.08957E+006   -2.76574E+006    6.08527E+006    1.72888E+006    7.24384E+006   -6.75502E+005    1.30723E+005    6.22586E+004   -8.13053E+005
            6546    8.24441E+006    9.06611E+006    9.06611E+006    2.55858E+006   -2.05081E+005    9.27119E+006   -3.80653E+006    7.08382E+006    2.55912E+006    8.92669E+006   -6.62093E+004    1.42223E+005    6.12568E+004   -1.11700E+006
            6547    9.27730E+006    1.11202E+007    1.11202E+007    3.63737E+006    7.39945E+005    1.03802E+007   -5.16583E+006    8.16220E+006    3.63777E+006    1.09385E+007    9.21184E+005    1.50381E+005    6.16426E+004   -1.35091E+006
            6548    1.01580E+007    1.33403E+007    1.33403E+007    4.90902E+006    2.06275E+006    1.12775E+007   -6.77069E+006    9.19465E+006    4.90945E+006    1.31230E+007    2.27961E+006    1.53534E+005    5.56946E+004   -1.54123E+006
            6549    1.16857E+007    1.36839E+007    1.36839E+007    4.61209E+006    4.97339E+005    1.31865E+007   -6.26444E+006    9.84587E+006    4.61317E+006    1.32952E+007    8.84966E+005    1.63054E+005    5.06725E+004   -2.22292E+006
            6550    1.09171E+007    1.13753E+007    1.13753E+007    3.26684E+006   -1.03786E+006    1.24132E+007   -4.53476E+006    8.67344E+006    3.26782E+006    1.11845E+007   -8.48006E+005    1.58416E+005    6.79036E+004   -1.51614E+006
            6551    9.73408E+006    9.29782E+006    9.29782E+006    2.26700E+006   -1.81219E+006    1.11100E+007   -3.25088E+006    7.40870E+006    2.26791E+006    9.23773E+006   -1.75301E+006    1.47510E+005    7.83880E+004   -7.95264E+005
            6552    8.45000E+006    7.60822E+006    7.60822E+006    1.58994E+006   -2.05207E+006    9.66029E+006   -2.38203E+006    6.28105E+006    1.59061E+006    7.59612E+006   -2.04063E+006    1.32531E+005    8.41474E+004   -2.99519E+005
            6553    6.99752E+006    6.10875E+006    6.10875E+006    1.11497E+006   -1.88922E+006    7.99798E+006   -1.77817E+006    5.21948E+006    1.11535E+006    6.10090E+006   -1.88175E+006    1.15337E+005    8.75490E+004    2.01557E+005
            6554    5.81528E+006    4.83036E+006    4.83036E+006    7.17995E+005   -1.82297E+006    6.65333E+006   -1.24180E+006    4.26847E+006    7.18409E+005    4.75304E+006   -1.74606E+006    9.49841E+004    8.51466E+004    7.00833E+005
            6555    4.67290E+006    3.90954E+006    3.90954E+006    5.90193E+005   -1.43422E+006    5.34376E+006   -1.02184E+006    3.45740E+006    5.90627E+005    3.62043E+006   -1.14555E+006    6.96752E+004    7.85312E+004    1.20397E+006
            6556    3.95293E+006    3.90814E+006    3.90814E+006    7.66242E+005   -5.30219E+005    4.43836E+006   -1.38139E+006    3.42314E+006    7.66301E+005    3.86992E+006   -4.92062E+005    8.00765E+004    6.14996E+004    3.97357E+005
            6557    4.11773E+006    4.45175E+006    4.45175E+006    1.00468E+006   -1.07965E+005    4.55972E+006   -1.78282E+006    3.75656E+006    1.00697E+006    4.44905E+006   -1.07548E+005    9.30423E+004    1.66505E+004    2.90954E+004
            6558    4.46291E+006    4.36721E+006    4.36721E+006    7.77964E+005   -6.29834E+005    4.99705E+006   -1.50511E+006    3.91450E+006    7.77960E+005    4.36002E+006   -6.22638E+005    9.99446E+004    5.84978E+004   -1.49937E+005
            6559    4.09257E+006    4.35709E+006    4.35709E+006    8.14621E+005   -1.22885E+005    4.47998E+006   -1.68294E+006    3.83965E+006    8.17482E+005    4.34584E+006   -1.14494E+005    1.08910E+005    1.58043E+004   -1.88452E+005
            6560    3.82337E+006    4.00587E+006    4.00587E+006    5.33686E+005   -9.16058E+004    4.09747E+006   -1.48265E+006    3.70571E+006    5.36526E+005    3.97552E+006   -6.40963E+004    1.11703E+005    1.15147E+004   -3.30344E+005
            6561    3.37387E+006    3.45887E+006    3.45887E+006    1.95214E+005   -1.53462E+004    3.47422E+006   -1.21291E+006    3.35904E+006    1.97380E+005    3.41789E+006    2.34718E+004    9.99227E+004    2.86902E+003   -3.61031E+005
            6562    2.92718E+006    2.88959E+006    2.88959E+006    5.07914E+004   -1.18607E+005    3.00820E+006   -9.40593E+005    2.91612E+006   -1.16999E+005    2.86303E+006    7.57481E+004    6.92466E+004   -5.94974E+003   -2.64934E+005
            6563    2.65833E+006    2.52896E+006    2.52896E+006    9.14136E+004   -3.05520E+005    2.83448E+006   -7.71617E+005    2.59040E+006   -3.05101E+005    2.52495E+006    9.50029E+004    2.48964E+004   -9.77467E+003   -9.59624E+004
            6564    4.61592E+006    4.64401E+006    4.64401E+006    7.63333E+005   -4.60503E+005    5.10451E+006   -1.64895E+006    4.22718E+006    7.63858E+005    4.56699E+006   -3.84013E+005    1.04948E+005    3.74712E+004   -6.11693E+005
            6565    4.37570E+006    4.62375E+006    4.62375E+006    6.86057E+005   -8.69413E+004    4.71069E+006   -1.74095E+006    4.21796E+006    6.87454E+005    4.47958E+006    5.58238E+004    9.53091E+004    8.02888E+003   -8.05167E+005
            6566    3.96108E+006    4.33364E+006    4.33364E+006    5.46785E+005    2.18732E+005    4.11491E+006   -1.69972E+006    3.93034E+006    5.47904E+005    4.24184E+006    3.09408E+005    6.44285E+004   -1.17039E+004   -6.03944E+005
            6567    3.66288E+006    4.07572E+006    4.07572E+006    4.46868E+005    3.79730E+005    3.69599E+006   -1.63411E+006    3.66150E+006    4.39018E+005    4.06263E+006    4.00666E+005    2.30453E+004   -2.31710E+004   -2.17930E+005
            6568    4.87630E+006    6.26267E+006    6.26267E+006    1.62308E+006    1.17991E+006    5.08276E+006   -3.02189E+006    4.83068E+006    1.62280E+006    6.23731E+006    1.20555E+006   -3.30121E+004    1.76641E+004   -3.56324E+005
            6569    6.00130E+006    8.12420E+006    8.12420E+006    2.55673E+006    1.76722E+006    6.35698E+006   -4.14938E+006    5.88276E+006    2.55692E+006    8.11432E+006    1.77691E+006   -3.62160E+004    7.31664E+003   -2.47434E+005
            6570    7.57627E+006    1.04508E+007    1.04508E+007    3.63064E+006    2.29580E+006    8.15498E+006   -5.45907E+006    7.30465E+006    3.63083E+006    1.04396E+007    2.30678E+006   -3.72128E+004   -2.18338E+003   -2.98922E+005
            6571    9.25652E+006    1.29278E+007    1.29278E+007    4.76787E+006    2.86913E+006    1.00587E+007   -6.85493E+006    8.80224E+006    4.76799E+006    1.29224E+007    2.87439E+006   -3.61909E+004   -7.94151E+003   -2.28970E+005
            6572    5.66334E+006    6.57899E+006    6.57899E+006    1.63329E+006    4.00939E+005    6.17805E+006   -2.87107E+006    5.34905E+006    1.63454E+006    6.47165E+006    5.07018E+005   -9.96663E+004   -1.51582E+004   -8.00019E+005
            6573    7.07016E+006    8.73448E+006    8.73448E+006    2.65380E+006    9.76501E+005    7.75798E+006   -4.12159E+006    6.59986E+006    2.65497E+006    8.62308E+006    1.08673E+006   -1.09583E+005   -2.11350E+004   -9.15168E+005
            6574    8.16251E+006    1.07953E+007    1.07953E+007    3.73763E+006    1.85648E+006    8.93886E+006   -5.46315E+006    7.65165E+006    3.73871E+006    1.06918E+007    1.95890E+006   -1.13645E+005   -2.30698E+004   -9.48186E+005
            6575    9.51437E+006    1.31581E+007    1.31581E+007    4.92531E+006    2.74177E+006    1.04163E+007   -6.94172E+006    8.92411E+006    4.92620E+006    1.30805E+007    2.81849E+006   -1.13963E+005   -2.69399E+004   -8.87019E+005
            6576    1.10590E+007    1.35761E+007    1.35761E+007    4.75895E+006    1.16787E+006    1.24083E+007   -6.50099E+006    9.60956E+006    4.75975E+006    1.32266E+007    1.51657E+006   -1.64108E+005   -5.45363E+004   -2.04504E+006
            6577    1.02165E+007    1.13422E+007    1.13422E+007    3.47777E+006   -2.05136E+005    1.15473E+007   -4.87161E+006    8.51840E+006    3.47852E+006    1.11283E+007    8.04729E+003   -1.55179E+005   -6.39003E+004   -1.54719E+006
            6578    9.05583E+006    9.32791E+006    9.32791E+006    2.49223E+006   -9.42908E+005    1.02708E+007   -3.62574E+006    7.35974E+006    2.49284E+006    9.19546E+006   -8.11073E+005   -1.42628E+005   -6.76170E+004   -1.14712E+006
            6579    7.79924E+006    7.61511E+006    7.61511E+006    1.75416E+006   -1.23694E+006    8.85205E+006   -2.71078E+006    6.29989E+006    1.75469E+006    7.56537E+006   -1.18773E+006   -1.30280E+005   -7.04460E+004   -6.43682E+005
            6580    6.61432E+006    5.93002E+006    5.93002E+006    1.07398E+006   -1.60324E+006    7.53326E+006   -1.80025E+006    5.16529E+006    1.07450E+006    5.92686E+006   -1.60060E+006   -1.14879E+005   -7.52708E+004   -5.95645E+004
            6581    5.66900E+006    4.68582E+006    4.68582E+006    6.61584E+005   -1.79751E+006    6.48333E+006   -1.18330E+006    4.18948E+006    6.62007E+005    4.61151E+006   -1.72363E+006   -9.32592E+004   -8.27279E+004    6.78012E+005
            6582    4.66929E+006    3.94201E+006    3.94201E+006    6.04812E+005   -1.39395E+006    5.33596E+006   -1.05096E+006    3.49175E+006    6.05260E+005    3.69478E+006   -1.14716E+006   -7.33592E+004   -7.93047E+004    1.11609E+006
            6583    3.71473E+006    3.32984E+006    3.32984E+006    6.09839E+005   -9.02513E+005    4.23235E+006   -1.01239E+006    2.88915E+006    6.10177E+005    2.86403E+006   -4.37038E+005   -5.08102E+004   -6.81304E+004    1.32171E+006
            6584    3.43408E+006    3.56836E+006    3.56836E+006    8.04873E+005   -2.76158E+005    3.84451E+006   -1.36569E+006    3.01402E+006    8.04958E+005    3.46022E+006   -1.68103E+005   -6.44981E+004   -5.60845E+004    6.29810E+005
            6585    3.88973E+006    4.31283E+006    4.31283E+006    1.08597E+006   -6.24063E+003    4.31907E+006   -1.79752E+006    3.51914E+006    1.08765E+006    4.30267E+006    2.24201E+003   -7.54532E+004   -1.44005E+004    1.89914E+005
            6586    3.98932E+006    3.95473E+006    3.95473E+006    7.59336E+005   -5.16419E+005    4.47115E+006   -1.39922E+006    3.48397E+006    7.59569E+005    3.92452E+006   -4.86435E+005   -8.47997E+004   -6.05758E+004    3.50773E+005
            6587    4.26432E+006    4.57368E+006    4.57368E+006    9.95495E+005   -1.44886E+005    4.71857E+006   -1.80810E+006    3.89852E+006    9.98000E+005    4.57089E+006   -1.44598E+005   -9.92960E+004   -1.73281E+004    1.24233E+004
            6588    4.66909E+006    4.48171E+006    4.48171E+006    7.36695E+005   -7.49605E+005    5.23131E+006   -1.48960E+006    4.08365E+006    7.36657E+005    4.46741E+006   -7.35271E+005   -1.01770E+005   -5.79873E+004   -2.46816E+005
            6589    4.14008E+006    4.36460E+006    4.36460E+006    7.51227E+005   -1.52799E+005    4.51739E+006   -1.65434E+006    3.90864E+006    7.54233E+005    4.34428E+006   -1.35489E+005   -1.13927E+005   -1.47403E+004   -2.74773E+005
            6590    4.84732E+006    4.94777E+006    4.94777E+006    8.60412E+005   -4.07511E+005    5.35528E+006   -1.80022E+006    4.45073E+006    8.60653E+005    4.81776E+006   -2.77743E+005   -1.07978E+005   -3.71851E+004   -8.16098E+005
            6591    3.66067E+006    3.82164E+006    3.82164E+006    4.12143E+005   -4.69098E+004    3.86855E+006   -1.39562E+006    3.59506E+006    4.14845E+005    3.77814E+006   -6.11409E+003   -1.08476E+005   -6.56464E+003   -3.91715E+005
            6592    3.18922E+006    3.21596E+006    3.21596E+006    4.76272E+004    6.26573E+003    3.20970E+006   -1.08995E+006    3.18861E+006    4.82776E+004    3.17491E+006    4.66680E+004   -8.04920E+004    1.46362E+003   -3.51568E+005
            6593    2.77324E+006    2.73698E+006    2.73698E+006    1.43177E+005   -1.86276E+005    2.92325E+006   -8.97959E+005    2.72870E+006   -1.85732E+005    2.72743E+006    1.52183E+005   -3.08891E+004    1.00962E+004   -1.54302E+005
            6594    4.53316E+006    4.96083E+006    4.96083E+006    8.49689E+005    9.92944E+004    4.86154E+006   -1.96994E+006    4.39016E+006    8.50897E+005    4.82064E+006    2.38277E+005   -8.43230E+004   -4.09225E+003   -8.08718E+005
            6595    3.99842E+006    4.66480E+006    4.66480E+006    7.64727E+005    5.74809E+005    4.08999E+006   -2.00145E+006    3.98825E+006    7.63122E+005    4.63874E+006    6.02475E+005   -3.15502E+004    2.14095E+004   -3.23597E+005
            6596    1.16607E+007    1.58262E+007    1.58262E+007    6.18987E+006    2.86375E+006    1.29624E+007   -8.29326E+006    1.05114E+007    6.19099E+006    1.52770E+007    3.41179E+006    1.59686E+005    3.12716E+004   -2.60524E+006
            6597    1.08364E+007    1.55547E+007    1.55547E+007    6.27139E+006    3.64711E+006    1.19076E+007   -8.49106E+006    1.00836E+007    6.27197E+006    1.53569E+007    3.84430E+006    1.51496E+005    4.69746E+004   -1.51305E+006
            6598    1.08399E+007    1.54298E+007    1.54298E+007    6.03104E+006    3.57142E+006    1.18584E+007   -8.34408E+006    1.01833E+007    6.03300E+006    1.53711E+007    3.62816E+006    1.48107E+005    1.80805E+004   -8.15896E+005
            6599    1.09449E+007    1.53718E+007    1.53718E+007    5.89907E+006    3.39032E+006    1.19815E+007   -8.22041E+006    1.02677E+007    5.89903E+006    1.53587E+007    3.40348E+006    2.16458E+004    1.48028E+004   -3.95500E+005
            6600    1.10747E+007    1.54056E+007    1.54056E+007    5.81378E+006    3.28535E+006    1.21203E+007   -8.16825E+006    1.03951E+007    5.81448E+006    1.54039E+007    3.28639E+006    8.50207E+004    1.08239E+004   -1.09405E+005
            6601    1.07836E+007    1.73639E+007    1.73639E+007    7.72655E+006    5.71670E+006    1.16472E+007   -1.02690E+007    1.03496E+007    7.72784E+006    1.69348E+007    6.14452E+006    1.50313E+005    1.37326E+004   -2.18836E+006
            6602    1.11614E+007    1.73523E+007    1.73523E+007    7.48685E+006    5.23764E+006    1.21147E+007   -1.00256E+007    1.06334E+007    7.48795E+006    1.72393E+007    5.34962E+006    1.44495E+005    3.15390E+004   -1.15449E+006
            6603    1.19064E+007    1.75108E+007    1.75108E+007    7.12519E+006    4.51632E+006    1.29945E+007   -9.71745E+006    1.12360E+007    7.12751E+006    1.74801E+007    4.54469E+006    1.61309E+005    1.31618E+004   -6.04736E+005
            6604    1.23897E+007    1.75449E+007    1.75449E+007    6.89601E+006    3.94666E+006    1.35982E+007   -9.46251E+006    1.15596E+007    6.89597E+006    1.75393E+007    3.95223E+006    5.37742E+003    1.01889E+004   -2.74251E+005
            6605    1.26715E+007    1.76017E+007    1.76017E+007    6.76689E+006    3.66828E+006    1.39334E+007   -9.34562E+006    1.17730E+007    6.76773E+006    1.76003E+007    3.66877E+006    9.75791E+004    9.66403E+003   -8.01391E+004
            6606    9.66000E+006    1.79789E+007    1.79789E+007    8.72508E+006    7.95846E+006    1.00205E+007   -1.15542E+007    9.59120E+006    8.72695E+006    1.79009E+007    8.03465E+006    1.43210E+005    3.20479E+003   -8.68487E+005
            6607    1.12650E+007    1.83663E+007    1.83663E+007    8.20889E+006    6.25045E+006    1.21158E+007   -1.09419E+007    1.08721E+007    8.21066E+006    1.83488E+007    6.26613E+006    1.39268E+005    1.05394E+004   -4.33884E+005
            6608    1.25178E+007    1.87084E+007    1.87084E+007    7.75347E+006    5.06468E+006    1.36437E+007   -1.05088E+007    1.18416E+007    7.75598E+006    1.87023E+007    5.06830E+006    1.66671E+005    5.18168E+003   -2.21400E+005
            6609    1.32333E+007    1.88201E+007    1.88201E+007    7.48037E+006    4.28024E+006    1.45399E+007   -1.01936E+007    1.23168E+007    7.48037E+006    1.88193E+007    4.28108E+006   -6.48298E+003    3.27827E+003   -1.10560E+005
            6610    1.36237E+007    1.89127E+007    1.89127E+007    7.33485E+006    3.90035E+006    1.50123E+007   -1.00493E+007    1.25932E+007    7.33579E+006    1.89117E+007    3.90041E+006    1.04203E+005    3.95822E+003   -2.81581E+004
            6611    3.67322E+006    3.27181E+006    3.27181E+006    5.92764E+005   -9.15447E+005    4.18726E+006   -9.83042E+005    2.83948E+006    5.93111E+005    2.79206E+006   -4.36044E+005    4.92530E+004   -6.70503E+004   -1.33094E+006
            6612    3.31617E+006    3.45184E+006    3.45184E+006    7.89553E+005   -2.62817E+005    3.71466E+006   -1.32619E+006    2.90321E+006    7.89593E+005    3.33209E+006   -1.43103E+005    6.01356E+004   -5.43774E+004   -6.51071E+005
            6613    3.76771E+006    4.16122E+006    4.16122E+006    1.05507E+006   -2.99496E+004    4.19117E+006   -1.72878E+006    3.38856E+006    1.05649E+006    4.15138E+006   -2.15254E+004    6.83296E+004   -1.42008E+004   -1.86401E+005
            6614    2.66195E+006    2.61206E+006    2.61206E+006    5.75524E+005   -4.00033E+005    3.01210E+006   -9.29184E+005    2.20220E+006    5.75368E+005    2.06673E+006    1.45453E+005    2.78040E+004   -5.15486E+004   -1.15838E+006
            6615    2.70333E+006    2.97570E+006    2.97570E+006    7.65960E+005   -3.85525E+004    3.01426E+006   -1.23437E+006    2.41110E+006    7.65049E+005    2.85975E+006    7.83085E+004    3.69506E+004   -4.65638E+004   -5.77193E+005
            6616    3.26211E+006    3.65239E+006    3.65239E+006    9.78543E+005    1.77983E+004    3.63459E+006   -1.54958E+006    2.91741E+006    9.79179E+005    3.64202E+006    2.75329E+004    4.31734E+004   -1.08871E+004   -1.87076E+005
            6617    1.54904E+006    1.84461E+006    1.84461E+006    5.18308E+005    1.42133E+005    1.70248E+006   -8.35018E+005    1.44079E+006    5.16525E+005    1.54197E+006    4.46554E+005    1.30492E+004   -3.90051E+004   -6.49678E+005
            6618    2.19156E+006    2.54128E+006    2.54128E+006    7.05755E+005    1.14846E+005    2.42643E+006   -1.12063E+006    2.00022E+006    7.03726E+005    2.49986E+006    1.58289E+005    1.82288E+004   -3.96958E+004   -3.13007E+005
            6619    2.85910E+006    3.22791E+006    3.22791E+006    8.86661E+005    4.15114E+004    3.18640E+006   -1.38536E+006    2.55455E+006    8.86750E+005    3.22470E+006    4.46344E+004    1.94887E+004   -8.72831E+003   -9.84503E+004
            6620    8.40754E+005    1.33438E+006    1.33438E+006    5.37314E+005    4.55864E+005    8.78516E+005   -7.75852E+005    8.31808E+005    4.74790E+005    1.33327E+006    5.19493E+005   -1.60653E+003   -3.44763E+004    2.98751E+004
            6621    2.01088E+006    2.39759E+006    2.39759E+006    6.89833E+005    1.81245E+005    2.21634E+006   -1.08956E+006    1.85773E+006    6.87077E+005    2.39671E+006    1.84876E+005   -3.17565E+003   -3.74694E+004    4.37705E+004
            6622    2.74078E+006    3.09270E+006    3.09270E+006    8.50733E+005    3.72837E+004    3.05542E+006   -1.32691E+006    2.44625E+006    8.50655E+005    3.09266E+006    3.74018E+004   -2.93700E+003   -8.15523E+003    1.05700E+004
            6623    1.68203E+006    1.94570E+006    1.94570E+006    5.31080E+005    8.58394E+004    1.85986E+006   -8.54207E+005    1.54087E+006    5.29638E+005    1.60136E+006    4.31622E+005   -1.36727E+004   -3.99806E+004    7.21258E+005
            6624    2.28646E+006    2.62565E+006    2.62565E+006    7.19959E+005    9.03547E+004    2.53530E+006   -1.14532E+006    2.07761E+006    7.18109E+005    2.57107E+006    1.46785E+005   -2.11254E+004   -4.09259E+004    3.66522E+005
            6625    2.93506E+006    3.31606E+006    3.31606E+006    9.09674E+005    4.60942E+004    3.26997E+006   -1.42394E+006    2.62558E+006    9.09881E+005    3.31073E+006    5.12199E+004   -2.56272E+004   -8.92691E+003    1.28438E+005
            6626    2.74520E+006    2.69383E+006    2.69383E+006    5.94507E+005   -4.12710E+005    3.10654E+006   -9.58543E+005    2.26981E+006    5.94525E+005    2.15576E+006    1.25341E+005   -3.16644E+004   -5.28424E+004    1.17397E+006
            6627    2.85740E+006    3.11379E+006    3.11379E+006    7.87789E+005   -7.57871E+004    3.18957E+006   -1.27526E+006    2.53790E+006    7.87294E+005    2.98471E+006    5.37893E+004   -4.36469E+004   -4.76801E+004    6.25489E+005
            6628    3.41110E+006    3.79444E+006    3.79444E+006    1.00000E+006   -6.72021E+003    3.80116E+006   -1.59591E+006    3.04901E+006    1.00084E+006    3.78382E+006    3.05672E+003   -5.02618E+004   -1.16124E+004    1.91703E+005
            6629    1.10661E+007    1.53914E+007    1.53914E+007    5.80680E+006    3.28055E+006    1.21108E+007   -8.15958E+006    1.03872E+007    5.80750E+006    1.53897E+007    3.28156E+006    8.49494E+004   -1.09431E+004    1.07372E+005
            6630    1.09475E+007    1.53730E+007    1.53730E+007    5.89882E+006    3.38824E+006    1.19848E+007   -8.22002E+006    1.02694E+007    5.89877E+006    1.53598E+007    3.40149E+006    2.22896E+004   -1.47241E+004    3.96725E+005
            6631    1.08474E+007    1.54430E+007    1.54430E+007    6.03860E+006    3.57604E+006    1.18670E+007   -8.35255E+006    1.01896E+007    6.04057E+006    1.53834E+007    3.63363E+006    1.48692E+005   -1.84098E+004    8.22174E+005
            6632    1.08390E+007    1.55670E+007    1.55670E+007    6.28071E+006    3.65698E+006    1.19100E+007   -8.50155E+006    1.00867E+007    6.28129E+006    1.53656E+007    3.85773E+006    1.51631E+005   -4.67882E+004    1.52668E+006
            6633    1.16597E+007    1.58375E+007    1.58375E+007    6.19888E+006    2.87747E+006    1.29600E+007   -8.30462E+006    1.05137E+007    6.20001E+006    1.52875E+007    3.42634E+006    1.59520E+005   -3.09694E+004    2.60691E+006
            6634    1.26720E+007    1.76002E+007    1.76002E+007    6.76532E+006    3.66612E+006    1.39341E+007   -9.34388E+006    1.17731E+007    6.76617E+006    1.75988E+007    3.66663E+006    9.78624E+004   -9.65059E+003    8.15694E+004
            6635    1.23907E+007    1.75434E+007    1.75434E+007    6.89402E+006    3.94385E+006    1.35995E+007   -9.46041E+006    1.15602E+007    6.89398E+006    1.75379E+007    3.94937E+006    4.94449E+003   -1.01650E+004    2.73124E+005
            6636    1.19062E+007    1.75067E+007    1.75067E+007    7.12253E+006    4.51184E+006    1.29949E+007   -9.71370E+006    1.12348E+007    7.12481E+006    1.74760E+007    4.54030E+006    1.60185E+005   -1.31742E+004    6.05770E+005
            6637    1.11524E+007    1.73604E+007    1.73604E+007    7.49772E+006    5.25815E+006    1.21022E+007   -1.00387E+007    1.06286E+007    7.49881E+006    1.72451E+007    5.37229E+006    1.44544E+005   -3.14751E+004    1.16496E+006
            6638    1.07823E+007    1.73668E+007    1.73668E+007    7.72964E+006    5.72160E+006    1.16452E+007   -1.02727E+007    1.03490E+007    7.73094E+006    1.69325E+007    6.15458E+006    1.50435E+005   -1.34340E+004    2.20086E+006
            6639    1.36189E+007    1.89087E+007    1.89087E+007    7.33394E+006    3.90212E+006    1.50065E+007   -1.00482E+007    1.25897E+007    7.33487E+006    1.89077E+007    3.90218E+006    1.04423E+005   -3.99901E+003    2.73029E+004
            6640    1.32380E+007    1.88201E+007    1.88201E+007    7.47800E+006    4.27427E+006    1.45459E+007   -1.01908E+007    1.23197E+007    7.47800E+006    1.88193E+007    4.27510E+006   -6.50266E+003   -3.32973E+003    1.09529E+005
            6641    1.25174E+007    1.87107E+007    1.87107E+007    7.75534E+006    5.06770E+006    1.36430E+007   -1.05112E+007    1.18419E+007    7.75784E+006    1.87046E+007    5.07122E+006    1.66483E+005   -5.09578E+003    2.18204E+005
            6642    1.12503E+007    1.83549E+007    1.83549E+007    8.20749E+006    6.25685E+006    1.20981E+007   -1.09397E+007    1.08600E+007    8.20926E+006    1.83380E+007    6.27196E+006    1.39123E+005   -1.06062E+004    4.25547E+005
            6643    9.65602E+006    1.79609E+007    1.79609E+007    8.71352E+006    7.94243E+006    1.00184E+007   -1.15389E+007    9.58638E+006    8.71540E+006    1.78823E+007    8.01909E+006    1.43182E+005   -3.05523E+003    8.71147E+005
            6644    6.99645E+006    6.10925E+006    6.10925E+006    1.11587E+006   -1.88743E+006    7.99668E+006   -1.77923E+006    5.21932E+006    1.11625E+006    6.10165E+006   -1.88022E+006    1.15442E+005   -8.75053E+004   -1.96409E+005
            6645    8.45779E+006    7.61192E+006    7.61192E+006    1.59034E+006   -2.05768E+006    9.66960E+006   -2.38152E+006    6.28276E+006    1.59100E+006    7.59970E+006   -2.04613E+006    1.32516E+005   -8.41977E+004    3.01450E+005
            6646    9.75161E+006    9.32175E+006    9.32175E+006    2.27768E+006   -1.80816E+006    1.11299E+007   -3.26376E+006    7.42305E+006    2.27859E+006    9.26046E+006   -1.74778E+006    1.47525E+005   -7.82144E+004    8.04284E+005
            6647    1.09299E+007    1.14067E+007    1.14067E+007    3.28383E+006   -1.02003E+006    1.24267E+007   -4.55682E+006    8.69115E+006    3.28482E+006    1.12129E+007   -8.27284E+005    1.58527E+005   -6.74232E+004    1.52848E+006
            6648    1.16810E+007    1.37052E+007    1.37052E+007    4.62962E+006    5.26166E+005    1.31790E+007   -6.28699E+006    9.85174E+006    4.63069E+006    1.33133E+007    9.17033E+005    1.63052E+005   -5.03430E+004    2.23130E+006
            6649    1.01654E+007    1.33332E+007    1.33332E+007    4.90106E+006    2.04531E+006    1.12879E+007   -6.75985E+006    9.19594E+006    4.90148E+006    1.31159E+007    2.26217E+006    1.53590E+005   -5.59573E+004    1.54194E+006
            6650    9.55285E+006    1.30282E+007    1.30282E+007    4.79584E+006    2.55364E+006    1.04745E+007   -6.79255E+006    8.93154E+006    4.79763E+006    1.29464E+007    2.63362E+006    1.38795E+005   -2.08006E+004    9.08924E+005
            6651    9.27141E+006    1.28666E+007    1.28666E+007    4.74801E+006    2.76375E+006    1.01029E+007   -6.79280E+006    8.77438E+006    4.74807E+006    1.28449E+007    2.78540E+006    4.14669E+004   -1.54334E+004    4.65518E+005
            6652    9.23259E+006    1.28433E+007    1.28433E+007    4.68995E+006    2.81831E+006    1.00250E+007   -6.78386E+006    8.79043E+006    4.69047E+006    1.28407E+007    2.82040E+006    6.78205E+004   -7.54818E+003    1.43141E+005
            6653    9.26539E+006    1.10847E+007    1.10847E+007    3.61657E+006    7.16088E+005    1.03686E+007   -5.13913E+006    8.14595E+006    3.61698E+006    1.09039E+007    8.96522E+005    1.50272E+005   -6.15988E+004    1.34718E+006
            6654    8.23065E+006    1.06747E+007    1.06747E+007    3.61223E+006    1.63582E+006    9.03892E+006   -5.30759E+006    7.66900E+006    3.61392E+006    1.05791E+007    1.72977E+006    1.29774E+005   -2.12907E+004    9.13717E+005
            6655    7.73360E+006    1.05013E+007    1.05013E+007    3.63450E+006    2.12378E+006    8.37749E+006   -5.41985E+006    7.39060E+006    3.63481E+006    1.04677E+007    2.15702E+006    5.73836E+004   -1.19192E+004    5.25318E+005
            6656    7.52002E+006    1.04211E+007    1.04211E+007    3.61112E+006    2.35042E+006    8.07069E+006   -5.46088E+006    7.27654E+006    3.61151E+006    1.04179E+007    2.35328E+006    5.12407E+004    3.28023E+002    1.52077E+005
            6657    8.21913E+006    9.01564E+006    9.01564E+006    2.53349E+006   -2.28790E+005    9.24443E+006   -3.77345E+006    7.05535E+006    2.53402E+006    8.87815E+006   -9.18279E+004    1.42099E+005   -6.16905E+004    1.10758E+006
            6658    7.11815E+006    8.68505E+006    8.68505E+006    2.60547E+006    8.54947E+005    7.83010E+006   -4.04849E+006    6.60731E+006    2.60706E+006    8.57679E+006    9.61615E+005    1.20895E+005   -2.08526E+004    9.04579E+005
            6659    6.42380E+006    8.46272E+006    8.46272E+006    2.66099E+006    1.55933E+006    6.90339E+006   -4.22768E+006    6.20591E+006    2.66162E+006    8.41481E+006    1.60661E+006    6.61062E+004   -5.25082E+003    5.68654E+005
            6660    6.15737E+006    8.38008E+006    8.38008E+006    2.66075E+006    1.86253E+006    6.51756E+006   -4.30112E+006    6.03932E+006    2.66092E+006    8.37343E+006    1.86901E+006    3.89953E+004    1.01772E+004    2.03927E+005
            6661    7.17218E+006    7.31343E+006    7.31343E+006    1.72030E+006   -7.72543E+005    8.08597E+006   -2.75373E+006    6.07607E+006    1.72076E+006    7.22851E+006   -6.88090E+005    1.30672E+005   -6.23648E+004    8.10776E+005
            6662    6.01861E+006    6.96654E+006    6.96654E+006    1.78942E+006    3.62796E+005    6.60374E+006   -3.03959E+006    5.61897E+006    1.79087E+006    6.84930E+006    4.78590E+005    1.10068E+005   -1.84228E+004    8.63785E+005
            6663    5.45714E+006    6.85690E+006    6.85690E+006    1.85495E+006    1.03692E+006    5.81998E+006   -3.24959E+006    5.31657E+006    1.85584E+006    6.78190E+006    1.11102E+006    6.80597E+004    2.63824E+003    6.52344E+005
            6664    5.14255E+006    6.73251E+006    6.73251E+006    1.84846E+006    1.36553E+006    5.36698E+006   -3.31550E+006    5.09116E+006    1.84797E+006    6.72384E+006    1.37470E+006    3.05400E+004    1.95146E+004    2.13067E+005
            6665    5.74087E+006    5.66434E+006    5.66434E+006    1.10283E+006   -7.81990E+005    6.44633E+006   -1.99506E+006    4.96964E+006    1.10316E+006    5.60841E+006   -7.26394E+005    1.15462E+005   -5.58066E+004    5.83386E+005
            6666    5.17064E+006    5.70752E+006    5.70752E+006    1.19468E+006    6.56512E+004    5.64187E+006   -2.32262E+006    4.88161E+006    1.19597E+006    5.55192E+006    2.19957E+005    1.00391E+005   -1.33556E+004    9.17685E+005
            6667    4.69471E+006    5.53300E+006    5.53300E+006    1.16500E+006    5.68572E+005    4.96443E+006   -2.42219E+006    4.60832E+006    1.16603E+006    5.43846E+006    6.62089E+005    6.62726E+004    8.99887E+003    6.74847E+005
            6668    4.38882E+006    5.37831E+006    5.37831E+006    1.13567E+006    8.56625E+005    4.52169E+006   -2.45687E+006    4.36880E+006    1.13382E+006    5.36379E+006    8.72994E+005    2.56290E+004    2.51176E+004    2.54286E+005
            6669    3.68133E+006    4.10383E+006    4.10383E+006    4.59988E+005    3.86135E+005    3.71770E+006   -1.64999E+006    3.67966E+006    4.52994E+005    4.09063E+006    4.06338E+005    2.31647E+004    2.32648E+004    2.19612E+005
            6670    2.66271E+006    2.53625E+006    2.53625E+006    9.22541E+004   -3.01350E+005    2.83760E+006   -7.75719E+005    2.59605E+006   -3.00924E+005    2.53223E+006    9.58499E+004    2.50507E+004    9.82744E+003    9.62201E+004
            6671    3.95879E+006    4.33515E+006    4.33515E+006    5.48834E+005    2.23924E+005    4.11123E+006   -1.70264E+006    3.92862E+006    5.49943E+005    4.24355E+006    3.14417E+005    6.41593E+004    1.18235E+004    6.03065E+005
            6672    2.93057E+006    2.89563E+006    2.89563E+006    5.23175E+004   -1.15022E+005    3.01065E+006   -9.44308E+005    2.91979E+006   -1.13403E+005    2.86879E+006    7.75390E+004    6.95092E+004    6.05419E+003    2.66533E+005
            6673    4.36761E+006    4.61715E+006    4.61715E+006    6.83904E+005   -8.31941E+004    4.70034E+006   -1.73929E+006    4.21204E+006    6.85292E+005    4.47247E+006    6.01017E+004    9.49755E+004   -7.90112E+003    8.05718E+005
            6674    3.37784E+006    3.46151E+006    3.46151E+006    1.95587E+005   -1.81023E+004    3.47961E+006   -1.21300E+006    3.36258E+006    1.97755E+005    3.42078E+006    2.04560E+004    9.99623E+004   -2.99024E+003    3.60101E+005
            6675    4.61278E+006    4.64165E+006    4.64165E+006    7.62738E+005   -4.59021E+005    5.10067E+006   -1.64845E+006    4.22515E+006    7.63257E+005    4.56408E+006   -3.81970E+005    1.04928E+005   -3.74472E+004    6.13706E+005
            6676    3.82030E+006    4.00604E+006    4.00604E+006    5.35527E+005   -8.74658E+004    4.09351E+006   -1.48470E+006    3.70342E+006    5.38368E+005    3.97577E+006   -6.00344E+004    1.11629E+005   -1.14354E+004    3.29727E+005
            6677    4.09538E+006    4.35906E+006    4.35906E+006    8.16226E+005   -1.24992E+005    4.48405E+006   -1.68343E+006    3.84055E+006    8.19077E+005    4.34791E+006   -1.16695E+005    1.08717E+005   -1.58395E+004    1.87438E+005
            6678    4.11430E+006    4.44956E+006    4.44956E+006    1.00707E+006   -1.07075E+005    4.55664E+006   -1.78319E+006    3.75175E+006    1.00934E+006    4.44681E+006   -1.06589E+005    9.25449E+004   -1.66341E+004   -3.42687E+004
            6679    4.45980E+006    4.36268E+006    4.36268E+006    7.76395E+005   -6.31049E+005    4.99372E+006   -1.50267E+006    3.91123E+006    7.76392E+005    4.35572E+006   -6.24091E+005    9.98047E+004   -5.85209E+004    1.45953E+005
            6680    3.94140E+006    3.90077E+006    3.90077E+006    7.66625E+005   -5.24184E+005    4.42495E+006   -1.38107E+006    3.41485E+006    7.66685E+005    3.86175E+006   -4.85233E+005    7.97673E+004   -6.13480E+004   -4.01121E+005
            6681    4.68604E+006    3.91676E+006    3.91676E+006    5.89738E+005   -1.44231E+006    5.35907E+006   -1.02140E+006    3.46409E+006    5.90173E+005    3.62747E+006   -1.15344E+006    6.98240E+004   -7.87213E+004   -1.20617E+006
            6682    5.83645E+006    4.83982E+006    4.83982E+006    7.15365E+005   -1.83822E+006    6.67804E+006   -1.23899E+006    4.27862E+006    7.15782E+005    4.76277E+006   -1.76159E+006    9.52031E+004   -8.52958E+004   -7.00877E+005
            6683    7.80490E+006    7.61046E+006    7.61046E+006    1.76255E+006   -1.25218E+006    8.86264E+006   -2.70695E+006    6.27862E+006    1.76264E+006    7.56257E+006   -1.20436E+006   -4.44552E+004    2.30332E+004    6.47640E+005
            6684    9.08197E+006    9.34623E+006    9.34623E+006    2.50931E+006   -9.58778E+005    1.03050E+007   -3.63225E+006    7.35382E+006    2.50939E+006    9.21455E+006   -8.27177E+005   -4.88669E+004    2.27855E+004    1.15606E+006
            6685    1.02421E+007    1.13719E+007    1.13719E+007    3.50529E+006   -2.09225E+005    1.15811E+007   -4.88930E+006    8.51573E+006    3.50536E+006    1.11568E+007    5.77613E+003   -5.20152E+004    2.24156E+004    1.56238E+006
            6686    1.10764E+007    1.36095E+007    1.36095E+007    4.79313E+006    1.17690E+006    1.24326E+007   -6.52650E+006    9.60700E+006    4.79318E+006    1.32599E+007    1.52638E+006   -5.35939E+004    1.96398E+004    2.05426E+006
            6687    9.49275E+006    1.31327E+007    1.31327E+007    4.95589E+006    2.72232E+006    1.04104E+007   -6.93697E+006    8.87215E+006    4.95600E+006    1.30552E+007    2.79970E+006   -3.37682E+004    5.57466E+003    8.93961E+005
            6688    9.18944E+006    1.28628E+007    1.28628E+007    4.79568E+006    2.85957E+006    1.00032E+007   -6.83935E+006    8.71264E+006    4.79570E+006    1.28573E+007    2.86508E+006   -1.60884E+004    4.05903E+003    2.34463E+005
            6689    8.14579E+006    1.07700E+007    1.07700E+007    3.76398E+006    1.83187E+006    8.93814E+006   -5.45528E+006    7.60417E+006    3.76406E+006    1.06661E+007    1.93568E+006   -3.37606E+004    8.09314E+003    9.57315E+005
            6690    7.51764E+006    1.03940E+007    1.03940E+007    3.65757E+006    2.28441E+006    8.10956E+006   -5.44532E+006    7.22736E+006    3.65760E+006    1.03824E+007    2.29594E+006   -1.53825E+004    1.62283E+003    3.05512E+005
            6691    7.04989E+006    8.71897E+006    8.71897E+006    2.68452E+006    9.69938E+005    7.74904E+006   -4.12448E+006    6.55570E+006    2.68463E+006    8.60790E+006    1.08090E+006   -3.33232E+004    6.38842E+003    9.20367E+005
            6692    5.97917E+006    8.11533E+006    8.11533E+006    2.59823E+006    1.76212E+006    6.35322E+006   -4.15856E+006    5.84547E+006    2.59827E+006    8.10520E+006    1.77221E+006   -1.43580E+004   -1.58667E+003    2.53062E+005
            6693    5.65814E+006    6.58047E+006    6.58047E+006    1.66419E+006    3.95778E+005    6.18470E+006   -2.88015E+006    5.32398E+006    1.66429E+006    6.47203E+006    5.04119E+005   -3.05542E+004    5.86572E+003    8.11070E+005
            6694    4.86492E+006    6.26979E+006    6.26979E+006    1.66398E+006    1.18168E+006    5.08811E+006   -3.03848E+006    4.81069E+006    1.66399E+006    6.24432E+006    1.20714E+006   -1.32551E+004   -4.97764E+003    3.58768E+005
            6695    3.98869E+006    4.67248E+006    4.67248E+006    7.96317E+005    5.80058E+005    4.09242E+006   -2.01629E+006    3.97547E+006    7.96206E+005    4.64613E+006    6.06520E+005   -1.07344E+004   -6.45451E+003    3.27121E+005
            6696    2.75271E+006    2.72967E+006    2.72967E+006    1.44625E+005   -1.64605E+005    2.89427E+006   -9.03228E+005    2.71322E+006   -1.64550E+005    2.72039E+006    1.53846E+005   -9.97611E+003   -3.05411E+003    1.54274E+005
            6697    4.52730E+006    4.96203E+006    4.96203E+006    8.73562E+005    9.64883E+004    4.86554E+006   -1.97736E+006    4.37347E+006    8.73686E+005    4.82074E+006    2.37653E+005   -2.76072E+004    1.74965E+003    8.16479E+005
            6698    3.17102E+006    3.20555E+006    3.20555E+006    6.39440E+004    5.91845E+003    3.19964E+006   -1.09181E+006    3.16983E+006    6.40381E+004    3.16569E+006    4.56840E+004   -2.69261E+004   -2.10365E+002    3.53866E+005
            6699    3.64806E+006    3.81101E+006    3.81101E+006    4.25352E+005   -5.23794E+004    3.86339E+006   -1.39466E+006    3.57667E+006    4.25618E+005    3.76955E+006   -1.11899E+004   -3.63423E+004    3.58525E+003    3.96221E+005
            6700    4.13920E+006    4.36146E+006    4.36146E+006    7.62200E+005   -1.61578E+005    4.52304E+006   -1.65403E+006    3.89701E+006    7.62507E+005    4.34357E+006   -1.43995E+005   -3.82586E+004    6.74017E+003    2.80728E+005
            6701    4.27251E+006    4.58324E+006    4.58324E+006    1.01054E+006   -1.49497E+005    4.73273E+006   -1.81476E+006    3.89388E+006    1.01079E+006    4.58290E+006   -1.49418E+005   -3.34360E+004    8.16711E+003   -1.01881E+004
            6702    3.89835E+006    4.31778E+006    4.31778E+006    1.09674E+006   -1.59324E+004    4.33372E+006   -1.79953E+006    3.51357E+006    1.09691E+006    4.30932E+006   -7.63693E+003   -2.55235E+004    7.81099E+003   -1.88960E+005
            6703    4.84643E+006    4.94903E+006    4.94903E+006    8.73744E+005   -4.10057E+005    5.35908E+006   -1.80424E+006    4.43906E+006    8.73849E+005    4.81925E+006   -2.80381E+005   -3.52524E+004    9.34586E+003    8.22928E+005
            6704    4.65982E+006    4.48497E+006    4.48497E+006    7.48782E+005   -7.36425E+005    5.22139E+006   -1.49911E+006    4.07391E+006    7.48899E+005    4.47234E+006   -7.23909E+005   -3.31202E+004    1.40340E+004    2.53644E+005
            6705    3.98293E+006    3.95791E+006    3.95791E+006    7.66823E+005   -5.05820E+005    4.46373E+006   -1.40630E+006    3.47934E+006    7.66978E+005    3.93036E+006   -4.78426E+005   -2.69132E+004    1.27041E+004   -3.48039E+005
            6706    3.43206E+006    3.57808E+006    3.57808E+006    8.14537E+005   -2.63605E+005    3.84168E+006   -1.37634E+006    3.01419E+006    8.14686E+005    3.47139E+006   -1.57066E+005   -2.10434E+004    9.39645E+003   -6.30717E+005
            6707    3.71426E+006    3.32601E+006    3.32601E+006    6.08449E+005   -9.06253E+005    4.23226E+006   -1.00940E+006    2.88535E+006    6.08314E+005    2.85987E+006   -4.39975E+005   -1.91116E+004    3.45601E+004   -1.32444E+006
            6708    4.68543E+006    3.94867E+006    3.94867E+006    6.04565E+005   -1.40659E+006    5.35526E+006   -1.04888E+006    3.49550E+006    6.04449E+005    3.70416E+006   -1.16197E+006   -2.62502E+004    3.65297E+004   -1.11705E+006
            6709    5.68102E+006    4.68865E+006    4.68865E+006    6.62522E+005   -1.80958E+006    6.49823E+006   -1.18053E+006    4.18611E+006    6.62443E+005    4.61807E+006   -1.73892E+006   -3.20679E+004    3.46400E+004   -6.72059E+005
            6710    6.61390E+006    5.92810E+006    5.92810E+006    1.08097E+006   -1.60649E+006    7.53460E+006   -1.80086E+006    5.15101E+006    1.08094E+006    5.92721E+006   -1.60557E+006   -3.91097E+004    2.98656E+004    6.60934E+004
            6711    1.10224E+007    1.54411E+007    1.54411E+007    5.93570E+006    3.35836E+006    1.20827E+007   -8.24506E+006    1.03113E+007    5.93572E+006    1.54380E+007    3.36142E+006   -1.57065E+004    5.02908E+003    1.91867E+005
            6712    1.08065E+007    1.55133E+007    1.55133E+007    6.16965E+006    3.67891E+006    1.18344E+007   -8.45394E+006    1.01300E+007    6.16974E+006    1.54622E+007    3.72991E+006   -3.35231E+004    4.93304E+003    7.75057E+005
            6713    1.13202E+007    1.57391E+007    1.57391E+007    6.26449E+006    3.20307E+006    1.25360E+007   -8.40221E+006    1.03255E+007    6.26449E+006    1.53165E+007    3.62562E+006   -5.24782E+004    1.77069E+004    2.26178E+006
            6714    1.25977E+007    1.76279E+007    1.76279E+007    6.88875E+006    3.76104E+006    1.38669E+007   -9.42591E+006    1.16752E+007    6.88876E+006    1.76268E+007    3.76218E+006   -1.42210E+004    4.41071E+003    1.25383E+005
            6715    1.19230E+007    1.75469E+007    1.75469E+007    7.20450E+006    4.50589E+006    1.30410E+007   -9.75243E+006    1.12045E+007    7.20461E+006    1.75251E+007    4.52763E+006   -3.40712E+004    8.68287E+002    5.32046E+005
            6716    1.08513E+007    1.73338E+007    1.73338E+007    7.67256E+006    5.59330E+006    1.17405E+007   -1.01999E+007    1.03888E+007    7.67261E+006    1.70281E+007    5.89894E+006   -4.92352E+004    1.14445E+004    1.86892E+006
            6717    1.35228E+007    1.89102E+007    1.89102E+007    7.44531E+006    3.99713E+006    1.49131E+007   -1.01175E+007    1.24749E+007    7.44533E+006    1.89100E+007    3.99729E+006   -1.20302E+004    1.59088E+003    4.87347E+004
            6718    1.25729E+007    1.87195E+007    1.87195E+007    7.79676E+006    4.97562E+006    1.37438E+007   -1.04973E+007    1.18290E+007    7.79687E+006    1.87169E+007    4.97811E+006   -3.49317E+004    9.42309E+002    1.84965E+005
            6719    1.01603E+007    1.81014E+007    1.81014E+007    8.58214E+006    7.40304E+006    1.06984E+007   -1.13622E+007    1.00046E+007    8.58231E+006    1.80487E+007    7.45561E+006   -4.66022E+004    5.12400E+003    7.47674E+005
            6720    3.79083E+006    4.17994E+006    4.17994E+006    1.06621E+006   -4.13016E+004    4.22124E+006   -1.73495E+006    3.39722E+006    1.06635E+006    4.17166E+006   -3.31676E+004    2.33649E+004    7.71950E+003    1.84656E+005
            6721    3.32588E+006    3.46591E+006    3.46591E+006    7.96051E+005   -2.59699E+005    3.72561E+006   -1.33409E+006    2.91145E+006    7.96160E+005    3.34677E+006   -1.40666E+005    1.80671E+004    9.29199E+003    6.55108E+005
            6722    3.67089E+006    3.27246E+006    3.27246E+006    5.94820E+005   -9.12083E+005    4.18454E+006   -9.85064E+005    2.83816E+006    5.94640E+005    2.79605E+006   -4.35494E+005    1.74654E+004    3.47057E+004    1.32863E+006
            6723    3.28404E+006    3.67065E+006    3.67065E+006    9.88967E+005    7.88580E+003    3.66277E+006   -1.55584E+006    2.92605E+006    9.89013E+005    3.66080E+006    1.76953E+004    1.48483E+004    6.98262E+003    1.88916E+005
            6724    2.70884E+006    2.98959E+006    2.98959E+006    7.72696E+005   -2.98493E+004    3.01944E+006   -1.24414E+006    2.41887E+006    7.72770E+005    2.87303E+006    8.66341E+004    1.27804E+004    5.47779E+003    5.81469E+005
            6725    2.67125E+006    2.61759E+006    2.61759E+006    5.74437E+005   -4.05154E+005    3.02275E+006   -9.28959E+005    2.20920E+006    5.74195E+005    2.07327E+006    1.39417E+005    1.16627E+004    3.01119E+004    1.16109E+006
            6726    2.87368E+006    3.23865E+006    3.23865E+006    8.94083E+005    3.28132E+004    3.20583E+006   -1.38851E+006    2.55820E+006    8.94061E+005    3.23551E+006    3.59728E+004    6.68167E+003    6.27343E+003    9.99115E+004
            6727    2.19595E+006    2.55384E+006    2.55384E+006    7.10866E+005    1.24114E+005    2.42973E+006   -1.12961E+006    2.00792E+006    7.10863E+005    2.51237E+006    1.65589E+005    4.50651E+003    3.66052E+003    3.14666E+005
            6728    1.56333E+006    1.85732E+006    1.85732E+006    5.19028E+005    1.39013E+005    1.71830E+006   -8.38453E+005    1.45386E+006    5.18010E+005    1.55308E+006    4.44265E+005    4.19935E+003    2.51950E+004    6.55463E+005
            6729    2.75011E+006    3.09714E+006    3.09714E+006    8.56003E+005    2.82073E+004    3.06893E+006   -1.32712E+006    2.44533E+006    8.55960E+005    3.09711E+006    2.82797E+004   -8.16513E+002    6.01426E+003   -9.38829E+003
            6730    2.01345E+006    2.40680E+006    2.40680E+006    6.92589E+005    1.89520E+005    2.21728E+006   -1.09630E+006    1.86401E+006    6.92569E+005    2.40596E+006    1.90383E+005    3.51468E+002    3.13270E+003   -4.32395E+004
            6731    8.42499E+005    1.33666E+006    1.33666E+006    5.28325E+005    4.63712E+005    8.72945E+005   -7.76231E+005    8.36897E+005    4.73761E+005    1.33620E+006    5.18738E+005    1.69945E+002    2.34183E+004   -1.94361E+004
            6732    2.93669E+006    3.31314E+006    3.31314E+006    9.14207E+005    3.81001E+004    3.27504E+006   -1.42182E+006    2.61753E+006    9.14198E+005    3.30815E+006    4.31052E+004   -8.64642E+003    6.40161E+003   -1.27395E+005
            6733    2.28934E+006    2.63735E+006    2.63735E+006    7.25888E+005    1.00218E+005    2.53713E+006   -1.15448E+006    2.08358E+006    7.25910E+005    2.58294E+006    1.54603E+005   -7.60792E+003    3.85419E+003   -3.67413E+005
            6734    1.66529E+006    1.93687E+006    1.93687E+006    5.30056E+005    9.81972E+004    1.83867E+006   -8.55041E+005    1.53151E+006    5.29289E+005    1.60101E+006    4.34825E+005   -6.18627E+003    2.54166E+004   -7.10017E+005
            6735    3.41233E+006    3.78977E+006    3.78977E+006    1.00532E+006   -1.68109E+004    3.80658E+006   -1.59276E+006    3.03818E+006    1.00538E+006    3.77995E+006   -7.06264E+003   -1.67936E+004    7.14330E+003   -1.92002E+005
            6736    2.86661E+006    3.13053E+006    3.13053E+006    7.95725E+005   -6.88682E+004    3.19939E+006   -1.28579E+006    2.54753E+006    7.95793E+005    3.00354E+006    5.80476E+004   -1.28384E+004    6.13300E+003   -6.24414E+005
            6737    2.73419E+006    2.68598E+006    2.68598E+006    5.93097E+005   -4.07571E+005    3.09356E+006   -9.57170E+005    2.26346E+006    5.92827E+005    2.14673E+006    1.31950E+005   -1.15082E+004    3.05639E+004   -1.17323E+006
            6738    1.13232E+007    1.57456E+007    1.57456E+007    6.26799E+006    3.20644E+006    1.25391E+007   -8.40667E+006    1.03287E+007    6.26800E+006    1.53221E+007    3.62992E+006   -5.24923E+004   -1.76474E+004   -2.26446E+006
            6739    1.08145E+007    1.55286E+007    1.55286E+007    6.17709E+006    3.68581E+006    1.18428E+007   -8.46383E+006    1.01383E+007    6.17718E+006    1.54796E+007    3.73469E+006   -3.34599E+004   -4.88372E+003   -7.59102E+005
            6740    1.10474E+007    1.54764E+007    1.54764E+007    5.95116E+006    3.36539E+006    1.21110E+007   -8.26431E+006    1.03331E+007    5.95117E+006    1.54734E+007    3.36837E+006   -1.56920E+004   -5.00950E+003   -1.89537E+005
            6741    1.08378E+007    1.73404E+007    1.73404E+007    7.68381E+006    5.61865E+006    1.17218E+007   -1.02143E+007    1.03812E+007    7.68386E+006    1.70357E+007    5.92333E+006   -4.92804E+004   -1.12988E+004   -1.86454E+006
            6742    1.19376E+007    1.75457E+007    1.75457E+007    7.19666E+006    4.48584E+006    1.30599E+007   -9.74275E+006    1.12133E+007    7.19677E+006    1.75241E+007    4.50735E+006   -3.40494E+004   -9.37496E+002   -5.29557E+005
            6743    1.26073E+007    1.76418E+007    1.76418E+007    6.89488E+006    3.76409E+006    1.38777E+007   -9.43358E+006    1.16837E+007    6.89490E+006    1.76406E+007    3.76524E+006   -1.41656E+004   -4.39069E+003   -1.26157E+005
            6744    1.01494E+007    1.81023E+007    1.81023E+007    8.58809E+006    7.41895E+006    1.06834E+007   -1.13698E+007    9.99624E+006    8.58826E+006    1.80524E+007    7.46868E+006   -4.65928E+004   -4.95365E+003   -7.26835E+005
            6745    1.25803E+007    1.87141E+007    1.87141E+007    7.78924E+006    4.96003E+006    1.37540E+007   -1.04878E+007    1.18324E+007    7.78935E+006    1.87111E+007    4.96284E+006   -3.49231E+004   -1.07875E+003   -1.96679E+005
            6746    1.35202E+007    1.89085E+007    1.89085E+007    7.44522E+006    3.99859E+006    1.49099E+007   -1.01174E+007    1.24730E+007    7.44523E+006    1.89083E+007    3.99875E+006   -1.20247E+004   -1.58068E+003   -4.82448E+004
            6747    4.35842E+006    5.34858E+006    5.34858E+006    1.15083E+006    8.45548E+005    4.50303E+006   -2.44832E+006    4.33427E+006    1.15070E+006    5.33461E+006    8.59646E+005    6.67963E+003   -6.89994E+003   -2.50318E+005
            6748    5.10299E+006    6.69324E+006    6.69324E+006    1.86990E+006    1.35036E+006    5.34288E+006   -3.30450E+006    5.04297E+006    1.86986E+006    6.68361E+006    1.36003E+006    3.89599E+003   -4.89143E+003   -2.26601E+005
            6749    6.11102E+006    8.34571E+006    8.34571E+006    2.69771E+006    1.85843E+006    6.48728E+006   -4.30061E+006    5.97929E+006    2.69771E+006    8.33941E+006    1.86473E+006   -2.22416E+003   -1.62758E+003   -2.02012E+005
            6750    7.49830E+006    1.04204E+007    1.04204E+007    3.66974E+006    2.34973E+006    8.07065E+006   -5.47995E+006    7.22993E+006    3.66977E+006    1.04173E+007    2.35279E+006   -1.38894E+004    1.38114E+003   -1.57038E+005
            6751    9.21011E+006    1.28456E+007    1.28456E+007    4.75557E+006    2.82229E+006    1.00233E+007   -6.80781E+006    8.73592E+006    4.75569E+006    1.28433E+007    2.82441E+006   -3.19916E+004    3.31371E+003   -1.45842E+005
            6752    4.67408E+006    5.51920E+006    5.51920E+006    1.18762E+006    5.65032E+005    4.95417E+006   -2.42395E+006    4.57940E+006    1.18775E+006    5.42350E+006    6.60606E+005    2.29630E+004   -4.13831E+003   -6.81423E+005
            6753    5.43399E+006    6.84589E+006    6.84589E+006    1.88384E+006    1.03892E+006    5.80696E+006   -3.25622E+006    5.28317E+006    1.88399E+006    6.76991E+006    1.11476E+006    2.66055E+004   -2.85076E+003   -6.59265E+005
            6754    6.39502E+006    8.44978E+006    8.44978E+006    2.69329E+006    1.56612E+006    6.88366E+006   -4.23640E+006    6.16556E+006    2.69347E+006    8.40346E+006    1.61226E+006    3.26244E+004   -1.08669E+003   -5.61649E+005
            6755    7.72874E+006    1.05206E+007    1.05206E+007    3.68122E+006    2.13597E+006    8.38463E+006   -5.44593E+006    7.36907E+006    3.68147E+006    1.04879E+007    2.16843E+006    4.24954E+004    1.10415E+003   -5.20601E+005
            6756    9.27504E+006    1.28929E+007    1.28929E+007    4.79581E+006    2.77355E+006    1.01193E+007   -6.82074E+006    8.75817E+006    4.79619E+006    1.28713E+007    2.79470E+006    5.63245E+004    2.90885E+003   -4.61990E+005
            6757    5.17919E+006    5.71254E+006    5.71254E+006    1.21917E+006    4.80682E+004    5.66447E+006   -2.32659E+006    4.86773E+006    1.21924E+006    5.55530E+006    2.05240E+005    3.28573E+004    7.67700E+003   -9.29924E+005
            6758    6.01975E+006    6.97892E+006    6.97892E+006    1.82937E+006    3.60758E+005    6.61816E+006   -3.05635E+006    5.59498E+006    1.82941E+006    6.86013E+006    4.79503E+005    3.38878E+004    1.09706E+004   -8.77897E+005
            6759    7.12262E+006    8.72356E+006    8.72356E+006    2.67257E+006    8.74069E+005    7.84949E+006   -4.09006E+006    6.58203E+006    2.67257E+006    8.61479E+006    9.82835E+005    3.33855E+004    1.33346E+004   -9.16862E+005
            6760    8.21215E+006    1.06899E+007    1.06899E+007    3.68364E+006    1.65295E+006    9.03698E+006   -5.34218E+006    7.61591E+006    3.68358E+006    1.05951E+007    1.74783E+006    2.91712E+004    1.54323E+004   -9.20296E+005
            6761    9.52955E+006    1.30318E+007    1.30318E+007    4.86940E+006    2.55963E+006    1.04721E+007   -6.82026E+006    8.86633E+006    4.86932E+006    1.29506E+007    2.64085E+006    2.08027E+004    1.50682E+004   -9.17988E+005
            6762    5.74950E+006    5.67620E+006    5.67620E+006    1.12012E+006   -7.83751E+005    6.45995E+006   -2.00419E+006    4.96214E+006    1.12020E+006    5.62071E+006   -7.28348E+005    3.77742E+004    1.62729E+004   -5.94566E+005
            6763    7.18682E+006    7.34018E+006    7.34018E+006    1.74490E+006   -7.65006E+005    8.10519E+006   -2.77336E+006    6.07639E+006    1.74507E+006    7.25582E+006   -6.80807E+005    4.26748E+004    1.40079E+004   -8.21140E+005
            6764    8.25790E+006    9.08132E+006    9.08132E+006    2.57587E+006   -2.08982E+005    9.29030E+006   -3.81607E+006    7.07954E+006    2.57607E+006    8.94305E+006   -7.09131E+004    4.63894E+004    1.16270E+004   -1.12367E+006
            6765    9.29458E+006    1.11438E+007    1.11438E+007    3.65570E+006    7.41314E+005    1.04025E+007   -5.18028E+006    8.16753E+006    3.65595E+006    1.09640E+007    9.20946E+005    4.84834E+004    5.64814E+003   -1.35492E+006
            6766    1.01808E+007    1.33743E+007    1.33743E+007    4.92588E+006    2.07082E+006    1.13035E+007   -6.79035E+006    9.21352E+006    4.92613E+006    1.31595E+007    2.28546E+006    4.90763E+004    1.82475E+003   -1.54264E+006
            6767    1.17016E+007    1.37060E+007    1.37060E+007    4.64743E+006    4.94375E+005    1.32117E+007   -6.28262E+006    9.82542E+006    4.64724E+006    1.33160E+007    8.84568E+005    6.69007E+004    3.81832E+004   -2.23501E+006
            6768    1.09369E+007    1.13958E+007    1.13958E+007    3.29361E+006   -1.04468E+006    1.24405E+007   -4.54823E+006    8.65647E+006    3.29349E+006    1.12053E+007   -8.54123E+005    5.79587E+004    3.75774E+004   -1.52601E+006
            6769    9.75382E+006    9.31383E+006    9.31383E+006    2.28569E+006   -1.82198E+006    1.11358E+007   -3.25918E+006    7.39445E+006    2.28561E+006    9.25528E+006   -1.76335E+006    5.03105E+004    3.71366E+004   -8.03143E+005
            6770    8.46629E+006    7.61991E+006    7.61991E+006    1.60189E+006   -2.06110E+006    9.68101E+006   -2.38690E+006    6.27155E+006    1.60185E+006    7.60993E+006   -2.05106E+006    4.45331E+004    3.49468E+004   -3.05867E+005
            6771    7.00872E+006    6.11647E+006    6.11647E+006    1.12347E+006   -1.89588E+006    8.01235E+006   -1.78135E+006    5.21197E+006    1.12345E+006    6.11130E+006   -1.89070E+006    3.87735E+004    3.24061E+004    1.97126E+005
            6772    5.82355E+006    4.83328E+006    4.83328E+006    7.20449E+005   -1.83043E+006    6.66371E+006   -1.24110E+006    4.26446E+006    7.20362E+005    4.75897E+006   -1.75603E+006    3.28174E+004    3.60084E+004    6.98200E+005
            6773    4.67772E+006    3.91020E+006    3.91020E+006    5.90732E+005   -1.43964E+006    5.34984E+006   -1.02043E+006    3.45491E+006    5.90630E+005    3.62375E+006   -1.15308E+006    2.60096E+004    3.71910E+004    1.20355E+006
            6774    3.95469E+006    3.91811E+006    3.91811E+006    7.74931E+005   -5.22252E+005    4.44037E+006   -1.39026E+006    3.42453E+006    7.75097E+005    3.88196E+006   -4.86266E+005    2.65590E+004    1.22913E+004    3.97687E+005
            6775    4.12739E+006    4.45847E+006    4.45847E+006    1.01740E+006   -1.17697E+005    4.57617E+006   -1.78606E+006    3.75141E+006    1.01763E+006    4.45802E+006   -1.17477E+005    3.12468E+004    8.12786E+003    2.74604E+004
            6776    4.46548E+006    4.37556E+006    4.37556E+006    7.88343E+005   -6.25753E+005    5.00132E+006   -1.51272E+006    3.91201E+006    7.88439E+005    4.37053E+006   -6.20817E+005    3.15009E+004    1.46497E+004   -1.54266E+005
            6777    4.09696E+006    4.36152E+006    4.36152E+006    8.29747E+005   -1.30180E+005    4.49170E+006   -1.68703E+006    3.83149E+006    8.30048E+005    4.35297E+006   -1.21933E+005    3.68605E+004    7.01050E+003   -1.91388E+005
            6778    3.82017E+006    4.00797E+006    4.00797E+006    5.50725E+005   -9.32625E+004    4.10124E+006   -1.48848E+006    3.69508E+006    5.51042E+005    3.98024E+006   -6.58439E+004    3.75728E+004    4.19328E+003   -3.33699E+005
            6779    3.36252E+006    3.45569E+006    3.45569E+006    2.13234E+005   -1.52426E+004    3.47093E+006   -1.21789E+006    3.34499E+006    2.13485E+005    3.41661E+006    2.35812E+004    3.31222E+004    8.42628E+002   -3.64626E+005
            6780    2.90883E+006    2.88098E+006    2.88098E+006    5.00024E+004   -9.99066E+004    2.98089E+006   -9.43693E+005    2.90012E+006   -9.97223E+004    2.85524E+006    7.55559E+004    2.32029E+004   -1.54526E+003   -2.67754E+005
            6781    2.63578E+006    2.51724E+006    2.51724E+006    9.12747E+004   -2.87397E+005    2.80464E+006   -7.73706E+005    2.57352E+006   -2.87352E+005    2.51335E+006    9.51188E+004    8.16272E+003   -3.06395E+003   -9.67393E+004
            6782    4.61861E+006    4.64923E+006    4.64923E+006    7.77809E+005   -4.63055E+005    5.11229E+006   -1.65466E+006    4.21846E+006    7.77891E+005    4.57268E+006   -3.86587E+005    3.52315E+004    1.18665E+004   -6.19684E+005
            6783    4.37392E+006    4.62674E+006    4.62674E+006    7.06121E+005   -9.08769E+004    4.71762E+006   -1.74733E+006    4.20588E+006    7.06251E+005    4.48154E+006    5.41968E+004    3.13258E+004    3.61348E+003   -8.14158E+005
            6784    3.95056E+006    4.33201E+006    4.33201E+006    5.70205E+005    2.16490E+005    4.11552E+006   -1.70624E+006    3.91470E+006    5.70331E+005    4.23939E+006    3.08988E+005    2.14943E+004   -3.78076E+003   -6.10004E+005
            6785    3.64650E+006    4.07126E+006    4.07126E+006    4.63516E+005    3.87204E+005    3.68406E+006   -1.64066E+006    3.64470E+006    4.62990E+005    4.05795E+006    4.01045E+005    7.66830E+003   -6.89657E+003   -2.20908E+005
            6786    4.86016E+006    6.26341E+006    6.26341E+006    1.66104E+006    1.18108E+006    5.08233E+006   -3.03518E+006    4.80641E+006    1.66104E+006    6.23771E+006    1.20678E+006   -1.32372E+004    4.98686E+003   -3.60247E+005
            6787    5.98391E+006    8.12674E+006    8.12674E+006    2.60494E+006    1.76870E+006    6.35804E+006   -4.16679E+006    5.85028E+006    2.60497E+006    8.11675E+006    1.77864E+006   -1.43159E+004    1.53514E+003   -2.51271E+005
            6788    7.55961E+006    1.04563E+007    1.04563E+007    3.68618E+006    2.29930E+006    8.15702E+006   -5.48060E+006    7.26507E+006    3.68621E+006    1.04450E+007    2.31058E+006   -1.54068E+004   -1.64469E+003   -3.03094E+005
            6789    9.24102E+006    1.29365E+007    1.29365E+007    4.82849E+006    2.87486E+006    1.00616E+007   -6.87995E+006    8.75812E+006    4.82852E+006    1.29310E+007    2.88033E+006   -1.61202E+004   -4.09784E+003   -2.34171E+005
            6790    5.66066E+006    6.58316E+006    6.58316E+006    1.66481E+006    3.95662E+005    6.18750E+006   -2.88121E+006    5.32625E+006    1.66491E+006    6.47513E+006    5.03600E+005   -3.05468E+004   -5.85935E+003   -8.09772E+005
            6791    7.06582E+006    8.74166E+006    8.74166E+006    2.69411E+006    9.74875E+005    7.76679E+006   -4.13688E+006    6.57003E+006    2.69422E+006    8.62996E+006    1.08646E+006   -3.33182E+004   -6.41708E+003   -9.23977E+005
            6792    8.15507E+006    1.08024E+007    1.08024E+007    3.78406E+006    1.85607E+006    8.94630E+006   -5.48083E+006    7.61655E+006    3.78414E+006    1.06990E+007    1.95933E+006   -3.37095E+004   -8.03203E+003   -9.55278E+005
            6793    9.50343E+006    1.31659E+007    1.31659E+007    4.97599E+006    2.74570E+006    1.04202E+007   -6.96254E+006    8.88552E+006    4.97610E+006    1.30889E+007    2.82258E+006   -3.36835E+004   -5.51636E+003   -8.91524E+005
            6794    1.10759E+007    1.36005E+007    1.36005E+007    4.78712E+006    1.16779E+006    1.24327E+007   -6.51848E+006    9.60352E+006    4.78717E+006    1.32509E+007    1.51739E+006   -5.36099E+004   -1.96661E+004   -2.05462E+006
            6795    1.02351E+007    1.13613E+007    1.13613E+007    3.50028E+006   -2.11996E+005    1.15732E+007   -4.88318E+006    8.50960E+006    3.50035E+006    1.11476E+007    1.58151E+003   -5.19764E+004   -2.24083E+004   -1.55676E+006
            6796    9.07277E+006    9.34291E+006    9.34291E+006    2.51020E+006   -9.50995E+005    1.02939E+007   -3.63404E+006    7.35038E+006    2.51028E+006    9.21110E+006   -8.19266E+005   -4.88674E+004   -2.27723E+004   -1.15598E+006
            6797    7.81315E+006    7.62627E+006    7.62627E+006    1.76927E+006   -1.24505E+006    8.87131E+006   -2.71683E+006    6.28962E+006    1.76935E+006    7.57788E+006   -1.19675E+006   -4.45048E+004   -2.29744E+004   -6.51250E+005
            6798    6.62420E+006    5.93495E+006    5.93495E+006    1.08222E+006   -1.61180E+006    7.54675E+006   -1.80179E+006    5.15585E+006    1.08219E+006    5.93406E+006   -1.61089E+006   -3.91281E+004   -2.99152E+004   -6.58199E+004
            6799    5.67572E+006    4.68685E+006    4.68685E+006    6.64039E+005   -1.80525E+006    6.49210E+006   -1.18188E+006    4.18301E+006    6.63961E+005    4.61564E+006   -1.73396E+006   -3.20406E+004   -3.46361E+004    6.74680E+005
            6800    4.67426E+006    3.94382E+006    3.94382E+006    6.05934E+005   -1.39834E+006    5.34217E+006   -1.05047E+006    3.49033E+006    6.05817E+005    3.69932E+006   -1.15372E+006   -2.62538E+004   -3.65689E+004    1.11561E+006
            6801    3.71817E+006    3.33118E+006    3.33118E+006    6.10275E+005   -9.05432E+005    4.23661E+006   -1.01201E+006    2.88918E+006    6.10140E+005    2.86695E+006   -4.41071E+005   -1.91787E+004   -3.45883E+004    1.32281E+006
            6802    3.43577E+006    3.57890E+006    3.57890E+006    8.13437E+005   -2.67299E+005    3.84619E+006   -1.37501E+006    3.01621E+006    8.13586E+005    3.47197E+006   -1.60518E+005   -2.10416E+004   -9.47444E+003    6.31790E+005
            6803    3.90107E+006    4.32064E+006    4.32064E+006    1.09685E+006   -1.59103E+004    4.33655E+006   -1.80053E+006    3.51654E+006    1.09702E+006    4.31214E+006   -7.57932E+003   -2.56015E+004   -7.84002E+003    1.89423E+005
            6804    3.99137E+006    3.96447E+006    3.96447E+006    7.68267E+005   -5.09261E+005    4.47373E+006   -1.40782E+006    3.48478E+006    7.68422E+005    3.93664E+006   -4.81590E+005   -2.69830E+004   -1.27970E+004    3.50183E+005
            6805    4.27339E+006    4.58083E+006    4.58083E+006    1.00929E+006   -1.53657E+005    4.73449E+006   -1.81215E+006    3.89282E+006    1.00954E+006    4.58049E+006   -1.53575E+005   -3.33927E+004   -8.21891E+003    1.09198E+004
            6806    4.67143E+006    4.48997E+006    4.48997E+006    7.48021E+005   -7.45627E+005    5.23559E+006   -1.49745E+006    4.07990E+006    7.48138E+005    4.47763E+006   -7.33405E+005   -3.31365E+004   -1.40911E+004   -2.50958E+005
            6807    4.14402E+006    4.36817E+006    4.36817E+006    7.67522E+005   -1.61508E+005    4.52968E+006   -1.65806E+006    3.89925E+006    7.67827E+005    4.35061E+006   -1.44251E+005   -3.82226E+004   -6.79245E+003   -2.78309E+005
            6808    4.85026E+006    4.95528E+006    4.95528E+006    8.76868E+005   -4.08061E+005    5.36334E+006   -1.80803E+006    4.44249E+006    8.76973E+005    4.82488E+006   -2.77764E+005   -3.52850E+004   -9.34646E+003   -8.25186E+005
            6809    3.65502E+006    3.81991E+006    3.81991E+006    4.30626E+005   -5.27359E+004    3.87265E+006   -1.39927E+006    3.58205E+006    4.30893E+005    3.77862E+006   -1.17055E+004   -3.63978E+004   -3.62787E+003   -3.95941E+005
            6810    3.17487E+006    3.21000E+006    3.21000E+006    6.60684E+004    5.07284E+003    3.20493E+006   -1.09371E+006    3.17355E+006    6.61684E+004    3.16993E+006    4.50485E+004   -2.70649E+004    2.00856E+002   -3.55104E+005
            6811    2.75180E+006    2.72697E+006    2.72697E+006    1.43114E+005   -1.66573E+005    2.89354E+006   -9.01170E+005    2.71218E+006   -1.66518E+005    2.71749E+006    1.52536E+005   -1.00684E+004    3.03448E+003   -1.55905E+005
            6812    4.52882E+006    4.96348E+006    4.96348E+006    8.73829E+005    9.62019E+004    4.86728E+006   -1.97784E+006    4.37482E+006    8.73953E+005    4.82186E+006    2.37700E+005   -2.76168E+004   -1.75958E+003   -8.17565E+005
            6813    3.98302E+006    4.66213E+006    4.66213E+006    7.90553E+005    5.76318E+005    4.08582E+006   -2.00967E+006    3.97003E+006    7.90442E+005    4.63575E+006    6.02814E+005   -1.07569E+004    6.43844E+003   -3.27064E+005
            6814    1.16668E+007    1.58469E+007    1.58469E+007    6.23441E+006    2.86663E+006    1.29803E+007   -8.31598E+006    1.04867E+007    6.23416E+006    1.52951E+007    3.41866E+006    7.50206E+004    3.40339E+004   -2.61757E+006
            6815    1.08680E+007    1.56022E+007    1.56022E+007    6.28741E+006    3.66195E+006    1.19402E+007   -8.51717E+006    1.01169E+007    6.28767E+006    1.54073E+007    3.85657E+006    4.97668E+004   -2.50994E+003   -1.51189E+006
            6816    1.08008E+007    1.54122E+007    1.54122E+007    6.10211E+006    3.57042E+006    1.18418E+007   -8.36158E+006    1.01004E+007    6.10205E+006    1.53540E+007    3.62873E+006    9.05375E+003    1.28242E+004   -8.28361E+005
            6817    1.09500E+007    1.54029E+007    1.54029E+007    5.95159E+006    3.40358E+006    1.19993E+007   -8.25270E+006    1.02506E+007    5.95213E+006    1.53893E+007    3.41663E+006    7.26612E+004    4.33057E+003   -3.95091E+005
            6818    1.10519E+007    1.54087E+007    1.54087E+007    5.88075E+006    3.29225E+006    1.21164E+007   -8.19389E+006    1.03363E+007    5.88102E+006    1.54074E+007    3.29329E+006   -5.08801E+004    3.63814E+003   -1.11951E+005
            6819    1.07731E+007    1.73781E+007    1.73781E+007    7.77851E+006    5.72654E+006    1.16515E+007   -1.02944E+007    1.03196E+007    7.77830E+006    1.69469E+007    6.15789E+006    8.13763E+004    2.54139E+004   -2.19787E+006
            6820    1.12041E+007    1.74140E+007    1.74140E+007    7.50085E+006    5.25824E+006    1.21558E+007   -1.00577E+007    1.06815E+007    7.50113E+006    1.73035E+007    5.36848E+006    5.24825E+004   -3.25404E+003   -1.15234E+006
            6821    1.18584E+007    1.74867E+007    1.74867E+007    7.19649E+006    4.51818E+006    1.29685E+007   -9.73378E+006    1.11470E+007    7.19648E+006    1.74576E+007    4.54729E+006   -5.40033E+003    7.90790E+003   -6.13517E+005
            6822    1.23932E+007    1.75788E+007    1.75788E+007    6.95463E+006    3.96384E+006    1.36150E+007   -9.49909E+006    1.15386E+007    6.95534E+006    1.75725E+007    3.96938E+006    8.78213E+004    4.08625E+003   -2.74235E+005
            6823    1.26514E+007    1.76078E+007    1.76078E+007    6.83271E+006    3.67738E+006    1.39304E+007   -9.37262E+006    1.17160E+007    6.83310E+006    1.76069E+007    3.67785E+006   -6.49350E+004    2.55602E+003   -8.11829E+004
            6824    9.63305E+006    1.79867E+007    1.79867E+007    8.78243E+006    7.97553E+006    1.00111E+007   -1.15815E+007    9.55657E+006    8.78284E+006    1.79093E+007    8.05247E+006    8.41685E+004    9.32554E+003   -8.72242E+005
            6825    1.13142E+007    1.84356E+007    1.84356E+007    8.22410E+006    6.27260E+006    1.21630E+007   -1.09774E+007    1.09259E+007    8.22438E+006    1.84199E+007    6.28802E+006    5.36760E+004   -1.19239E+003   -4.32820E+005
            6826    1.24645E+007    1.86802E+007    1.86802E+007    7.82435E+006    5.06830E+006    1.36119E+007   -1.05243E+007    1.17493E+007    7.82436E+006    1.86765E+007    5.07202E+006   -1.40539E+004    2.42258E+003   -2.24776E+005
            6827    1.32351E+007    1.88552E+007    1.88552E+007    7.54272E+006    4.30011E+006    1.45551E+007   -1.02327E+007    1.22928E+007    7.54355E+006    1.88535E+007    4.30095E+006    9.73332E+004    2.27520E+003   -1.10648E+005
            6828    1.36053E+007    1.89208E+007    1.89208E+007    7.39948E+006    3.91079E+006    1.50100E+007   -1.00770E+007    1.25384E+007    7.39995E+006    1.89203E+007    3.91084E+006   -7.29696E+004    8.39754E+002   -2.83428E+004
            6829    3.67709E+006    3.27383E+006    3.27383E+006    5.93151E+005   -9.18071E+005    4.19190E+006   -9.82971E+005    2.84051E+006    5.92973E+005    2.79565E+006   -4.39706E+005    1.74248E+004   -3.46490E+004   -1.33212E+006
            6830    3.31835E+006    3.46255E+006    3.46255E+006    7.97480E+005   -2.54213E+005    3.71676E+006   -1.33527E+006    2.90631E+006    7.97588E+005    3.34405E+006   -1.35823E+005    1.79738E+004   -9.14138E+003   -6.52595E+005
            6831    3.77863E+006    4.16876E+006    4.16876E+006    1.06520E+006   -3.89590E+004    4.20772E+006   -1.73167E+006    3.38613E+006    1.06534E+006    4.16034E+006   -3.06785E+004    2.31909E+004   -7.70605E+003   -1.86018E+005
            6832    2.66565E+006    2.61490E+006    2.61490E+006    5.75035E+005   -4.01257E+005    3.01616E+006   -9.29559E+005    2.20595E+006    5.74794E+005    2.06999E+006    1.43891E+005    1.16367E+004   -3.00458E+004   -1.16003E+006
            6833    2.70590E+006    2.98680E+006    2.98680E+006    7.72352E+005   -2.93776E+004    3.01617E+006   -1.24326E+006    2.41621E+006    7.72425E+005    2.87113E+006    8.62191E+004    1.27222E+004   -5.40884E+003   -5.79015E+005
            6834    3.27340E+006    3.65903E+006    3.65903E+006    9.86249E+005    8.04999E+003    3.65098E+006   -1.55111E+006    2.91634E+006    9.86294E+005    3.64936E+006    1.76821E+004    1.46492E+004   -6.98268E+003   -1.86893E+005
            6835    1.55170E+006    1.84747E+006    1.84747E+006    5.17069E+005    1.42893E+005    1.70457E+006   -8.35810E+005    1.44487E+006    5.16029E+005    1.54501E+006    4.46387E+005    4.18628E+003   -2.52376E+004   -6.50765E+005
            6836    2.19418E+006    2.55141E+006    2.55141E+006    7.10040E+005    1.23585E+005    2.42782E+006   -1.12834E+006    2.00618E+006    7.10037E+005    2.51015E+006    1.64850E+005    4.44826E+003   -3.66838E+003   -3.13755E+005
            6837    2.86991E+006    3.23427E+006    3.23427E+006    8.92958E+005    3.25806E+004    3.20169E+006   -1.38660E+006    2.55465E+006    8.92935E+005    3.23122E+006    3.56473E+004    6.57643E+003   -6.27894E+003   -9.83460E+004
            6838    8.42890E+005    1.33750E+006    1.33750E+006    5.28732E+005    4.64200E+005    8.73301E+005   -7.76811E+005    8.37305E+005    4.74253E+005    1.33641E+006    5.19772E+005    1.72871E+002   -2.34118E+004    2.98913E+004
            6839    2.01369E+006    2.40776E+006    2.40776E+006    6.93161E+005    1.90294E+005    2.21747E+006   -1.09707E+006    1.86441E+006    6.93141E+005    2.40690E+006    1.91180E+005    2.53632E+002   -3.12983E+003    4.38117E+004
            6840    2.75150E+006    3.09887E+006    3.09887E+006    8.56562E+005    2.84125E+004    3.07046E+006   -1.32795E+006    2.44662E+006    8.56519E+005    3.09884E+006    2.84921E+004   -9.58970E+002   -6.01726E+003    1.04950E+004
            6841    1.68495E+006    1.94861E+006    1.94861E+006    5.29824E+005    8.62429E+004    1.86237E+006   -8.54892E+005    1.54519E+006    5.29082E+005    1.60428E+006    4.31316E+005   -6.21110E+003   -2.55042E+004    7.22559E+005
            6842    2.28909E+006    2.63588E+006    2.63588E+006    7.24719E+005    9.89829E+004    2.53689E+006   -1.15319E+006    2.08327E+006    7.24741E+005    2.58138E+006    1.53462E+005   -7.65462E+003   -3.87944E+003    3.67706E+005
            6843    2.94603E+006    3.32254E+006    3.32254E+006    9.16218E+005    3.70010E+004    3.28554E+006   -1.42525E+006    2.62559E+006    9.16210E+005    3.31749E+006    4.20629E+004   -8.77738E+003   -6.40456E+003    1.28330E+005
            6844    2.74908E+006    2.69712E+006    2.69712E+006    5.94486E+005   -4.13718E+005    3.11084E+006   -9.59297E+005    2.27350E+006    5.94216E+005    2.15970E+006    1.23975E+005   -1.15759E+004   -3.06237E+004    1.17561E+006
            6845    2.86038E+006    3.12533E+006    3.12533E+006    7.94654E+005   -6.67681E+004    3.19209E+006   -1.28440E+006    2.54303E+006    7.94721E+005    2.99684E+006    6.16513E+004   -1.28385E+004   -6.21460E+003    6.27201E+005
            6846    3.42229E+006    3.80140E+006    3.80140E+006    1.00832E+006   -1.61119E+004    3.81751E+006   -1.59787E+006    3.04760E+006    1.00839E+006    3.79166E+006   -6.44311E+003   -1.69744E+004   -7.12615E+003    1.91495E+005
            6847    1.10434E+007    1.53944E+007    1.53944E+007    5.87377E+006    3.28742E+006    1.21070E+007   -8.18521E+006    1.03285E+007    5.87404E+006    1.53932E+007    3.28842E+006   -5.08404E+004   -3.62930E+003    1.09848E+005
            6848    1.09523E+007    1.54039E+007    1.54039E+007    5.95151E+006    3.40154E+006    1.20023E+007   -8.25231E+006    1.02520E+007    5.95204E+006    1.53902E+007    3.41466E+006    7.23245E+004   -4.44908E+003    3.96335E+005
            6849    1.08087E+007    1.54257E+007    1.54257E+007    6.10938E+006    3.57502E+006    1.18506E+007   -8.37002E+006    1.01072E+007    6.10932E+006    1.53666E+007    3.63416E+006    9.03144E+003   -1.26352E+004    8.34565E+005
            6850    1.08707E+007    1.56146E+007    1.56146E+007    6.29663E+006    3.67188E+006    1.19427E+007   -8.52771E+006    1.01202E+007    6.29689E+006    1.54162E+007    3.87006E+006    5.01109E+004    2.27800E+003    1.52558E+006
            6851    1.16656E+007    1.58581E+007    1.58581E+007    6.24357E+006    2.88031E+006    1.29778E+007   -8.32732E+006    1.04888E+007    6.24332E+006    1.53054E+007    3.43321E+006    7.53087E+004   -3.42263E+004    2.61928E+006
            6852    1.26518E+007    1.76062E+007    1.76062E+007    6.83116E+006    3.67518E+006    1.39310E+007   -9.37084E+006    1.17160E+007    6.83156E+006    1.76053E+007    3.67567E+006   -6.55819E+004   -2.54635E+003    8.26305E+004
            6853    1.23943E+007    1.75773E+007    1.75773E+007    6.95259E+006    3.96110E+006    1.36162E+007   -9.49701E+006    1.15393E+007    6.95330E+006    1.75711E+007    3.96659E+006    8.75178E+004   -4.05896E+003    2.73065E+005
            6854    1.18589E+007    1.74832E+007    1.74832E+007    7.19348E+006    4.51376E+006    1.29694E+007   -9.73015E+006    1.11467E+007    7.19346E+006    1.74540E+007    4.54297E+006   -4.58213E+003   -7.93163E+003    6.14555E+005
            6855    1.11948E+007    1.74219E+007    1.74219E+007    7.51205E+006    5.27883E+006    1.21431E+007   -1.00709E+007    1.06762E+007    7.51233E+006    1.73092E+007    5.39122E+006    5.29748E+004    3.19185E+003    1.16280E+006
            6856    1.07715E+007    1.73808E+007    1.73808E+007    7.78217E+006    5.73143E+006    1.16494E+007   -1.02981E+007    1.03184E+007    7.78193E+006    1.69444E+007    6.16807E+006    8.16130E+004   -2.58409E+004    2.21052E+006
            6857    1.36004E+007    1.89167E+007    1.89167E+007    7.39859E+006    3.91259E+006    1.50041E+007   -1.00760E+007    1.25348E+007    7.39906E+006    1.89162E+007    3.91264E+006   -7.33497E+004   -8.81326E+002    2.75267E+004
            6858    1.32399E+007    1.88552E+007    1.88552E+007    7.54036E+006    4.29404E+006    1.45612E+007   -1.02299E+007    1.22957E+007    7.54119E+006    1.88536E+007    4.29486E+006    9.70516E+004   -2.23407E+003    1.09579E+005
            6859    1.24644E+007    1.86827E+007    1.86827E+007    7.82621E+006    5.07138E+006    1.36114E+007   -1.05268E+007    1.17498E+007    7.82622E+006    1.86791E+007    5.07499E+006   -1.39384E+004   -2.42703E+003    2.21614E+005
            6860    1.12994E+007    1.84242E+007    1.84242E+007    8.22265E+006    6.27907E+006    1.21451E+007   -1.09753E+007    1.09138E+007    8.22293E+006    1.84090E+007    6.29392E+006    5.37206E+004    1.31344E+003    4.24351E+005
            6861    9.62902E+006    1.79683E+007    1.79683E+007    8.77065E+006    7.95924E+006    1.00090E+007   -1.15661E+007    9.55164E+006    8.77104E+006    1.78904E+007    8.03669E+006    8.42126E+004   -9.60301E+003    8.74987E+005
            6862    7.00763E+006    6.11697E+006    6.11697E+006    1.12438E+006   -1.89407E+006    8.01103E+006   -1.78243E+006    5.21183E+006    1.12436E+006    6.11205E+006   -1.88914E+006    3.87914E+004   -3.23938E+004   -1.91937E+005
            6863    8.47417E+006    7.62360E+006    7.62360E+006    1.60227E+006   -2.06682E+006    9.69043E+006   -2.38635E+006    6.27320E+006    1.60222E+006    7.61350E+006   -2.05668E+006    4.44914E+004   -3.49479E+004    3.07816E+005
            6864    9.77135E+006    9.33775E+006    9.33775E+006    2.29632E+006   -1.81795E+006    1.11557E+007   -3.27204E+006    7.40887E+006    2.29624E+006    9.27797E+006   -1.75809E+006    5.05129E+004   -3.72582E+004    8.12218E+005
            6865    1.09498E+007    1.14271E+007    1.14271E+007    3.31080E+006   -1.02701E+006    1.24541E+007   -4.57031E+006    8.67386E+006    3.31068E+006    1.12337E+007   -8.33490E+005    5.82006E+004   -3.79039E+004    1.53847E+006
            6866    1.16967E+007    1.37274E+007    1.37274E+007    4.66508E+006    5.23307E+005    1.32041E+007   -6.30526E+006    9.83125E+006    4.66489E+006    1.33341E+007    9.16759E+005    6.69386E+004   -3.81609E+004    2.24338E+006
            6867    1.01884E+007    1.33673E+007    1.33673E+007    4.91785E+006    2.05336E+006    1.13140E+007   -6.77951E+006    9.21500E+006    4.91810E+006    1.31524E+007    2.26800E+006    4.91948E+004   -1.82239E+003    1.54337E+006
            6868    9.52503E+006    1.30182E+007    1.30182E+007    4.86223E+006    2.54990E+006    1.04683E+007   -6.81012E+006    8.85990E+006    4.86215E+006    1.29361E+007    2.63205E+006    2.06112E+004   -1.52241E+004    9.22989E+005
            6869    9.27348E+006    1.28910E+007    1.28910E+007    4.79596E+006    2.77311E+006    1.01179E+007   -6.82003E+006    8.75619E+006    4.79633E+006    1.28692E+007    2.79455E+006    5.64744E+004   -3.04708E+003    4.65125E+005
            6870    9.20861E+006    1.28443E+007    1.28443E+007    4.75527E+006    2.82288E+006    1.00215E+007   -6.80750E+006    8.73477E+006    4.75539E+006    1.28420E+007    2.82505E+006   -3.16041E+004   -3.24509E+003    1.47414E+005
            6871    9.28264E+006    1.11084E+007    1.11084E+007    3.63501E+006    7.17458E+005    1.03909E+007   -5.15362E+006    8.15111E+006    3.63526E+006    1.09293E+007    8.96281E+005    4.84240E+004   -5.85395E+003    1.35114E+006
            6872    8.21411E+006    1.06715E+007    1.06715E+007    3.66966E+006    1.62958E+006    9.04190E+006   -5.32357E+006    7.61217E+006    3.66960E+006    1.05751E+007    1.72601E+006    2.91987E+004   -1.53125E+004    9.27976E+005
            6873    7.73073E+006    1.05177E+007    1.05177E+007    3.67887E+006    2.12963E+006    8.38804E+006   -5.44206E+006    7.36923E+006    3.67913E+006    1.04843E+007    2.16275E+006    4.29088E+004   -1.22991E+003    5.25932E+005
            6874    7.49641E+006    1.04213E+007    1.04213E+007    3.67159E+006    2.35307E+006    8.06820E+006   -5.48197E+006    7.22860E+006    3.67161E+006    1.04182E+007    2.35615E+006   -1.38922E+004   -1.36163E+003    1.57661E+005
            6875    8.23259E+006    9.03092E+006    9.03092E+006    2.55048E+006   -2.32466E+005    9.26339E+006   -3.78298E+006    7.05149E+006    2.55068E+006    8.89461E+006   -9.63536E+004    4.63584E+004   -1.16428E+004    1.11415E+006
            6876    7.11088E+006    8.68707E+006    8.68707E+006    2.65176E+006    8.48008E+005    7.83906E+006   -4.06228E+006    6.56592E+006    2.65176E+006    8.57782E+006    9.57263E+005    3.34249E+004   -1.35272E+004    9.18267E+005
            6877    6.41645E+006    8.47206E+006    8.47206E+006    2.70174E+006    1.56218E+006    6.90988E+006   -4.24533E+006    6.18260E+006    2.70193E+006    8.42435E+006    1.60971E+006    3.30372E+004    9.23544E+002    5.71042E+005
            6878    6.13572E+006    8.38011E+006    8.38011E+006    2.71337E+006    1.86394E+006    6.51617E+006   -4.31914E+006    6.00129E+006    2.71336E+006    8.37332E+006    1.87073E+006   -2.22660E+003    1.63025E+003    2.10184E+005
            6879    7.18265E+006    7.32443E+006    7.32443E+006    1.73660E+006   -7.77273E+005    8.10170E+006   -2.76125E+006    6.06736E+006    1.73677E+006    7.24050E+006   -6.93510E+005    4.26916E+004   -1.40775E+004    8.18844E+005
            6880    6.01659E+006    6.97063E+006    6.97063E+006    1.82524E+006    3.55286E+005    6.61535E+006   -3.05039E+006    5.59075E+006    1.82528E+006    6.85204E+006    4.73836E+005    3.39417E+004   -1.10109E+004    8.76994E+005
            6881    5.44826E+006    6.86193E+006    6.86193E+006    1.89071E+006    1.03736E+006    5.82458E+006   -3.26333E+006    5.29476E+006    1.89085E+006    6.78681E+006    1.11233E+006    2.67283E+004    2.81853E+003    6.56562E+005
            6882    5.12338E+006    6.73220E+006    6.73220E+006    1.89141E+006    1.36663E+006    5.36557E+006   -3.33008E+006    5.06238E+006    1.89137E+006    6.72323E+006    1.37564E+006    4.03803E+003    4.82471E+003    2.19176E+005
            6883    5.74827E+006    5.67084E+006    5.67084E+006    1.11659E+006   -7.88002E+005    6.45884E+006   -1.99981E+006    4.96003E+006    1.11667E+006    5.61587E+006   -7.33114E+005    3.78092E+004   -1.63305E+004    5.91755E+005
            6884    5.17066E+006    5.71267E+006    5.71267E+006    1.22190E+006    5.98627E+004    5.65280E+006   -2.33148E+006    4.86368E+006    1.22197E+006    5.55519E+006    2.17266E+005    3.27781E+004   -7.51015E+003    9.29612E+005
            6885    4.68604E+006    5.53505E+006    5.53505E+006    1.19429E+006    5.66938E+005    4.96811E+006   -2.43209E+006    4.59013E+006    1.19441E+006    5.43986E+006    6.62011E+005    2.28493E+004    4.10642E+003    6.80645E+005
            6886    4.37216E+006    5.37693E+006    5.37693E+006    1.16750E+006    8.58431E+005    4.51850E+006   -2.46762E+006    4.34748E+006    1.16738E+006    5.36199E+006    8.73496E+005    6.77159E+003    6.92036E+003    2.59273E+005
            6887    3.66503E+006    4.09950E+006    4.09950E+006    4.77592E+005    3.92816E+005    3.70668E+006   -1.65664E+006    3.66282E+006    4.77119E+005    4.08606E+006    4.06727E+005    7.65743E+003    6.90462E+003    2.22617E+005
            6888    2.64021E+006    2.52457E+006    2.52457E+006    9.20866E+004   -2.83199E+005    2.80777E+006   -7.77821E+005    2.57918E+006   -2.83154E+005    2.52068E+006    9.59406E+004    8.20135E+003    3.08392E+003    9.69998E+004
            6889    3.94819E+006    4.33352E+006    4.33352E+006    5.72287E+005    2.21749E+005    4.11177E+006   -1.70919E+006    3.91295E+006    5.72412E+005    4.24109E+006    3.14057E+005    2.14505E+004    3.87607E+003    6.09107E+005
            6890    2.91228E+006    2.88706E+006    2.88706E+006    5.14843E+004   -9.62931E+004    2.98335E+006   -9.47416E+005    2.90382E+006   -9.61073E+004    2.86104E+006    7.73124E+004    2.33063E+004    1.55987E+003    2.69396E+005
            6891    4.36573E+006    4.62009E+006    4.62009E+006    7.03992E+005   -8.70963E+004    4.70718E+006   -1.74566E+006    4.19991E+006    7.04122E+005    4.47435E+006    5.85053E+004    3.11925E+004   -3.52088E+003    8.14665E+005
            6892    3.36655E+006    3.45833E+006    3.45833E+006    2.13609E+005   -1.80858E+004    3.47641E+006   -1.21795E+006    3.34854E+006    2.13859E+005    3.41951E+006    2.04799E+004    3.31212E+004   -8.98700E+002    3.63711E+005
            6893    4.61546E+006    4.64687E+006    4.64687E+006    7.77233E+005   -4.61575E+005    5.10845E+006   -1.65418E+006    4.21642E+006    7.77314E+005    4.56976E+006   -3.84541E+005    3.52370E+004   -1.18737E+004    6.21706E+005
            6894    3.81710E+006    4.00818E+006    4.00818E+006    5.52567E+005   -8.90875E+004    4.09726E+006   -1.49055E+006    3.69283E+006    5.52884E+005    3.98052E+006   -6.17438E+004    3.75492E+004   -4.16558E+003    3.33085E+005
            6895    4.09982E+006    4.36353E+006    4.36353E+006    8.31324E+005   -1.32261E+005    4.49579E+006   -1.68753E+006    3.83242E+006    8.31624E+005    4.35508E+006   -1.24110E+005    3.67919E+004   -7.01918E+003    1.90350E+005
            6896    4.12407E+006    4.45633E+006    4.45633E+006    1.01973E+006   -1.16835E+005    4.57316E+006   -1.78641E+006    3.74668E+006    1.01995E+006    4.45581E+006   -1.16546E+005    3.10737E+004   -8.14157E+003   -3.26783E+004
            6897    4.46238E+006    4.37101E+006    4.37101E+006    7.86757E+005   -6.26997E+005    4.99801E+006   -1.51026E+006    3.90873E+006    7.86854E+005    4.36622E+006   -6.22303E+005    3.14612E+004   -1.46467E+004    1.50261E+005
            6898    3.94316E+006    3.91080E+006    3.91080E+006    7.75342E+005   -5.16157E+005    4.42696E+006   -1.38999E+006    3.41628E+006    7.75509E+005    3.87384E+006   -4.79367E+005    2.64564E+004   -1.21766E+004   -4.01479E+005
            6899    4.69089E+006    3.91745E+006    3.91745E+006    5.90269E+005   -1.44774E+006    5.36519E+006   -1.01999E+006    3.46162E+006    5.90169E+005    3.63081E+006   -1.16100E+006    2.60655E+004   -3.71932E+004   -1.20575E+006
            6900    5.84478E+006    4.84278E+006    4.84278E+006    7.17837E+005   -1.84572E+006    6.68850E+006   -1.23830E+006    4.27458E+006    7.17750E+005    4.76874E+006   -1.77159E+006    3.28488E+004   -3.60306E+004   -6.98261E+005
            6901    7.80490E+006    7.61046E+006    7.61046E+006    1.76255E+006   -1.25218E+006    8.86264E+006   -2.70695E+006    6.27862E+006    1.76264E+006    7.56257E+006   -1.20436E+006    4.44552E+004   -2.30332E+004    6.47640E+005
            6902    9.08197E+006    9.34623E+006    9.34623E+006    2.50931E+006   -9.58778E+005    1.03050E+007   -3.63225E+006    7.35382E+006    2.50939E+006    9.21455E+006   -8.27177E+005    4.88669E+004   -2.27855E+004    1.15606E+006
            6903    1.02421E+007    1.13719E+007    1.13719E+007    3.50529E+006   -2.09225E+005    1.15811E+007   -4.88930E+006    8.51573E+006    3.50536E+006    1.11568E+007    5.77613E+003    5.20152E+004   -2.24156E+004    1.56238E+006
            6904    1.10764E+007    1.36095E+007    1.36095E+007    4.79313E+006    1.17690E+006    1.24326E+007   -6.52650E+006    9.60700E+006    4.79318E+006    1.32599E+007    1.52638E+006    5.35939E+004   -1.96398E+004    2.05426E+006
            6905    9.49275E+006    1.31327E+007    1.31327E+007    4.95589E+006    2.72232E+006    1.04104E+007   -6.93697E+006    8.87215E+006    4.95600E+006    1.30552E+007    2.79970E+006    3.37682E+004   -5.57466E+003    8.93961E+005
            6906    9.18944E+006    1.28628E+007    1.28628E+007    4.79568E+006    2.85957E+006    1.00032E+007   -6.83935E+006    8.71264E+006    4.79570E+006    1.28573E+007    2.86508E+006    1.60884E+004   -4.05903E+003    2.34463E+005
            6907    8.14579E+006    1.07700E+007    1.07700E+007    3.76398E+006    1.83187E+006    8.93814E+006   -5.45528E+006    7.60417E+006    3.76406E+006    1.06661E+007    1.93568E+006    3.37606E+004   -8.09314E+003    9.57315E+005
            6908    7.51764E+006    1.03940E+007    1.03940E+007    3.65757E+006    2.28441E+006    8.10956E+006   -5.44532E+006    7.22736E+006    3.65760E+006    1.03824E+007    2.29594E+006    1.53825E+004   -1.62283E+003    3.05512E+005
            6909    7.04989E+006    8.71897E+006    8.71897E+006    2.68452E+006    9.69938E+005    7.74904E+006   -4.12448E+006    6.55570E+006    2.68463E+006    8.60790E+006    1.08090E+006    3.33232E+004   -6.38842E+003    9.20367E+005
            6910    5.97917E+006    8.11533E+006    8.11533E+006    2.59823E+006    1.76212E+006    6.35322E+006   -4.15856E+006    5.84547E+006    2.59827E+006    8.10520E+006    1.77221E+006    1.43580E+004    1.58667E+003    2.53062E+005
            6911    5.65814E+006    6.58047E+006    6.58047E+006    1.66419E+006    3.95778E+005    6.18470E+006   -2.88015E+006    5.32398E+006    1.66429E+006    6.47203E+006    5.04119E+005    3.05542E+004   -5.86572E+003    8.11070E+005
            6912    4.86492E+006    6.26979E+006    6.26979E+006    1.66398E+006    1.18168E+006    5.08811E+006   -3.03848E+006    4.81069E+006    1.66399E+006    6.24432E+006    1.20714E+006    1.32551E+004    4.97764E+003    3.58768E+005
            6913    3.98869E+006    4.67248E+006    4.67248E+006    7.96317E+005    5.80058E+005    4.09242E+006   -2.01629E+006    3.97547E+006    7.96206E+005    4.64613E+006    6.06520E+005    1.07344E+004    6.45451E+003    3.27121E+005
            6914    2.75271E+006    2.72967E+006    2.72967E+006    1.44625E+005   -1.64605E+005    2.89427E+006   -9.03228E+005    2.71322E+006   -1.64550E+005    2.72039E+006    1.53846E+005    9.97611E+003    3.05411E+003    1.54274E+005
            6915    4.52730E+006    4.96203E+006    4.96203E+006    8.73562E+005    9.64883E+004    4.86554E+006   -1.97736E+006    4.37347E+006    8.73686E+005    4.82074E+006    2.37653E+005    2.76072E+004   -1.74965E+003    8.16479E+005
            6916    3.17102E+006    3.20555E+006    3.20555E+006    6.39440E+004    5.91845E+003    3.19964E+006   -1.09181E+006    3.16983E+006    6.40381E+004    3.16569E+006    4.56840E+004    2.69261E+004    2.10365E+002    3.53866E+005
            6917    3.64806E+006    3.81101E+006    3.81101E+006    4.25352E+005   -5.23794E+004    3.86339E+006   -1.39466E+006    3.57667E+006    4.25618E+005    3.76955E+006   -1.11899E+004    3.63423E+004   -3.58525E+003    3.96221E+005
            6918    4.13920E+006    4.36146E+006    4.36146E+006    7.62200E+005   -1.61578E+005    4.52304E+006   -1.65403E+006    3.89701E+006    7.62507E+005    4.34357E+006   -1.43995E+005    3.82586E+004   -6.74017E+003    2.80728E+005
            6919    4.27251E+006    4.58324E+006    4.58324E+006    1.01054E+006   -1.49497E+005    4.73273E+006   -1.81476E+006    3.89388E+006    1.01079E+006    4.58290E+006   -1.49418E+005    3.34360E+004   -8.16711E+003   -1.01881E+004
            6920    3.89835E+006    4.31778E+006    4.31778E+006    1.09674E+006   -1.59324E+004    4.33372E+006   -1.79953E+006    3.51357E+006    1.09691E+006    4.30932E+006   -7.63693E+003    2.55235E+004   -7.81099E+003   -1.88960E+005
            6921    4.84643E+006    4.94903E+006    4.94903E+006    8.73744E+005   -4.10057E+005    5.35908E+006   -1.80424E+006    4.43906E+006    8.73849E+005    4.81925E+006   -2.80381E+005    3.52524E+004   -9.34586E+003    8.22928E+005
            6922    4.65982E+006    4.48497E+006    4.48497E+006    7.48782E+005   -7.36425E+005    5.22139E+006   -1.49911E+006    4.07391E+006    7.48899E+005    4.47234E+006   -7.23909E+005    3.31202E+004   -1.40340E+004    2.53644E+005
            6923    3.98293E+006    3.95791E+006    3.95791E+006    7.66823E+005   -5.05820E+005    4.46373E+006   -1.40630E+006    3.47934E+006    7.66978E+005    3.93036E+006   -4.78426E+005    2.69132E+004   -1.27041E+004   -3.48039E+005
            6924    3.43206E+006    3.57808E+006    3.57808E+006    8.14537E+005   -2.63605E+005    3.84168E+006   -1.37634E+006    3.01419E+006    8.14686E+005    3.47139E+006   -1.57066E+005    2.10434E+004   -9.39645E+003   -6.30717E+005
            6925    3.71426E+006    3.32601E+006    3.32601E+006    6.08449E+005   -9.06253E+005    4.23226E+006   -1.00940E+006    2.88535E+006    6.08314E+005    2.85987E+006   -4.39975E+005    1.91116E+004   -3.45601E+004   -1.32444E+006
            6926    4.68543E+006    3.94867E+006    3.94867E+006    6.04565E+005   -1.40659E+006    5.35526E+006   -1.04888E+006    3.49550E+006    6.04449E+005    3.70416E+006   -1.16197E+006    2.62502E+004   -3.65297E+004   -1.11705E+006
            6927    5.68102E+006    4.68865E+006    4.68865E+006    6.62522E+005   -1.80958E+006    6.49823E+006   -1.18053E+006    4.18611E+006    6.62443E+005    4.61807E+006   -1.73892E+006    3.20679E+004   -3.46400E+004   -6.72059E+005
            6928    6.61390E+006    5.92810E+006    5.92810E+006    1.08097E+006   -1.60649E+006    7.53460E+006   -1.80086E+006    5.15101E+006    1.08094E+006    5.92721E+006   -1.60557E+006    3.91097E+004   -2.98656E+004    6.60934E+004
            6929    1.10224E+007    1.54411E+007    1.54411E+007    5.93570E+006    3.35836E+006    1.20827E+007   -8.24506E+006    1.03113E+007    5.93572E+006    1.54380E+007    3.36142E+006    1.57065E+004   -5.02908E+003    1.91867E+005
            6930    1.08065E+007    1.55133E+007    1.55133E+007    6.16965E+006    3.67891E+006    1.18344E+007   -8.45394E+006    1.01300E+007    6.16974E+006    1.54622E+007    3.72991E+006    3.35231E+004   -4.93304E+003    7.75057E+005
            6931    1.13202E+007    1.57391E+007    1.57391E+007    6.26449E+006    3.20307E+006    1.25360E+007   -8.40221E+006    1.03255E+007    6.26449E+006    1.53165E+007    3.62562E+006    5.24782E+004   -1.77069E+004    2.26178E+006
            6932    1.25977E+007    1.76279E+007    1.76279E+007    6.88875E+006    3.76104E+006    1.38669E+007   -9.42591E+006    1.16752E+007    6.88876E+006    1.76268E+007    3.76218E+006    1.42210E+004   -4.41071E+003    1.25383E+005
            6933    1.19230E+007    1.75469E+007    1.75469E+007    7.20450E+006    4.50589E+006    1.30410E+007   -9.75243E+006    1.12045E+007    7.20461E+006    1.75251E+007    4.52763E+006    3.40712E+004   -8.68287E+002    5.32046E+005
            6934    1.08513E+007    1.73338E+007    1.73338E+007    7.67256E+006    5.59330E+006    1.17405E+007   -1.01999E+007    1.03888E+007    7.67261E+006    1.70281E+007    5.89894E+006    4.92352E+004   -1.14445E+004    1.86892E+006
            6935    1.35228E+007    1.89102E+007    1.89102E+007    7.44531E+006    3.99713E+006    1.49131E+007   -1.01175E+007    1.24749E+007    7.44533E+006    1.89100E+007    3.99729E+006    1.20302E+004   -1.59088E+003    4.87347E+004
            6936    1.25729E+007    1.87195E+007    1.87195E+007    7.79676E+006    4.97562E+006    1.37438E+007   -1.04973E+007    1.18290E+007    7.79687E+006    1.87169E+007    4.97811E+006    3.49317E+004   -9.42309E+002    1.84965E+005
            6937    1.01603E+007    1.81014E+007    1.81014E+007    8.58214E+006    7.40304E+006    1.06984E+007   -1.13622E+007    1.00046E+007    8.58231E+006    1.80487E+007    7.45561E+006    4.66022E+004   -5.12400E+003    7.47674E+005
            6938    3.79083E+006    4.17994E+006    4.17994E+006    1.06621E+006   -4.13016E+004    4.22124E+006   -1.73495E+006    3.39722E+006    1.06635E+006    4.17166E+006   -3.31676E+004   -2.33649E+004   -7.71950E+003    1.84656E+005
            6939    3.32588E+006    3.46591E+006    3.46591E+006    7.96051E+005   -2.59699E+005    3.72561E+006   -1.33409E+006    2.91145E+006    7.96160E+005    3.34677E+006   -1.40666E+005   -1.80671E+004   -9.29199E+003    6.55108E+005
            6940    3.67089E+006    3.27246E+006    3.27246E+006    5.94820E+005   -9.12083E+005    4.18454E+006   -9.85064E+005    2.83816E+006    5.94640E+005    2.79605E+006   -4.35494E+005   -1.74654E+004   -3.47057E+004    1.32863E+006
            6941    3.28404E+006    3.67065E+006    3.67065E+006    9.88967E+005    7.88580E+003    3.66277E+006   -1.55584E+006    2.92605E+006    9.89013E+005    3.66080E+006    1.76953E+004   -1.48483E+004   -6.98262E+003    1.88916E+005
            6942    2.70884E+006    2.98959E+006    2.98959E+006    7.72696E+005   -2.98493E+004    3.01944E+006   -1.24414E+006    2.41887E+006    7.72770E+005    2.87303E+006    8.66341E+004   -1.27804E+004   -5.47779E+003    5.81469E+005
            6943    2.67125E+006    2.61759E+006    2.61759E+006    5.74437E+005   -4.05154E+005    3.02275E+006   -9.28959E+005    2.20920E+006    5.74195E+005    2.07327E+006    1.39417E+005   -1.16627E+004   -3.01119E+004    1.16109E+006
            6944    2.87368E+006    3.23865E+006    3.23865E+006    8.94083E+005    3.28132E+004    3.20583E+006   -1.38851E+006    2.55820E+006    8.94061E+005    3.23551E+006    3.59728E+004   -6.68167E+003   -6.27343E+003    9.99115E+004
            6945    2.19595E+006    2.55384E+006    2.55384E+006    7.10866E+005    1.24114E+005    2.42973E+006   -1.12961E+006    2.00792E+006    7.10863E+005    2.51237E+006    1.65589E+005   -4.50651E+003   -3.66052E+003    3.14666E+005
            6946    1.56333E+006    1.85732E+006    1.85732E+006    5.19028E+005    1.39013E+005    1.71830E+006   -8.38453E+005    1.45386E+006    5.18010E+005    1.55308E+006    4.44265E+005   -4.19935E+003   -2.51950E+004    6.55463E+005
            6947    2.75011E+006    3.09714E+006    3.09714E+006    8.56003E+005    2.82073E+004    3.06893E+006   -1.32712E+006    2.44533E+006    8.55960E+005    3.09711E+006    2.82797E+004    8.16513E+002   -6.01426E+003   -9.38829E+003
            6948    2.01345E+006    2.40680E+006    2.40680E+006    6.92589E+005    1.89520E+005    2.21728E+006   -1.09630E+006    1.86401E+006    6.92569E+005    2.40596E+006    1.90383E+005   -3.51468E+002   -3.13270E+003   -4.32395E+004
            6949    8.42499E+005    1.33666E+006    1.33666E+006    5.28325E+005    4.63712E+005    8.72945E+005   -7.76231E+005    8.36897E+005    4.73761E+005    1.33620E+006    5.18738E+005   -1.69945E+002   -2.34183E+004   -1.94361E+004
            6950    2.93669E+006    3.31314E+006    3.31314E+006    9.14207E+005    3.81001E+004    3.27504E+006   -1.42182E+006    2.61753E+006    9.14198E+005    3.30815E+006    4.31052E+004    8.64642E+003   -6.40161E+003   -1.27395E+005
            6951    2.28934E+006    2.63735E+006    2.63735E+006    7.25888E+005    1.00218E+005    2.53713E+006   -1.15448E+006    2.08358E+006    7.25910E+005    2.58294E+006    1.54603E+005    7.60792E+003   -3.85419E+003   -3.67413E+005
            6952    1.66529E+006    1.93687E+006    1.93687E+006    5.30056E+005    9.81972E+004    1.83867E+006   -8.55041E+005    1.53151E+006    5.29289E+005    1.60101E+006    4.34825E+005    6.18627E+003   -2.54166E+004   -7.10017E+005
            6953    3.41233E+006    3.78977E+006    3.78977E+006    1.00532E+006   -1.68109E+004    3.80658E+006   -1.59276E+006    3.03818E+006    1.00538E+006    3.77995E+006   -7.06264E+003    1.67936E+004   -7.14330E+003   -1.92002E+005
            6954    2.86661E+006    3.13053E+006    3.13053E+006    7.95725E+005   -6.88682E+004    3.19939E+006   -1.28579E+006    2.54753E+006    7.95793E+005    3.00354E+006    5.80476E+004    1.28384E+004   -6.13300E+003   -6.24414E+005
            6955    2.73419E+006    2.68598E+006    2.68598E+006    5.93097E+005   -4.07571E+005    3.09356E+006   -9.57170E+005    2.26346E+006    5.92827E+005    2.14673E+006    1.31950E+005    1.15082E+004   -3.05639E+004   -1.17323E+006
            6956    1.13232E+007    1.57456E+007    1.57456E+007    6.26799E+006    3.20644E+006    1.25391E+007   -8.40667E+006    1.03287E+007    6.26800E+006    1.53221E+007    3.62992E+006    5.24923E+004    1.76474E+004   -2.26446E+006
            6957    1.08145E+007    1.55286E+007    1.55286E+007    6.17709E+006    3.68581E+006    1.18428E+007   -8.46383E+006    1.01383E+007    6.17718E+006    1.54796E+007    3.73469E+006    3.34599E+004    4.88372E+003   -7.59102E+005
            6958    1.10474E+007    1.54764E+007    1.54764E+007    5.95116E+006    3.36539E+006    1.21110E+007   -8.26431E+006    1.03331E+007    5.95117E+006    1.54734E+007    3.36837E+006    1.56920E+004    5.00950E+003   -1.89537E+005
            6959    1.08378E+007    1.73404E+007    1.73404E+007    7.68381E+006    5.61865E+006    1.17218E+007   -1.02143E+007    1.03812E+007    7.68386E+006    1.70357E+007    5.92333E+006    4.92804E+004    1.12988E+004   -1.86454E+006
            6960    1.19376E+007    1.75457E+007    1.75457E+007    7.19666E+006    4.48584E+006    1.30599E+007   -9.74275E+006    1.12133E+007    7.19677E+006    1.75241E+007    4.50735E+006    3.40494E+004    9.37496E+002   -5.29557E+005
            6961    1.26073E+007    1.76418E+007    1.76418E+007    6.89488E+006    3.76409E+006    1.38777E+007   -9.43358E+006    1.16837E+007    6.89490E+006    1.76406E+007    3.76524E+006    1.41656E+004    4.39069E+003   -1.26157E+005
            6962    1.01494E+007    1.81023E+007    1.81023E+007    8.58809E+006    7.41895E+006    1.06834E+007   -1.13698E+007    9.99624E+006    8.58826E+006    1.80524E+007    7.46868E+006    4.65928E+004    4.95365E+003   -7.26835E+005
            6963    1.25803E+007    1.87141E+007    1.87141E+007    7.78924E+006    4.96003E+006    1.37540E+007   -1.04878E+007    1.18324E+007    7.78935E+006    1.87111E+007    4.96284E+006    3.49231E+004    1.07875E+003   -1.96679E+005
            6964    1.35202E+007    1.89085E+007    1.89085E+007    7.44522E+006    3.99859E+006    1.49099E+007   -1.01174E+007    1.24730E+007    7.44523E+006    1.89083E+007    3.99875E+006    1.20247E+004    1.58068E+003   -4.82448E+004
            6965    4.35842E+006    5.34858E+006    5.34858E+006    1.15083E+006    8.45548E+005    4.50303E+006   -2.44832E+006    4.33427E+006    1.15070E+006    5.33461E+006    8.59646E+005   -6.67963E+003    6.89994E+003   -2.50318E+005
            6966    5.10299E+006    6.69324E+006    6.69324E+006    1.86990E+006    1.35036E+006    5.34288E+006   -3.30450E+006    5.04297E+006    1.86986E+006    6.68361E+006    1.36003E+006   -3.89599E+003    4.89143E+003   -2.26601E+005
            6967    6.11102E+006    8.34571E+006    8.34571E+006    2.69771E+006    1.85843E+006    6.48728E+006   -4.30061E+006    5.97929E+006    2.69771E+006    8.33941E+006    1.86473E+006    2.22416E+003    1.62758E+003   -2.02012E+005
            6968    7.49830E+006    1.04204E+007    1.04204E+007    3.66974E+006    2.34973E+006    8.07065E+006   -5.47995E+006    7.22993E+006    3.66977E+006    1.04173E+007    2.35279E+006    1.38894E+004   -1.38114E+003   -1.57038E+005
            6969    9.21011E+006    1.28456E+007    1.28456E+007    4.75557E+006    2.82229E+006    1.00233E+007   -6.80781E+006    8.73592E+006    4.75569E+006    1.28433E+007    2.82441E+006    3.19916E+004   -3.31371E+003   -1.45842E+005
            6970    4.67408E+006    5.51920E+006    5.51920E+006    1.18762E+006    5.65032E+005    4.95417E+006   -2.42395E+006    4.57940E+006    1.18775E+006    5.42350E+006    6.60606E+005   -2.29630E+004    4.13831E+003   -6.81423E+005
            6971    5.43399E+006    6.84589E+006    6.84589E+006    1.88384E+006    1.03892E+006    5.80696E+006   -3.25622E+006    5.28317E+006    1.88399E+006    6.76991E+006    1.11476E+006   -2.66055E+004    2.85076E+003   -6.59265E+005
            6972    6.39502E+006    8.44978E+006    8.44978E+006    2.69329E+006    1.56612E+006    6.88366E+006   -4.23640E+006    6.16556E+006    2.69347E+006    8.40346E+006    1.61226E+006   -3.26244E+004    1.08669E+003   -5.61649E+005
            6973    7.72874E+006    1.05206E+007    1.05206E+007    3.68122E+006    2.13597E+006    8.38463E+006   -5.44593E+006    7.36907E+006    3.68147E+006    1.04879E+007    2.16843E+006   -4.24954E+004   -1.10415E+003   -5.20601E+005
            6974    9.27504E+006    1.28929E+007    1.28929E+007    4.79581E+006    2.77355E+006    1.01193E+007   -6.82074E+006    8.75817E+006    4.79619E+006    1.28713E+007    2.79470E+006   -5.63245E+004   -2.90885E+003   -4.61990E+005
            6975    5.17919E+006    5.71254E+006    5.71254E+006    1.21917E+006    4.80682E+004    5.66447E+006   -2.32659E+006    4.86773E+006    1.21924E+006    5.55530E+006    2.05240E+005   -3.28573E+004   -7.67700E+003   -9.29924E+005
            6976    6.01975E+006    6.97892E+006    6.97892E+006    1.82937E+006    3.60758E+005    6.61816E+006   -3.05635E+006    5.59498E+006    1.82941E+006    6.86013E+006    4.79503E+005   -3.38878E+004   -1.09706E+004   -8.77897E+005
            6977    7.12262E+006    8.72356E+006    8.72356E+006    2.67257E+006    8.74069E+005    7.84949E+006   -4.09006E+006    6.58203E+006    2.67257E+006    8.61479E+006    9.82835E+005   -3.33855E+004   -1.33346E+004   -9.16862E+005
            6978    8.21215E+006    1.06899E+007    1.06899E+007    3.68364E+006    1.65295E+006    9.03698E+006   -5.34218E+006    7.61591E+006    3.68358E+006    1.05951E+007    1.74783E+006   -2.91712E+004   -1.54323E+004   -9.20296E+005
            6979    9.52955E+006    1.30318E+007    1.30318E+007    4.86940E+006    2.55963E+006    1.04721E+007   -6.82026E+006    8.86633E+006    4.86932E+006    1.29506E+007    2.64085E+006   -2.08027E+004   -1.50682E+004   -9.17988E+005
            6980    5.74950E+006    5.67620E+006    5.67620E+006    1.12012E+006   -7.83751E+005    6.45995E+006   -2.00419E+006    4.96214E+006    1.12020E+006    5.62071E+006   -7.28348E+005   -3.77742E+004   -1.62729E+004   -5.94566E+005
            6981    7.18682E+006    7.34018E+006    7.34018E+006    1.74490E+006   -7.65006E+005    8.10519E+006   -2.77336E+006    6.07639E+006    1.74507E+006    7.25582E+006   -6.80807E+005   -4.26748E+004   -1.40079E+004   -8.21140E+005
            6982    8.25790E+006    9.08132E+006    9.08132E+006    2.57587E+006   -2.08982E+005    9.29030E+006   -3.81607E+006    7.07954E+006    2.57607E+006    8.94305E+006   -7.09131E+004   -4.63894E+004   -1.16270E+004   -1.12367E+006
            6983    9.29458E+006    1.11438E+007    1.11438E+007    3.65570E+006    7.41314E+005    1.04025E+007   -5.18028E+006    8.16753E+006    3.65595E+006    1.09640E+007    9.20946E+005   -4.84834E+004   -5.64814E+003   -1.35492E+006
            6984    1.01808E+007    1.33743E+007    1.33743E+007    4.92588E+006    2.07082E+006    1.13035E+007   -6.79035E+006    9.21352E+006    4.92613E+006    1.31595E+007    2.28546E+006   -4.90763E+004   -1.82475E+003   -1.54264E+006
            6985    1.17016E+007    1.37060E+007    1.37060E+007    4.64743E+006    4.94375E+005    1.32117E+007   -6.28262E+006    9.82542E+006    4.64724E+006    1.33160E+007    8.84568E+005   -6.69007E+004   -3.81832E+004   -2.23501E+006
            6986    1.09369E+007    1.13958E+007    1.13958E+007    3.29361E+006   -1.04468E+006    1.24405E+007   -4.54823E+006    8.65647E+006    3.29349E+006    1.12053E+007   -8.54123E+005   -5.79587E+004   -3.75774E+004   -1.52601E+006
            6987    9.75382E+006    9.31383E+006    9.31383E+006    2.28569E+006   -1.82198E+006    1.11358E+007   -3.25918E+006    7.39445E+006    2.28561E+006    9.25528E+006   -1.76335E+006   -5.03105E+004   -3.71366E+004   -8.03143E+005
            6988    8.46629E+006    7.61991E+006    7.61991E+006    1.60189E+006   -2.06110E+006    9.68101E+006   -2.38690E+006    6.27155E+006    1.60185E+006    7.60993E+006   -2.05106E+006   -4.45331E+004   -3.49468E+004   -3.05867E+005
            6989    7.00872E+006    6.11647E+006    6.11647E+006    1.12347E+006   -1.89588E+006    8.01235E+006   -1.78135E+006    5.21197E+006    1.12345E+006    6.11130E+006   -1.89070E+006   -3.87735E+004   -3.24061E+004    1.97126E+005
            6990    5.82355E+006    4.83328E+006    4.83328E+006    7.20449E+005   -1.83043E+006    6.66371E+006   -1.24110E+006    4.26446E+006    7.20362E+005    4.75897E+006   -1.75603E+006   -3.28174E+004   -3.60084E+004    6.98200E+005
            6991    4.67772E+006    3.91020E+006    3.91020E+006    5.90732E+005   -1.43964E+006    5.34984E+006   -1.02043E+006    3.45491E+006    5.90630E+005    3.62375E+006   -1.15308E+006   -2.60096E+004   -3.71910E+004    1.20355E+006
            6992    3.95469E+006    3.91811E+006    3.91811E+006    7.74931E+005   -5.22252E+005    4.44037E+006   -1.39026E+006    3.42453E+006    7.75097E+005    3.88196E+006   -4.86266E+005   -2.65590E+004   -1.22913E+004    3.97687E+005
            6993    4.12739E+006    4.45847E+006    4.45847E+006    1.01740E+006   -1.17697E+005    4.57617E+006   -1.78606E+006    3.75141E+006    1.01763E+006    4.45802E+006   -1.17477E+005   -3.12468E+004   -8.12786E+003    2.74604E+004
            6994    4.46548E+006    4.37556E+006    4.37556E+006    7.88343E+005   -6.25753E+005    5.00132E+006   -1.51272E+006    3.91201E+006    7.88439E+005    4.37053E+006   -6.20817E+005   -3.15009E+004   -1.46497E+004   -1.54266E+005
            6995    4.09696E+006    4.36152E+006    4.36152E+006    8.29747E+005   -1.30180E+005    4.49170E+006   -1.68703E+006    3.83149E+006    8.30048E+005    4.35297E+006   -1.21933E+005   -3.68605E+004   -7.01050E+003   -1.91388E+005
            6996    3.82017E+006    4.00797E+006    4.00797E+006    5.50725E+005   -9.32625E+004    4.10124E+006   -1.48848E+006    3.69508E+006    5.51042E+005    3.98024E+006   -6.58439E+004   -3.75728E+004   -4.19328E+003   -3.33699E+005
            6997    3.36252E+006    3.45569E+006    3.45569E+006    2.13234E+005   -1.52426E+004    3.47093E+006   -1.21789E+006    3.34499E+006    2.13485E+005    3.41661E+006    2.35812E+004   -3.31222E+004   -8.42628E+002   -3.64626E+005
            6998    2.90883E+006    2.88098E+006    2.88098E+006    5.00024E+004   -9.99066E+004    2.98089E+006   -9.43693E+005    2.90012E+006   -9.97223E+004    2.85524E+006    7.55559E+004   -2.32029E+004    1.54526E+003   -2.67754E+005
            6999    2.63578E+006    2.51724E+006    2.51724E+006    9.12747E+004   -2.87397E+005    2.80464E+006   -7.73706E+005    2.57352E+006   -2.87352E+005    2.51335E+006    9.51188E+004   -8.16272E+003    3.06395E+003   -9.67393E+004
            7000    4.61861E+006    4.64923E+006    4.64923E+006    7.77809E+005   -4.63055E+005    5.11229E+006   -1.65466E+006    4.21846E+006    7.77891E+005    4.57268E+006   -3.86587E+005   -3.52315E+004   -1.18665E+004   -6.19684E+005
            7001    4.37392E+006    4.62674E+006    4.62674E+006    7.06121E+005   -9.08769E+004    4.71762E+006   -1.74733E+006    4.20588E+006    7.06251E+005    4.48154E+006    5.41968E+004   -3.13258E+004   -3.61348E+003   -8.14158E+005
            7002    3.95056E+006    4.33201E+006    4.33201E+006    5.70205E+005    2.16490E+005    4.11552E+006   -1.70624E+006    3.91470E+006    5.70331E+005    4.23939E+006    3.08988E+005   -2.14943E+004    3.78076E+003   -6.10004E+005
            7003    3.64650E+006    4.07126E+006    4.07126E+006    4.63516E+005    3.87204E+005    3.68406E+006   -1.64066E+006    3.64470E+006    4.62990E+005    4.05795E+006    4.01045E+005   -7.66830E+003    6.89657E+003   -2.20908E+005
            7004    4.86016E+006    6.26341E+006    6.26341E+006    1.66104E+006    1.18108E+006    5.08233E+006   -3.03518E+006    4.80641E+006    1.66104E+006    6.23771E+006    1.20678E+006    1.32372E+004   -4.98686E+003   -3.60247E+005
            7005    5.98391E+006    8.12674E+006    8.12674E+006    2.60494E+006    1.76870E+006    6.35804E+006   -4.16679E+006    5.85028E+006    2.60497E+006    8.11675E+006    1.77864E+006    1.43159E+004   -1.53514E+003   -2.51271E+005
            7006    7.55961E+006    1.04563E+007    1.04563E+007    3.68618E+006    2.29930E+006    8.15702E+006   -5.48060E+006    7.26507E+006    3.68621E+006    1.04450E+007    2.31058E+006    1.54068E+004    1.64469E+003   -3.03094E+005
            7007    9.24102E+006    1.29365E+007    1.29365E+007    4.82849E+006    2.87486E+006    1.00616E+007   -6.87995E+006    8.75812E+006    4.82852E+006    1.29310E+007    2.88033E+006    1.61202E+004    4.09784E+003   -2.34171E+005
            7008    5.66066E+006    6.58316E+006    6.58316E+006    1.66481E+006    3.95662E+005    6.18750E+006   -2.88121E+006    5.32625E+006    1.66491E+006    6.47513E+006    5.03600E+005    3.05468E+004    5.85935E+003   -8.09772E+005
            7009    7.06582E+006    8.74166E+006    8.74166E+006    2.69411E+006    9.74875E+005    7.76679E+006   -4.13688E+006    6.57003E+006    2.69422E+006    8.62996E+006    1.08646E+006    3.33182E+004    6.41708E+003   -9.23977E+005
            7010    8.15507E+006    1.08024E+007    1.08024E+007    3.78406E+006    1.85607E+006    8.94630E+006   -5.48083E+006    7.61655E+006    3.78414E+006    1.06990E+007    1.95933E+006    3.37095E+004    8.03203E+003   -9.55278E+005
            7011    9.50343E+006    1.31659E+007    1.31659E+007    4.97599E+006    2.74570E+006    1.04202E+007   -6.96254E+006    8.88552E+006    4.97610E+006    1.30889E+007    2.82258E+006    3.36835E+004    5.51636E+003   -8.91524E+005
            7012    1.10759E+007    1.36005E+007    1.36005E+007    4.78712E+006    1.16779E+006    1.24327E+007   -6.51848E+006    9.60352E+006    4.78717E+006    1.32509E+007    1.51739E+006    5.36099E+004    1.96661E+004   -2.05462E+006
            7013    1.02351E+007    1.13613E+007    1.13613E+007    3.50028E+006   -2.11996E+005    1.15732E+007   -4.88318E+006    8.50960E+006    3.50035E+006    1.11476E+007    1.58151E+003    5.19764E+004    2.24083E+004   -1.55676E+006
            7014    9.07277E+006    9.34291E+006    9.34291E+006    2.51020E+006   -9.50995E+005    1.02939E+007   -3.63404E+006    7.35038E+006    2.51028E+006    9.21110E+006   -8.19266E+005    4.88674E+004    2.27723E+004   -1.15598E+006
            7015    7.81315E+006    7.62627E+006    7.62627E+006    1.76927E+006   -1.24505E+006    8.87131E+006   -2.71683E+006    6.28962E+006    1.76935E+006    7.57788E+006   -1.19675E+006    4.45048E+004    2.29744E+004   -6.51250E+005
            7016    6.62420E+006    5.93495E+006    5.93495E+006    1.08222E+006   -1.61180E+006    7.54675E+006   -1.80179E+006    5.15585E+006    1.08219E+006    5.93406E+006   -1.61089E+006    3.91281E+004    2.99152E+004   -6.58199E+004
            7017    5.67572E+006    4.68685E+006    4.68685E+006    6.64039E+005   -1.80525E+006    6.49210E+006   -1.18188E+006    4.18301E+006    6.63961E+005    4.61564E+006   -1.73396E+006    3.20406E+004    3.46361E+004    6.74680E+005
            7018    4.67426E+006    3.94382E+006    3.94382E+006    6.05934E+005   -1.39834E+006    5.34217E+006   -1.05047E+006    3.49033E+006    6.05817E+005    3.69932E+006   -1.15372E+006    2.62538E+004    3.65689E+004    1.11561E+006
            7019    3.71817E+006    3.33118E+006    3.33118E+006    6.10275E+005   -9.05432E+005    4.23661E+006   -1.01201E+006    2.88918E+006    6.10140E+005    2.86695E+006   -4.41071E+005    1.91787E+004    3.45883E+004    1.32281E+006
            7020    3.43577E+006    3.57890E+006    3.57890E+006    8.13437E+005   -2.67299E+005    3.84619E+006   -1.37501E+006    3.01621E+006    8.13586E+005    3.47197E+006   -1.60518E+005    2.10416E+004    9.47444E+003    6.31790E+005
            7021    3.90107E+006    4.32064E+006    4.32064E+006    1.09685E+006   -1.59103E+004    4.33655E+006   -1.80053E+006    3.51654E+006    1.09702E+006    4.31214E+006   -7.57932E+003    2.56015E+004    7.84002E+003    1.89423E+005
            7022    3.99137E+006    3.96447E+006    3.96447E+006    7.68267E+005   -5.09261E+005    4.47373E+006   -1.40782E+006    3.48478E+006    7.68422E+005    3.93664E+006   -4.81590E+005    2.69830E+004    1.27970E+004    3.50183E+005
            7023    4.27339E+006    4.58083E+006    4.58083E+006    1.00929E+006   -1.53657E+005    4.73449E+006   -1.81215E+006    3.89282E+006    1.00954E+006    4.58049E+006   -1.53575E+005    3.33927E+004    8.21891E+003    1.09198E+004
            7024    4.67143E+006    4.48997E+006    4.48997E+006    7.48021E+005   -7.45627E+005    5.23559E+006   -1.49745E+006    4.07990E+006    7.48138E+005    4.47763E+006   -7.33405E+005    3.31365E+004    1.40911E+004   -2.50958E+005
            7025    4.14402E+006    4.36817E+006    4.36817E+006    7.67522E+005   -1.61508E+005    4.52968E+006   -1.65806E+006    3.89925E+006    7.67827E+005    4.35061E+006   -1.44251E+005    3.82226E+004    6.79245E+003   -2.78309E+005
            7026    4.85026E+006    4.95528E+006    4.95528E+006    8.76868E+005   -4.08061E+005    5.36334E+006   -1.80803E+006    4.44249E+006    8.76973E+005    4.82488E+006   -2.77764E+005    3.52850E+004    9.34646E+003   -8.25186E+005
            7027    3.65502E+006    3.81991E+006    3.81991E+006    4.30626E+005   -5.27359E+004    3.87265E+006   -1.39927E+006    3.58205E+006    4.30893E+005    3.77862E+006   -1.17055E+004    3.63978E+004    3.62787E+003   -3.95941E+005
            7028    3.17487E+006    3.21000E+006    3.21000E+006    6.60684E+004    5.07284E+003    3.20493E+006   -1.09371E+006    3.17355E+006    6.61684E+004    3.16993E+006    4.50485E+004    2.70649E+004   -2.00856E+002   -3.55104E+005
            7029    2.75180E+006    2.72697E+006    2.72697E+006    1.43114E+005   -1.66573E+005    2.89354E+006   -9.01170E+005    2.71218E+006   -1.66518E+005    2.71749E+006    1.52536E+005    1.00684E+004   -3.03448E+003   -1.55905E+005
            7030    4.52882E+006    4.96348E+006    4.96348E+006    8.73829E+005    9.62019E+004    4.86728E+006   -1.97784E+006    4.37482E+006    8.73953E+005    4.82186E+006    2.37700E+005    2.76168E+004    1.75958E+003   -8.17565E+005
            7031    3.98302E+006    4.66213E+006    4.66213E+006    7.90553E+005    5.76318E+005    4.08582E+006   -2.00967E+006    3.97003E+006    7.90442E+005    4.63575E+006    6.02814E+005    1.07569E+004   -6.43844E+003   -3.27064E+005
            7032    1.16668E+007    1.58469E+007    1.58469E+007    6.23441E+006    2.86663E+006    1.29803E+007   -8.31598E+006    1.04867E+007    6.23416E+006    1.52951E+007    3.41866E+006   -7.50206E+004   -3.40339E+004   -2.61757E+006
            7033    1.08680E+007    1.56022E+007    1.56022E+007    6.28741E+006    3.66195E+006    1.19402E+007   -8.51717E+006    1.01169E+007    6.28767E+006    1.54073E+007    3.85657E+006   -4.97668E+004    2.50994E+003   -1.51189E+006
            7034    1.08008E+007    1.54122E+007    1.54122E+007    6.10211E+006    3.57042E+006    1.18418E+007   -8.36158E+006    1.01004E+007    6.10205E+006    1.53540E+007    3.62873E+006   -9.05375E+003   -1.28242E+004   -8.28361E+005
            7035    1.09500E+007    1.54029E+007    1.54029E+007    5.95159E+006    3.40358E+006    1.19993E+007   -8.25270E+006    1.02506E+007    5.95213E+006    1.53893E+007    3.41663E+006   -7.26612E+004   -4.33057E+003   -3.95091E+005
            7036    1.10519E+007    1.54087E+007    1.54087E+007    5.88075E+006    3.29225E+006    1.21164E+007   -8.19389E+006    1.03363E+007    5.88102E+006    1.54074E+007    3.29329E+006    5.08801E+004   -3.63814E+003   -1.11951E+005
            7037    1.07731E+007    1.73781E+007    1.73781E+007    7.77851E+006    5.72654E+006    1.16515E+007   -1.02944E+007    1.03196E+007    7.77830E+006    1.69469E+007    6.15789E+006   -8.13763E+004   -2.54139E+004   -2.19787E+006
            7038    1.12041E+007    1.74140E+007    1.74140E+007    7.50085E+006    5.25824E+006    1.21558E+007   -1.00577E+007    1.06815E+007    7.50113E+006    1.73035E+007    5.36848E+006   -5.24825E+004    3.25404E+003   -1.15234E+006
            7039    1.18584E+007    1.74867E+007    1.74867E+007    7.19649E+006    4.51818E+006    1.29685E+007   -9.73378E+006    1.11470E+007    7.19648E+006    1.74576E+007    4.54729E+006    5.40033E+003   -7.90790E+003   -6.13517E+005
            7040    1.23932E+007    1.75788E+007    1.75788E+007    6.95463E+006    3.96384E+006    1.36150E+007   -9.49909E+006    1.15386E+007    6.95534E+006    1.75725E+007    3.96938E+006   -8.78213E+004   -4.08625E+003   -2.74235E+005
            7041    1.26514E+007    1.76078E+007    1.76078E+007    6.83271E+006    3.67738E+006    1.39304E+007   -9.37262E+006    1.17160E+007    6.83310E+006    1.76069E+007    3.67785E+006    6.49350E+004   -2.55602E+003   -8.11829E+004
            7042    9.63305E+006    1.79867E+007    1.79867E+007    8.78243E+006    7.97553E+006    1.00111E+007   -1.15815E+007    9.55657E+006    8.78284E+006    1.79093E+007    8.05247E+006   -8.41685E+004   -9.32554E+003   -8.72242E+005
            7043    1.13142E+007    1.84356E+007    1.84356E+007    8.22410E+006    6.27260E+006    1.21630E+007   -1.09774E+007    1.09259E+007    8.22438E+006    1.84199E+007    6.28802E+006   -5.36760E+004    1.19239E+003   -4.32820E+005
            7044    1.24645E+007    1.86802E+007    1.86802E+007    7.82435E+006    5.06830E+006    1.36119E+007   -1.05243E+007    1.17493E+007    7.82436E+006    1.86765E+007    5.07202E+006    1.40539E+004   -2.42258E+003   -2.24776E+005
            7045    1.32351E+007    1.88552E+007    1.88552E+007    7.54272E+006    4.30011E+006    1.45551E+007   -1.02327E+007    1.22928E+007    7.54355E+006    1.88535E+007    4.30095E+006   -9.73332E+004   -2.27520E+003   -1.10648E+005
            7046    1.36053E+007    1.89208E+007    1.89208E+007    7.39948E+006    3.91079E+006    1.50100E+007   -1.00770E+007    1.25384E+007    7.39995E+006    1.89203E+007    3.91084E+006    7.29696E+004   -8.39754E+002   -2.83428E+004
            7047    3.67709E+006    3.27383E+006    3.27383E+006    5.93151E+005   -9.18071E+005    4.19190E+006   -9.82971E+005    2.84051E+006    5.92973E+005    2.79565E+006   -4.39706E+005   -1.74248E+004    3.46490E+004   -1.33212E+006
            7048    3.31835E+006    3.46255E+006    3.46255E+006    7.97480E+005   -2.54213E+005    3.71676E+006   -1.33527E+006    2.90631E+006    7.97588E+005    3.34405E+006   -1.35823E+005   -1.79738E+004    9.14138E+003   -6.52595E+005
            7049    3.77863E+006    4.16876E+006    4.16876E+006    1.06520E+006   -3.89590E+004    4.20772E+006   -1.73167E+006    3.38613E+006    1.06534E+006    4.16034E+006   -3.06785E+004   -2.31909E+004    7.70605E+003   -1.86018E+005
            7050    2.66565E+006    2.61490E+006    2.61490E+006    5.75035E+005   -4.01257E+005    3.01616E+006   -9.29559E+005    2.20595E+006    5.74794E+005    2.06999E+006    1.43891E+005   -1.16367E+004    3.00458E+004   -1.16003E+006
            7051    2.70590E+006    2.98680E+006    2.98680E+006    7.72352E+005   -2.93776E+004    3.01617E+006   -1.24326E+006    2.41621E+006    7.72425E+005    2.87113E+006    8.62191E+004   -1.27222E+004    5.40884E+003   -5.79015E+005
            7052    3.27340E+006    3.65903E+006    3.65903E+006    9.86249E+005    8.04999E+003    3.65098E+006   -1.55111E+006    2.91634E+006    9.86294E+005    3.64936E+006    1.76821E+004   -1.46492E+004    6.98268E+003   -1.86893E+005
            7053    1.55170E+006    1.84747E+006    1.84747E+006    5.17069E+005    1.42893E+005    1.70457E+006   -8.35810E+005    1.44487E+006    5.16029E+005    1.54501E+006    4.46387E+005   -4.18628E+003    2.52376E+004   -6.50765E+005
            7054    2.19418E+006    2.55141E+006    2.55141E+006    7.10040E+005    1.23585E+005    2.42782E+006   -1.12834E+006    2.00618E+006    7.10037E+005    2.51015E+006    1.64850E+005   -4.44826E+003    3.66838E+003   -3.13755E+005
            7055    2.86991E+006    3.23427E+006    3.23427E+006    8.92958E+005    3.25806E+004    3.20169E+006   -1.38660E+006    2.55465E+006    8.92935E+005    3.23122E+006    3.56473E+004   -6.57643E+003    6.27894E+003   -9.83460E+004
            7056    8.42890E+005    1.33750E+006    1.33750E+006    5.28732E+005    4.64200E+005    8.73301E+005   -7.76811E+005    8.37305E+005    4.74253E+005    1.33641E+006    5.19772E+005   -1.72871E+002    2.34118E+004    2.98913E+004
            7057    2.01369E+006    2.40776E+006    2.40776E+006    6.93161E+005    1.90294E+005    2.21747E+006   -1.09707E+006    1.86441E+006    6.93141E+005    2.40690E+006    1.91180E+005   -2.53632E+002    3.12983E+003    4.38117E+004
            7058    2.75150E+006    3.09887E+006    3.09887E+006    8.56562E+005    2.84125E+004    3.07046E+006   -1.32795E+006    2.44662E+006    8.56519E+005    3.09884E+006    2.84921E+004    9.58970E+002    6.01726E+003    1.04950E+004
            7059    1.68495E+006    1.94861E+006    1.94861E+006    5.29824E+005    8.62429E+004    1.86237E+006   -8.54892E+005    1.54519E+006    5.29082E+005    1.60428E+006    4.31316E+005    6.21110E+003    2.55042E+004    7.22559E+005
            7060    2.28909E+006    2.63588E+006    2.63588E+006    7.24719E+005    9.89829E+004    2.53689E+006   -1.15319E+006    2.08327E+006    7.24741E+005    2.58138E+006    1.53462E+005    7.65462E+003    3.87944E+003    3.67706E+005
            7061    2.94603E+006    3.32254E+006    3.32254E+006    9.16218E+005    3.70010E+004    3.28554E+006   -1.42525E+006    2.62559E+006    9.16210E+005    3.31749E+006    4.20629E+004    8.77738E+003    6.40456E+003    1.28330E+005
            7062    2.74908E+006    2.69712E+006    2.69712E+006    5.94486E+005   -4.13718E+005    3.11084E+006   -9.59297E+005    2.27350E+006    5.94216E+005    2.15970E+006    1.23975E+005    1.15759E+004    3.06237E+004    1.17561E+006
            7063    2.86038E+006    3.12533E+006    3.12533E+006    7.94654E+005   -6.67681E+004    3.19209E+006   -1.28440E+006    2.54303E+006    7.94721E+005    2.99684E+006    6.16513E+004    1.28385E+004    6.21460E+003    6.27201E+005
            7064    3.42229E+006    3.80140E+006    3.80140E+006    1.00832E+006   -1.61119E+004    3.81751E+006   -1.59787E+006    3.04760E+006    1.00839E+006    3.79166E+006   -6.44311E+003    1.69744E+004    7.12615E+003    1.91495E+005
            7065    1.10434E+007    1.53944E+007    1.53944E+007    5.87377E+006    3.28742E+006    1.21070E+007   -8.18521E+006    1.03285E+007    5.87404E+006    1.53932E+007    3.28842E+006    5.08404E+004    3.62930E+003    1.09848E+005
            7066    1.09523E+007    1.54039E+007    1.54039E+007    5.95151E+006    3.40154E+006    1.20023E+007   -8.25231E+006    1.02520E+007    5.95204E+006    1.53902E+007    3.41466E+006   -7.23245E+004    4.44908E+003    3.96335E+005
            7067    1.08087E+007    1.54257E+007    1.54257E+007    6.10938E+006    3.57502E+006    1.18506E+007   -8.37002E+006    1.01072E+007    6.10932E+006    1.53666E+007    3.63416E+006   -9.03144E+003    1.26352E+004    8.34565E+005
            7068    1.08707E+007    1.56146E+007    1.56146E+007    6.29663E+006    3.67188E+006    1.19427E+007   -8.52771E+006    1.01202E+007    6.29689E+006    1.54162E+007    3.87006E+006   -5.01109E+004   -2.27800E+003    1.52558E+006
            7069    1.16656E+007    1.58581E+007    1.58581E+007    6.24357E+006    2.88031E+006    1.29778E+007   -8.32732E+006    1.04888E+007    6.24332E+006    1.53054E+007    3.43321E+006   -7.53087E+004    3.42263E+004    2.61928E+006
            7070    1.26518E+007    1.76062E+007    1.76062E+007    6.83116E+006    3.67518E+006    1.39310E+007   -9.37084E+006    1.17160E+007    6.83156E+006    1.76053E+007    3.67567E+006    6.55819E+004    2.54635E+003    8.26305E+004
            7071    1.23943E+007    1.75773E+007    1.75773E+007    6.95259E+006    3.96110E+006    1.36162E+007   -9.49701E+006    1.15393E+007    6.95330E+006    1.75711E+007    3.96659E+006   -8.75178E+004    4.05896E+003    2.73065E+005
            7072    1.18589E+007    1.74832E+007    1.74832E+007    7.19348E+006    4.51376E+006    1.29694E+007   -9.73015E+006    1.11467E+007    7.19346E+006    1.74540E+007    4.54297E+006    4.58213E+003    7.93163E+003    6.14555E+005
            7073    1.11948E+007    1.74219E+007    1.74219E+007    7.51205E+006    5.27883E+006    1.21431E+007   -1.00709E+007    1.06762E+007    7.51233E+006    1.73092E+007    5.39122E+006   -5.29748E+004   -3.19185E+003    1.16280E+006
            7074    1.07715E+007    1.73808E+007    1.73808E+007    7.78217E+006    5.73143E+006    1.16494E+007   -1.02981E+007    1.03184E+007    7.78193E+006    1.69444E+007    6.16807E+006   -8.16130E+004    2.58409E+004    2.21052E+006
            7075    1.36004E+007    1.89167E+007    1.89167E+007    7.39859E+006    3.91259E+006    1.50041E+007   -1.00760E+007    1.25348E+007    7.39906E+006    1.89162E+007    3.91264E+006    7.33497E+004    8.81326E+002    2.75267E+004
            7076    1.32399E+007    1.88552E+007    1.88552E+007    7.54036E+006    4.29404E+006    1.45612E+007   -1.02299E+007    1.22957E+007    7.54119E+006    1.88536E+007    4.29486E+006   -9.70516E+004    2.23407E+003    1.09579E+005
            7077    1.24644E+007    1.86827E+007    1.86827E+007    7.82621E+006    5.07138E+006    1.36114E+007   -1.05268E+007    1.17498E+007    7.82622E+006    1.86791E+007    5.07499E+006    1.39384E+004    2.42703E+003    2.21614E+005
            7078    1.12994E+007    1.84242E+007    1.84242E+007    8.22265E+006    6.27907E+006    1.21451E+007   -1.09753E+007    1.09138E+007    8.22293E+006    1.84090E+007    6.29392E+006   -5.37206E+004   -1.31344E+003    4.24351E+005
            7079    9.62902E+006    1.79683E+007    1.79683E+007    8.77065E+006    7.95924E+006    1.00090E+007   -1.15661E+007    9.55164E+006    8.77104E+006    1.78904E+007    8.03669E+006   -8.42126E+004    9.60301E+003    8.74987E+005
            7080    7.00763E+006    6.11697E+006    6.11697E+006    1.12438E+006   -1.89407E+006    8.01103E+006   -1.78243E+006    5.21183E+006    1.12436E+006    6.11205E+006   -1.88914E+006   -3.87914E+004    3.23938E+004   -1.91937E+005
            7081    8.47417E+006    7.62360E+006    7.62360E+006    1.60227E+006   -2.06682E+006    9.69043E+006   -2.38635E+006    6.27320E+006    1.60222E+006    7.61350E+006   -2.05668E+006   -4.44914E+004    3.49479E+004    3.07816E+005
            7082    9.77135E+006    9.33775E+006    9.33775E+006    2.29632E+006   -1.81795E+006    1.11557E+007   -3.27204E+006    7.40887E+006    2.29624E+006    9.27797E+006   -1.75809E+006   -5.05129E+004    3.72582E+004    8.12218E+005
            7083    1.09498E+007    1.14271E+007    1.14271E+007    3.31080E+006   -1.02701E+006    1.24541E+007   -4.57031E+006    8.67386E+006    3.31068E+006    1.12337E+007   -8.33490E+005   -5.82006E+004    3.79039E+004    1.53847E+006
            7084    1.16967E+007    1.37274E+007    1.37274E+007    4.66508E+006    5.23307E+005    1.32041E+007   -6.30526E+006    9.83125E+006    4.66489E+006    1.33341E+007    9.16759E+005   -6.69386E+004    3.81609E+004    2.24338E+006
            7085    1.01884E+007    1.33673E+007    1.33673E+007    4.91785E+006    2.05336E+006    1.13140E+007   -6.77951E+006    9.21500E+006    4.91810E+006    1.31524E+007    2.26800E+006   -4.91948E+004    1.82239E+003    1.54337E+006
            7086    9.52503E+006    1.30182E+007    1.30182E+007    4.86223E+006    2.54990E+006    1.04683E+007   -6.81012E+006    8.85990E+006    4.86215E+006    1.29361E+007    2.63205E+006   -2.06112E+004    1.52241E+004    9.22989E+005
            7087    9.27348E+006    1.28910E+007    1.28910E+007    4.79596E+006    2.77311E+006    1.01179E+007   -6.82003E+006    8.75619E+006    4.79633E+006    1.28692E+007    2.79455E+006   -5.64744E+004    3.04708E+003    4.65125E+005
            7088    9.20861E+006    1.28443E+007    1.28443E+007    4.75527E+006    2.82288E+006    1.00215E+007   -6.80750E+006    8.73477E+006    4.75539E+006    1.28420E+007    2.82505E+006    3.16041E+004    3.24509E+003    1.47414E+005
            7089    9.28264E+006    1.11084E+007    1.11084E+007    3.63501E+006    7.17458E+005    1.03909E+007   -5.15362E+006    8.15111E+006    3.63526E+006    1.09293E+007    8.96281E+005   -4.84240E+004    5.85395E+003    1.35114E+006
            7090    8.21411E+006    1.06715E+007    1.06715E+007    3.66966E+006    1.62958E+006    9.04190E+006   -5.32357E+006    7.61217E+006    3.66960E+006    1.05751E+007    1.72601E+006   -2.91987E+004    1.53125E+004    9.27976E+005
            7091    7.73073E+006    1.05177E+007    1.05177E+007    3.67887E+006    2.12963E+006    8.38804E+006   -5.44206E+006    7.36923E+006    3.67913E+006    1.04843E+007    2.16275E+006   -4.29088E+004    1.22991E+003    5.25932E+005
            7092    7.49641E+006    1.04213E+007    1.04213E+007    3.67159E+006    2.35307E+006    8.06820E+006   -5.48197E+006    7.22860E+006    3.67161E+006    1.04182E+007    2.35615E+006    1.38922E+004    1.36163E+003    1.57661E+005
            7093    8.23259E+006    9.03092E+006    9.03092E+006    2.55048E+006   -2.32466E+005    9.26339E+006   -3.78298E+006    7.05149E+006    2.55068E+006    8.89461E+006   -9.63536E+004   -4.63584E+004    1.16428E+004    1.11415E+006
            7094    7.11088E+006    8.68707E+006    8.68707E+006    2.65176E+006    8.48008E+005    7.83906E+006   -4.06228E+006    6.56592E+006    2.65176E+006    8.57782E+006    9.57263E+005   -3.34249E+004    1.35272E+004    9.18267E+005
            7095    6.41645E+006    8.47206E+006    8.47206E+006    2.70174E+006    1.56218E+006    6.90988E+006   -4.24533E+006    6.18260E+006    2.70193E+006    8.42435E+006    1.60971E+006   -3.30372E+004   -9.23544E+002    5.71042E+005
            7096    6.13572E+006    8.38011E+006    8.38011E+006    2.71337E+006    1.86394E+006    6.51617E+006   -4.31914E+006    6.00129E+006    2.71336E+006    8.37332E+006    1.87073E+006    2.22660E+003   -1.63025E+003    2.10184E+005
            7097    7.18265E+006    7.32443E+006    7.32443E+006    1.73660E+006   -7.77273E+005    8.10170E+006   -2.76125E+006    6.06736E+006    1.73677E+006    7.24050E+006   -6.93510E+005   -4.26916E+004    1.40775E+004    8.18844E+005
            7098    6.01659E+006    6.97063E+006    6.97063E+006    1.82524E+006    3.55286E+005    6.61535E+006   -3.05039E+006    5.59075E+006    1.82528E+006    6.85204E+006    4.73836E+005   -3.39417E+004    1.10109E+004    8.76994E+005
            7099    5.44826E+006    6.86193E+006    6.86193E+006    1.89071E+006    1.03736E+006    5.82458E+006   -3.26333E+006    5.29476E+006    1.89085E+006    6.78681E+006    1.11233E+006   -2.67283E+004   -2.81853E+003    6.56562E+005
            7100    5.12338E+006    6.73220E+006    6.73220E+006    1.89141E+006    1.36663E+006    5.36557E+006   -3.33008E+006    5.06238E+006    1.89137E+006    6.72323E+006    1.37564E+006   -4.03803E+003   -4.82471E+003    2.19176E+005
            7101    5.74827E+006    5.67084E+006    5.67084E+006    1.11659E+006   -7.88002E+005    6.45884E+006   -1.99981E+006    4.96003E+006    1.11667E+006    5.61587E+006   -7.33114E+005   -3.78092E+004    1.63305E+004    5.91755E+005
            7102    5.17066E+006    5.71267E+006    5.71267E+006    1.22190E+006    5.98627E+004    5.65280E+006   -2.33148E+006    4.86368E+006    1.22197E+006    5.55519E+006    2.17266E+005   -3.27781E+004    7.51015E+003    9.29612E+005
            7103    4.68604E+006    5.53505E+006    5.53505E+006    1.19429E+006    5.66938E+005    4.96811E+006   -2.43209E+006    4.59013E+006    1.19441E+006    5.43986E+006    6.62011E+005   -2.28493E+004   -4.10642E+003    6.80645E+005
            7104    4.37216E+006    5.37693E+006    5.37693E+006    1.16750E+006    8.58431E+005    4.51850E+006   -2.46762E+006    4.34748E+006    1.16738E+006    5.36199E+006    8.73496E+005   -6.77159E+003   -6.92036E+003    2.59273E+005
            7105    3.66503E+006    4.09950E+006    4.09950E+006    4.77592E+005    3.92816E+005    3.70668E+006   -1.65664E+006    3.66282E+006    4.77119E+005    4.08606E+006    4.06727E+005   -7.65743E+003   -6.90462E+003    2.22617E+005
            7106    2.64021E+006    2.52457E+006    2.52457E+006    9.20866E+004   -2.83199E+005    2.80777E+006   -7.77821E+005    2.57918E+006   -2.83154E+005    2.52068E+006    9.59406E+004   -8.20135E+003   -3.08392E+003    9.69998E+004
            7107    3.94819E+006    4.33352E+006    4.33352E+006    5.72287E+005    2.21749E+005    4.11177E+006   -1.70919E+006    3.91295E+006    5.72412E+005    4.24109E+006    3.14057E+005   -2.14505E+004   -3.87607E+003    6.09107E+005
            7108    2.91228E+006    2.88706E+006    2.88706E+006    5.14843E+004   -9.62931E+004    2.98335E+006   -9.47416E+005    2.90382E+006   -9.61073E+004    2.86104E+006    7.73124E+004   -2.33063E+004   -1.55987E+003    2.69396E+005
            7109    4.36573E+006    4.62009E+006    4.62009E+006    7.03992E+005   -8.70963E+004    4.70718E+006   -1.74566E+006    4.19991E+006    7.04122E+005    4.47435E+006    5.85053E+004   -3.11925E+004    3.52088E+003    8.14665E+005
            7110    3.36655E+006    3.45833E+006    3.45833E+006    2.13609E+005   -1.80858E+004    3.47641E+006   -1.21795E+006    3.34854E+006    2.13859E+005    3.41951E+006    2.04799E+004   -3.31212E+004    8.98700E+002    3.63711E+005
            7111    4.61546E+006    4.64687E+006    4.64687E+006    7.77233E+005   -4.61575E+005    5.10845E+006   -1.65418E+006    4.21642E+006    7.77314E+005    4.56976E+006   -3.84541E+005   -3.52370E+004    1.18737E+004    6.21706E+005
            7112    3.81710E+006    4.00818E+006    4.00818E+006    5.52567E+005   -8.90875E+004    4.09726E+006   -1.49055E+006    3.69283E+006    5.52884E+005    3.98052E+006   -6.17438E+004   -3.75492E+004    4.16558E+003    3.33085E+005
            7113    4.09982E+006    4.36353E+006    4.36353E+006    8.31324E+005   -1.32261E+005    4.49579E+006   -1.68753E+006    3.83242E+006    8.31624E+005    4.35508E+006   -1.24110E+005   -3.67919E+004    7.01918E+003    1.90350E+005
            7114    4.12407E+006    4.45633E+006    4.45633E+006    1.01973E+006   -1.16835E+005    4.57316E+006   -1.78641E+006    3.74668E+006    1.01995E+006    4.45581E+006   -1.16546E+005   -3.10737E+004    8.14157E+003   -3.26783E+004
            7115    4.46238E+006    4.37101E+006    4.37101E+006    7.86757E+005   -6.26997E+005    4.99801E+006   -1.51026E+006    3.90873E+006    7.86854E+005    4.36622E+006   -6.22303E+005   -3.14612E+004    1.46467E+004    1.50261E+005
            7116    3.94316E+006    3.91080E+006    3.91080E+006    7.75342E+005   -5.16157E+005    4.42696E+006   -1.38999E+006    3.41628E+006    7.75509E+005    3.87384E+006   -4.79367E+005   -2.64564E+004    1.21766E+004   -4.01479E+005
            7117    4.69089E+006    3.91745E+006    3.91745E+006    5.90269E+005   -1.44774E+006    5.36519E+006   -1.01999E+006    3.46162E+006    5.90169E+005    3.63081E+006   -1.16100E+006   -2.60655E+004    3.71932E+004   -1.20575E+006
            7118    5.84478E+006    4.84278E+006    4.84278E+006    7.17837E+005   -1.84572E+006    6.68850E+006   -1.23830E+006    4.27458E+006    7.17750E+005    4.76874E+006   -1.77159E+006   -3.28488E+004    3.60306E+004   -6.98261E+005
            7119    7.79097E+006    7.59931E+006    7.59931E+006    1.74755E+006   -1.24407E+006    8.84339E+006   -2.70093E+006    6.28878E+006    1.74808E+006    7.55006E+006   -1.19535E+006    1.30113E+005   -7.05204E+004    6.40071E+005
            7120    9.06500E+006    9.33124E+006    9.33124E+006    2.49143E+006   -9.50651E+005    1.02819E+007   -3.62401E+006    7.36313E+006    2.49204E+006    9.19892E+006   -8.18939E+005    1.42696E+005   -6.77285E+004    1.14720E+006
            7121    1.02235E+007    1.13528E+007    1.13528E+007    3.48282E+006   -2.02367E+005    1.15551E+007   -4.87774E+006    8.52445E+006    3.48356E+006    1.11374E+007    1.22308E+004    1.55220E+005   -6.38383E+004    1.55281E+006
            7122    1.10596E+007    1.35851E+007    1.35851E+007    4.76493E+006    1.17699E+006    1.24081E+007   -6.50900E+006    9.61304E+006    4.76574E+006    1.32357E+007    1.52558E+006    1.64146E+005   -5.44422E+004    2.04468E+006
            7123    9.50358E+006    1.31249E+007    1.31249E+007    4.90529E+006    2.71849E+006    1.04064E+007   -6.91621E+006    8.91073E+006    4.90618E+006    1.30467E+007    2.79570E+006    1.14136E+005   -2.70759E+004    8.89418E+005
            7124    9.20496E+006    1.28542E+007    1.28542E+007    4.73518E+006    2.85394E+006    1.00003E+007   -6.81444E+006    8.75663E+006    4.73530E+006    1.28488E+007    2.85924E+006    3.62271E+004   -7.95136E+003    2.29277E+005
            7125    8.15310E+006    1.07629E+007    1.07629E+007    3.71768E+006    1.83231E+006    8.93062E+006   -5.43764E+006    7.63918E+006    3.71876E+006    1.06589E+007    1.93527E+006    1.13671E+005   -2.31050E+004    9.50212E+005
            7126    7.53434E+006    1.03885E+007    1.03885E+007    3.60213E+006    2.28098E+006    8.10754E+006   -5.42388E+006    7.26685E+006    3.60233E+006    1.03771E+007    2.29220E+006    3.73200E+004   -2.03373E+003    3.01334E+005
            7127    7.05422E+006    8.71182E+006    8.71182E+006    2.64430E+006    9.71583E+005    7.74024E+006   -4.10924E+006    6.58546E+006    2.64547E+006    8.60104E+006    1.08120E+006    1.09564E+005   -2.11822E+004    9.11556E+005
            7128    5.99654E+006    8.11280E+006    8.11280E+006    2.55008E+006    1.76065E+006    6.35215E+006   -4.14118E+006    5.87793E+006    2.55027E+006    8.10277E+006    1.77049E+006    3.62887E+004    7.41735E+003    2.49184E+005
            7129    5.66082E+006    6.57630E+006    6.57630E+006    1.63270E+006    4.01053E+005    6.17524E+006   -2.87002E+006    5.34674E+006    1.63396E+006    6.46856E+006    5.07526E+005    9.96971E+004   -1.51114E+004    8.01302E+005
            7130    4.88107E+006    6.26906E+006    6.26906E+006    1.62600E+006    1.18052E+006    5.08854E+006   -3.02519E+006    4.83502E+006    1.62573E+006    6.24393E+006    1.20592E+006    3.30494E+004    1.76876E+004    3.54862E+005
            7131    4.00409E+006    4.67512E+006    4.67512E+006    7.70424E+005    5.78531E+005    4.09659E+006   -2.00803E+006    3.99373E+006    7.68831E+005    4.64910E+006    6.06148E+005    3.15262E+004    2.14353E+004    3.23638E+005
            7132    2.77414E+006    2.73966E+006    2.73966E+006    1.44719E+005   -1.84332E+005    2.92399E+006   -9.00015E+005    2.72972E+006   -1.83789E+005    2.73031E+006    1.53523E+005    3.05761E+004    1.01675E+004    1.52689E+005
            7133    4.53166E+006    4.95939E+006    4.95939E+006    8.49439E+005    9.95758E+004    4.85982E+006   -1.96947E+006    4.38881E+006    8.50645E+005    4.81953E+006    2.38230E+005    8.42390E+004   -4.10629E+003    8.07638E+005
            7134    3.18543E+006    3.21156E+006    3.21156E+006    4.55586E+004    7.05027E+003    3.20451E+006   -1.08805E+006    3.18490E+006    4.61246E+004    3.17073E+006    4.73108E+004    8.01198E+004    1.50935E+003    3.50345E+005
            7135    3.65382E+006    3.81281E+006    3.81281E+006    4.06849E+005   -4.65563E+004    3.85936E+006   -1.39103E+006    3.58971E+006    4.09541E+005    3.76916E+006   -5.60451E+003    1.08275E+005   -6.45912E+003    3.91991E+005
            7136    4.13541E+006    4.35798E+006    4.35798E+006    7.45860E+005   -1.52895E+005    4.51088E+006   -1.65032E+006    3.90650E+006    7.48876E+005    4.33733E+006   -1.35262E+005    1.14079E+005   -1.46242E+004    2.77183E+005
            7137    4.26346E+006    4.57606E+006    4.57606E+006    9.96716E+005   -1.40776E+005    4.71684E+006   -1.81067E+006    3.89955E+006    9.99231E+005    4.57327E+006   -1.40497E+005    9.93990E+004   -1.71140E+004   -1.16814E+004
            7138    3.88698E+006    4.30999E+006    4.30999E+006    1.08590E+006   -6.22468E+003    4.31621E+006   -1.79655E+006    3.51615E+006    1.08757E+006    4.29987E+006    2.21759E+003    7.51839E+004   -1.41614E+004   -1.89444E+005
            7139    4.84353E+006    4.94155E+006    4.94155E+006    8.57301E+005   -4.09499E+005    5.35104E+006   -1.79645E+006    4.44733E+006    8.57547E+005    4.81215E+006   -2.80349E+005    1.07910E+005   -3.71322E+004    8.13854E+005
            7140    4.65749E+006    4.47670E+006    4.47670E+006    7.37437E+005   -7.40412E+005    5.21711E+006   -1.49124E+006    4.07765E+006    7.37397E+005    4.46212E+006   -7.25791E+005    1.01661E+005   -5.77326E+004    2.49496E+005
            7141    3.98092E+006    3.94820E+006    3.94820E+006    7.57878E+005   -5.12989E+005    4.46119E+006   -1.39770E+006    3.47858E+006    7.58100E+005    3.91826E+006   -4.83275E+005    8.46310E+004   -6.04892E+004   -3.48648E+005
            7142    3.43037E+006    3.56752E+006    3.56752E+006    8.05949E+005   -2.72476E+005    3.84000E+006   -1.36700E+006    3.01200E+006    8.06037E+005    3.45963E+006   -1.64672E+005    6.44708E+004   -5.59610E+004   -6.28723E+005
            7143    3.71083E+006    3.32465E+006    3.32465E+006    6.08013E+005   -9.03368E+005    4.22802E+006   -1.00977E+006    2.88529E+006    6.08347E+005    2.85693E+006   -4.35973E+005    5.06653E+004   -6.81926E+004   -1.32334E+006
            7144    4.68044E+006    3.94685E+006    3.94685E+006    6.03445E+005   -1.40218E+006    5.34903E+006   -1.04937E+006    3.49692E+006    6.03892E+005    3.69961E+006   -1.15539E+006    7.34709E+004   -7.94586E+004   -1.11753E+006
            7145    5.67426E+006    4.68760E+006    4.68760E+006    6.60036E+005   -1.80182E+006    6.48942E+006   -1.18194E+006    4.19261E+006    6.60461E+005    4.61391E+006   -1.72856E+006    9.33499E+004   -8.26984E+004   -6.75405E+005
            7146    6.60408E+006    5.92319E+006    5.92319E+006    1.07273E+006   -1.59798E+006    7.52117E+006   -1.79931E+006    5.16043E+006    1.07325E+006    5.92002E+006   -1.59533E+006    1.14832E+005   -7.52268E+004    5.98444E+004
            7147    1.10376E+007    1.54295E+007    1.54295E+007    5.87096E+006    3.34932E+006    1.20802E+007   -8.21660E+006    1.03593E+007    5.87106E+006    1.54265E+007    3.35221E+006    3.69389E+004   -1.00178E+004    1.85600E+005
            7148    1.08180E+007    1.55049E+007    1.55049E+007    6.12057E+006    3.67273E+006    1.18322E+007   -8.43274E+006    1.01665E+007    6.12146E+006    1.54529E+007    3.72383E+006    1.11597E+005   -2.38302E+004    7.72800E+005
            7149    1.13080E+007    1.57110E+007    1.57110E+007    6.22874E+006    3.19585E+006    1.25152E+007   -8.37855E+006    1.03319E+007    6.22985E+006    1.52887E+007    3.61708E+006    1.68663E+005   -3.82728E+004    2.25266E+006
            7150    1.26138E+007    1.76150E+007    1.76150E+007    6.82076E+006    3.74892E+006    1.38660E+007   -9.39488E+006    1.17271E+007    6.82087E+006    1.76138E+007    3.74998E+006    3.86102E+004   -7.70162E+003    1.20030E+005
            7151    1.19329E+007    1.75367E+007    1.75367E+007    7.15864E+006    4.49803E+006    1.30387E+007   -9.73112E+006    1.12361E+007    7.15953E+006    1.75139E+007    4.51997E+006    1.07198E+005   -1.87239E+004    5.31929E+005
            7152    1.08478E+007    1.73035E+007    1.73035E+007    7.62722E+006    5.57677E+006    1.17267E+007   -1.01691E+007    1.03983E+007    7.62877E+006    1.69970E+007    5.88168E+006    1.68742E+005   -2.25041E+004    1.86231E+006
            7153    1.35405E+007    1.88969E+007    1.88969E+007    7.37519E+006    3.98272E+006    1.49142E+007   -1.00849E+007    1.25297E+007    7.37533E+006    1.88966E+007    3.98286E+006    4.10096E+004   -2.97365E+003    4.63832E+004
            7154    1.25800E+007    1.87073E+007    1.87073E+007    7.75483E+006    4.96724E+006    1.37400E+007   -1.04764E+007    1.18549E+007    7.75579E+006    1.87038E+007    4.96975E+006    1.03553E+005   -6.05387E+003    1.85010E+005
            7155    1.01655E+007    1.80718E+007    1.80718E+007    8.52992E+006    7.38045E+006    1.06914E+007   -1.13274E+007    1.00177E+007    8.53252E+006    1.80167E+007    7.43294E+006    1.66936E+005   -6.36675E+003    7.45125E+005
            7156    3.77991E+006    4.17236E+006    4.17236E+006    1.05602E+006   -3.23282E+004    4.20469E+006   -1.73202E+006    3.39967E+006    1.05745E+006    4.16264E+006   -2.40488E+004   -6.89142E+004   -1.43231E+004    1.85044E+005
            7157    3.32369E+006    3.45521E+006    3.45521E+006    7.88122E+005   -2.68293E+005    3.72351E+006   -1.32501E+006    2.90835E+006    7.88174E+005    3.33480E+006   -1.47935E+005   -6.04239E+004   -5.45697E+004    6.53582E+005
            7158    3.66701E+006    3.27044E+006    3.27044E+006    5.94469E+005   -9.09435E+005    4.17988E+006   -9.85159E+005    2.83710E+006    5.94816E+005    2.79247E+006   -4.31807E+005   -4.91855E+004   -6.68259E+004    1.32747E+006
            7159    3.27277E+006    3.66399E+006    3.66399E+006    9.81214E+005    1.75989E+004    3.64639E+006   -1.55427E+006    2.92715E+006    9.81864E+005    3.65343E+006    2.75120E+004   -4.36790E+004   -1.09478E+004    1.89098E+005
            7160    2.70626E+006    2.97853E+006    2.97853E+006    7.66303E+005   -3.89635E+004    3.01749E+006   -1.23529E+006    2.41380E+006    7.65405E+005    2.86169E+006    7.87772E+004   -3.71056E+004   -4.65798E+004    5.79646E+005
            7161    2.66755E+006    2.61479E+006    2.61479E+006    5.74917E+005   -4.03904E+005    3.01869E+006   -9.28601E+005    2.20550E+006    5.74765E+005    2.07003E+006    1.41003E+005   -2.78939E+004   -5.15801E+004    1.15945E+006
            7162    2.86287E+006    3.23227E+006    3.23227E+006    8.87766E+005    4.17202E+004    3.19055E+006   -1.38725E+006    2.55810E+006    8.87863E+005    3.22896E+006    4.49345E+004   -1.99432E+004   -8.75056E+003    9.99802E+004
            7163    2.19332E+006    2.54371E+006    2.54371E+006    7.06541E+005    1.15399E+005    2.42831E+006   -1.12188E+006    2.00200E+006    7.04534E+005    2.50207E+006    1.59038E+005   -1.83658E+004   -3.95782E+004    3.13936E+005
            7164    1.56063E+006    1.85442E+006    1.85442E+006    5.20241E+005    1.38262E+005    1.71615E+006   -8.37640E+005    1.44975E+006    5.18489E+005    1.55001E+006    4.44424E+005   -1.31944E+004   -3.91133E+004    6.54354E+005
            7165    2.73939E+006    3.09096E+006    3.09096E+006    8.50178E+005    3.70581E+004    3.05390E+006   -1.32606E+006    2.44495E+006    8.50100E+005    3.09092E+006    3.71691E+004    2.58785E+003   -8.14378E+003   -9.49842E+003
            7166    2.01061E+006    2.39664E+006    2.39664E+006    6.89277E+005    1.80516E+005    2.21612E+006   -1.08881E+006    1.85733E+006    6.86522E+005    2.39579E+006    1.84121E+005    3.08117E+003   -3.74599E+004   -4.31676E+004
            7167    8.40365E+005    1.33354E+006    1.33354E+006    5.36864E+005    4.55409E+005    8.78126E+005   -7.75270E+005    8.31414E+005    4.74295E+005    1.33307E+006    5.18449E+005    1.41975E+003   -3.44158E+004   -1.94561E+004
            7168    2.92575E+006    3.30671E+006    3.30671E+006    9.07690E+005    4.72096E+004    3.25950E+006   -1.42054E+006    2.61753E+006    9.07886E+005    3.30144E+006    5.22831E+004    2.51092E+004   -8.97660E+003   -1.27549E+005
            7169    2.28669E+006    2.62710E+006    2.62710E+006    7.21107E+005    9.15926E+004    2.53551E+006   -1.14660E+006    2.07793E+006    7.19264E+005    2.57263E+006    1.47912E+005    2.10371E+004   -4.08257E+004   -3.66203E+005
            7170    1.66240E+006    1.93396E+006    1.93396E+006    5.31345E+005    9.77282E+004    1.83623E+006   -8.54345E+005    1.52719E+006    5.29839E+005    1.59808E+006    4.35115E+005    1.34587E+004   -3.97677E+004   -7.08747E+005
            7171    3.40111E+006    3.78282E+006    3.78282E+006    9.97048E+005   -7.39263E+003    3.79021E+006   -1.59082E+006    3.03956E+006    9.97875E+005    3.77213E+006    2.46406E+003    4.97687E+004   -1.15815E+004   -1.92212E+005
            7172    2.86361E+006    3.11897E+006    3.11897E+006    7.88854E+005   -7.78795E+004    3.19685E+006   -1.27665E+006    2.54238E+006    7.88359E+005    2.99139E+006    5.01916E+004    4.37158E+004   -4.76611E+004   -6.22695E+005
            7173    2.73035E+006    2.68273E+006    2.68273E+006    5.93145E+005   -4.06580E+005    3.08931E+006   -9.56430E+005    2.25978E+006    5.93160E+005    2.14284E+006    1.33295E+005    3.13980E+004   -5.26340E+004   -1.17160E+006
            7174    1.13110E+007    1.57176E+007    1.57176E+007    6.23222E+006    3.19923E+006    1.25183E+007   -8.38301E+006    1.03352E+007    6.23333E+006    1.52943E+007    3.62139E+006    1.68760E+005    3.82995E+004   -2.25534E+006
            7175    1.08261E+007    1.55203E+007    1.55203E+007    6.12801E+006    3.67966E+006    1.18406E+007   -8.44265E+006    1.01749E+007    6.12890E+006    1.54704E+007    3.72864E+006    1.11285E+005    2.36986E+004   -7.56876E+005
            7176    1.10626E+007    1.54648E+007    1.54648E+007    5.88639E+006    3.35633E+006    1.21085E+007   -8.23583E+006    1.03813E+007    5.88649E+006    1.54619E+007    3.35914E+006    3.69394E+004    1.00191E+004   -1.83278E+005
            7177    1.08344E+007    1.73102E+007    1.73102E+007    7.63851E+006    5.60207E+006    1.17081E+007   -1.01836E+007    1.03906E+007    7.64006E+006    1.70047E+007    5.90604E+006    1.68703E+005    2.24648E+004   -1.85798E+006
            7178    1.19475E+007    1.75355E+007    1.75355E+007    7.15080E+006    4.47804E+006    1.30575E+007   -9.72146E+006    1.12449E+007    7.15169E+006    1.75129E+007    4.49974E+006    1.06983E+005    1.87254E+004   -5.29396E+005
            7179    1.26235E+007    1.76288E+007    1.76288E+007    6.82679E+006    3.75192E+006    1.38769E+007   -9.40250E+006    1.17357E+007    6.82691E+006    1.76276E+007    3.75299E+006    3.85618E+004    7.69239E+003   -1.20870E+005
            7180    1.01547E+007    1.80728E+007    1.80728E+007    8.53589E+006    7.39635E+006    1.06764E+007   -1.13350E+007    1.00094E+007    8.53851E+006    1.80205E+007    7.44601E+006    1.66922E+005    6.32748E+003   -7.24395E+005
            7181    1.25874E+007    1.87019E+007    1.87019E+007    7.74735E+006    4.95171E+006    1.37502E+007   -1.04670E+007    1.18583E+007    7.74831E+006    1.86981E+007    4.95455E+006    1.03492E+005    6.15384E+003   -1.96627E+005
            7182    1.35380E+007    1.88953E+007    1.88953E+007    7.37513E+006    3.98418E+006    1.49111E+007   -1.00849E+007    1.25279E+007    7.37527E+006    1.88950E+007    3.98433E+006    4.09953E+004    3.06455E+003   -4.59761E+004
            7183    4.37509E+006    5.35002E+006    5.35002E+006    1.11920E+006    8.43691E+005    4.50633E+006   -2.43764E+006    4.35551E+006    1.11730E+006    5.33645E+006    8.59157E+005   -2.54279E+004    2.51730E+004   -2.45343E+005
            7184    5.12209E+006    6.69359E+006    6.69359E+006    1.82716E+006    1.34933E+006    5.34426E+006   -3.29003E+006    5.07158E+006    1.82665E+006    6.68428E+006    1.35915E+006   -3.04848E+004    1.96262E+004   -2.20445E+005
            7185    6.13275E+006    8.34574E+006    8.34574E+006    2.64517E+006    1.85700E+006    6.48874E+006   -4.28264E+006    6.01722E+006    2.64533E+006    8.33956E+006    1.86302E+006   -3.83987E+004    1.03977E+004   -1.95828E+005
            7186    7.52198E+006    1.04203E+007    1.04203E+007    3.60925E+006    2.34703E+006    8.07323E+006   -5.45885E+006    7.27797E+006    3.60963E+006    1.04170E+007    2.34988E+006   -5.08453E+004    3.54980E+002   -1.51495E+005
            7187    9.23423E+006    1.28447E+007    1.28447E+007    4.69016E+006    2.81774E+006    1.00269E+007   -6.78420E+006    8.79176E+006    4.69069E+006    1.28421E+007    2.81978E+006   -6.79294E+004   -7.61893E+003   -1.41534E+005
            7188    4.68277E+006    5.51714E+006    5.51714E+006    1.15843E+006    5.66578E+005    4.95056E+006   -2.41405E+006    4.59750E+006    1.15947E+006    5.42210E+006    6.60585E+005   -6.66162E+004    8.85675E+003   -6.75611E+005
            7189    5.44295E+006    6.84085E+006    6.84085E+006    1.84812E+006    1.03839E+006    5.80246E+006   -3.24245E+006    5.30490E+006    1.84901E+006    6.76501E+006    1.11334E+006   -6.75647E+004    3.10536E+003   -6.55046E+005
            7190    6.40252E+006    8.44058E+006    8.44058E+006    2.65253E+006    1.56332E+006    6.87726E+006   -4.21881E+006    6.18891E+006    2.65315E+006    8.39406E+006    1.60921E+006   -6.55190E+004   -5.12476E+003   -5.59283E+005
            7191    7.73162E+006    1.05042E+007    1.05042E+007    3.63681E+006    2.13022E+006    8.37403E+006   -5.42376E+006    7.39046E+006    3.63712E+006    1.04714E+007    2.16278E+006   -5.71724E+004   -1.18017E+004   -5.19931E+005
            7192    9.27281E+006    1.28683E+007    1.28683E+007    4.74802E+006    2.76410E+006    1.01042E+007   -6.79347E+006    8.77603E+006    4.74807E+006    1.28469E+007    2.78547E+006   -4.06911E+004   -1.53740E+004   -4.62548E+005
            7193    5.17905E+006    5.70737E+006    5.70737E+006    1.19197E+006    5.39379E+004    5.65343E+006   -2.31776E+006    4.88570E+006    1.19326E+006    5.55199E+006    2.08028E+005   -1.00588E+005   -1.37307E+004   -9.17984E+005
            7194    6.02174E+006    6.97486E+006    6.97486E+006    1.79356E+006    3.68381E+005    6.60648E+006   -3.04560E+006    5.62318E+006    1.79500E+006    6.85743E+006    4.84376E+005   -1.09866E+005   -1.83721E+004   -8.64717E+005
            7195    7.13010E+006    8.72145E+006    8.72145E+006    2.62606E+006    8.80732E+005    7.84071E+006   -4.07608E+006    6.62341E+006    2.62764E+006    8.61365E+006    9.86943E+005   -1.20530E+005   -2.05309E+004   -9.03331E+005
            7196    8.22891E+006    1.06931E+007    1.06931E+007    3.62596E+006    1.65894E+006    9.03417E+006   -5.32600E+006    7.67274E+006    3.62764E+006    1.05990E+007    1.75137E+006   -1.29283E+005   -2.09379E+004   -9.06149E+005
            7197    9.55741E+006    1.30416E+007    1.30416E+007    4.80294E+006    2.56328E+006    1.04784E+007   -6.80262E+006    8.93792E+006    4.80470E+006    1.29608E+007    2.64235E+006   -1.37824E+005   -2.05761E+004   -9.04003E+005
            7198    5.74209E+006    5.66969E+006    5.66969E+006    1.10631E+006   -7.77717E+005    6.44741E+006   -1.99943E+006    4.97179E+006    1.10664E+006    5.61326E+006   -7.21613E+005   -1.15493E+005   -5.57404E+004   -5.86193E+005
            7199    7.17649E+006    7.32919E+006    7.32919E+006    1.72841E+006   -7.60385E+005    8.08957E+006   -2.76574E+006    6.08527E+006    1.72888E+006    7.24384E+006   -6.75502E+005   -1.30723E+005   -6.22586E+004   -8.13053E+005
            7200    8.24441E+006    9.06611E+006    9.06611E+006    2.55858E+006   -2.05081E+005    9.27119E+006   -3.80653E+006    7.08382E+006    2.55912E+006    8.92669E+006   -6.62093E+004   -1.42223E+005   -6.12568E+004   -1.11700E+006
            7201    9.27730E+006    1.11202E+007    1.11202E+007    3.63737E+006    7.39945E+005    1.03802E+007   -5.16583E+006    8.16220E+006    3.63777E+006    1.09385E+007    9.21184E+005   -1.50381E+005   -6.16426E+004   -1.35091E+006
            7202    1.01580E+007    1.33403E+007    1.33403E+007    4.90902E+006    2.06275E+006    1.12775E+007   -6.77069E+006    9.19465E+006    4.90945E+006    1.31230E+007    2.27961E+006   -1.53534E+005   -5.56946E+004   -1.54123E+006
            7203    1.16857E+007    1.36839E+007    1.36839E+007    4.61209E+006    4.97339E+005    1.31865E+007   -6.26444E+006    9.84587E+006    4.61317E+006    1.32952E+007    8.84966E+005   -1.63054E+005   -5.06725E+004   -2.22292E+006
            7204    1.09171E+007    1.13753E+007    1.13753E+007    3.26684E+006   -1.03786E+006    1.24132E+007   -4.53476E+006    8.67344E+006    3.26782E+006    1.11845E+007   -8.48006E+005   -1.58416E+005   -6.79036E+004   -1.51614E+006
            7205    9.73408E+006    9.29782E+006    9.29782E+006    2.26700E+006   -1.81219E+006    1.11100E+007   -3.25088E+006    7.40870E+006    2.26791E+006    9.23773E+006   -1.75301E+006   -1.47510E+005   -7.83880E+004   -7.95264E+005
            7206    8.45000E+006    7.60822E+006    7.60822E+006    1.58994E+006   -2.05207E+006    9.66029E+006   -2.38203E+006    6.28105E+006    1.59061E+006    7.59612E+006   -2.04063E+006   -1.32531E+005   -8.41474E+004   -2.99519E+005
            7207    6.99752E+006    6.10875E+006    6.10875E+006    1.11497E+006   -1.88922E+006    7.99798E+006   -1.77817E+006    5.21948E+006    1.11535E+006    6.10090E+006   -1.88175E+006   -1.15337E+005   -8.75490E+004    2.01557E+005
            7208    5.81528E+006    4.83036E+006    4.83036E+006    7.17995E+005   -1.82297E+006    6.65333E+006   -1.24180E+006    4.26847E+006    7.18409E+005    4.75304E+006   -1.74606E+006   -9.49841E+004   -8.51466E+004    7.00833E+005
            7209    4.67290E+006    3.90954E+006    3.90954E+006    5.90193E+005   -1.43422E+006    5.34376E+006   -1.02184E+006    3.45740E+006    5.90627E+005    3.62043E+006   -1.14555E+006   -6.96752E+004   -7.85312E+004    1.20397E+006
            7210    3.95293E+006    3.90814E+006    3.90814E+006    7.66242E+005   -5.30219E+005    4.43836E+006   -1.38139E+006    3.42314E+006    7.66301E+005    3.86992E+006   -4.92062E+005   -8.00765E+004   -6.14996E+004    3.97357E+005
            7211    4.11773E+006    4.45175E+006    4.45175E+006    1.00468E+006   -1.07965E+005    4.55972E+006   -1.78282E+006    3.75656E+006    1.00697E+006    4.44905E+006   -1.07548E+005   -9.30423E+004   -1.66505E+004    2.90954E+004
            7212    4.46291E+006    4.36721E+006    4.36721E+006    7.77964E+005   -6.29834E+005    4.99705E+006   -1.50511E+006    3.91450E+006    7.77960E+005    4.36002E+006   -6.22638E+005   -9.99446E+004   -5.84978E+004   -1.49937E+005
            7213    4.09257E+006    4.35709E+006    4.35709E+006    8.14621E+005   -1.22885E+005    4.47998E+006   -1.68294E+006    3.83965E+006    8.17482E+005    4.34584E+006   -1.14494E+005   -1.08910E+005   -1.58043E+004   -1.88452E+005
            7214    3.82337E+006    4.00587E+006    4.00587E+006    5.33686E+005   -9.16058E+004    4.09747E+006   -1.48265E+006    3.70571E+006    5.36526E+005    3.97552E+006   -6.40963E+004   -1.11703E+005   -1.15147E+004   -3.30344E+005
            7215    3.37387E+006    3.45887E+006    3.45887E+006    1.95214E+005   -1.53462E+004    3.47422E+006   -1.21291E+006    3.35904E+006    1.97380E+005    3.41789E+006    2.34718E+004   -9.99227E+004   -2.86902E+003   -3.61031E+005
            7216    2.92718E+006    2.88959E+006    2.88959E+006    5.07914E+004   -1.18607E+005    3.00820E+006   -9.40593E+005    2.91612E+006   -1.16999E+005    2.86303E+006    7.57481E+004   -6.92466E+004    5.94974E+003   -2.64934E+005
            7217    2.65833E+006    2.52896E+006    2.52896E+006    9.14136E+004   -3.05520E+005    2.83448E+006   -7.71617E+005    2.59040E+006   -3.05101E+005    2.52495E+006    9.50029E+004   -2.48964E+004    9.77467E+003   -9.59624E+004
            7218    4.61592E+006    4.64401E+006    4.64401E+006    7.63333E+005   -4.60503E+005    5.10451E+006   -1.64895E+006    4.22718E+006    7.63858E+005    4.56699E+006   -3.84013E+005   -1.04948E+005   -3.74712E+004   -6.11693E+005
            7219    4.37570E+006    4.62375E+006    4.62375E+006    6.86057E+005   -8.69413E+004    4.71069E+006   -1.74095E+006    4.21796E+006    6.87454E+005    4.47958E+006    5.58238E+004   -9.53091E+004   -8.02888E+003   -8.05167E+005
            7220    3.96108E+006    4.33364E+006    4.33364E+006    5.46785E+005    2.18732E+005    4.11491E+006   -1.69972E+006    3.93034E+006    5.47904E+005    4.24184E+006    3.09408E+005   -6.44285E+004    1.17039E+004   -6.03944E+005
            7221    3.66288E+006    4.07572E+006    4.07572E+006    4.46868E+005    3.79730E+005    3.69599E+006   -1.63411E+006    3.66150E+006    4.39018E+005    4.06263E+006    4.00666E+005   -2.30453E+004    2.31710E+004   -2.17930E+005
            7222    4.87630E+006    6.26267E+006    6.26267E+006    1.62308E+006    1.17991E+006    5.08276E+006   -3.02189E+006    4.83068E+006    1.62280E+006    6.23731E+006    1.20555E+006    3.30121E+004   -1.76641E+004   -3.56324E+005
            7223    6.00130E+006    8.12420E+006    8.12420E+006    2.55673E+006    1.76722E+006    6.35698E+006   -4.14938E+006    5.88276E+006    2.55692E+006    8.11432E+006    1.77691E+006    3.62160E+004   -7.31664E+003   -2.47434E+005
            7224    7.57627E+006    1.04508E+007    1.04508E+007    3.63064E+006    2.29580E+006    8.15498E+006   -5.45907E+006    7.30465E+006    3.63083E+006    1.04396E+007    2.30678E+006    3.72128E+004    2.18338E+003   -2.98922E+005
            7225    9.25652E+006    1.29278E+007    1.29278E+007    4.76787E+006    2.86913E+006    1.00587E+007   -6.85493E+006    8.80224E+006    4.76799E+006    1.29224E+007    2.87439E+006    3.61909E+004    7.94151E+003   -2.28970E+005
            7226    5.66334E+006    6.57899E+006    6.57899E+006    1.63329E+006    4.00939E+005    6.17805E+006   -2.87107E+006    5.34905E+006    1.63454E+006    6.47165E+006    5.07018E+005    9.96663E+004    1.51582E+004   -8.00019E+005
            7227    7.07016E+006    8.73448E+006    8.73448E+006    2.65380E+006    9.76501E+005    7.75798E+006   -4.12159E+006    6.59986E+006    2.65497E+006    8.62308E+006    1.08673E+006    1.09583E+005    2.11350E+004   -9.15168E+005
            7228    8.16251E+006    1.07953E+007    1.07953E+007    3.73763E+006    1.85648E+006    8.93886E+006   -5.46315E+006    7.65165E+006    3.73871E+006    1.06918E+007    1.95890E+006    1.13645E+005    2.30698E+004   -9.48186E+005
            7229    9.51437E+006    1.31581E+007    1.31581E+007    4.92531E+006    2.74177E+006    1.04163E+007   -6.94172E+006    8.92411E+006    4.92620E+006    1.30805E+007    2.81849E+006    1.13963E+005    2.69399E+004   -8.87019E+005
            7230    1.10590E+007    1.35761E+007    1.35761E+007    4.75895E+006    1.16787E+006    1.24083E+007   -6.50099E+006    9.60956E+006    4.75975E+006    1.32266E+007    1.51657E+006    1.64108E+005    5.45363E+004   -2.04504E+006
            7231    1.02165E+007    1.13422E+007    1.13422E+007    3.47777E+006   -2.05136E+005    1.15473E+007   -4.87161E+006    8.51840E+006    3.47852E+006    1.11283E+007    8.04729E+003    1.55179E+005    6.39003E+004   -1.54719E+006
            7232    9.05583E+006    9.32791E+006    9.32791E+006    2.49223E+006   -9.42908E+005    1.02708E+007   -3.62574E+006    7.35974E+006    2.49284E+006    9.19546E+006   -8.11073E+005    1.42628E+005    6.76170E+004   -1.14712E+006
            7233    7.79924E+006    7.61511E+006    7.61511E+006    1.75416E+006   -1.23694E+006    8.85205E+006   -2.71078E+006    6.29989E+006    1.75469E+006    7.56537E+006   -1.18773E+006    1.30280E+005    7.04460E+004   -6.43682E+005
            7234    6.61432E+006    5.93002E+006    5.93002E+006    1.07398E+006   -1.60324E+006    7.53326E+006   -1.80025E+006    5.16529E+006    1.07450E+006    5.92686E+006   -1.60060E+006    1.14879E+005    7.52708E+004   -5.95645E+004
            7235    5.66900E+006    4.68582E+006    4.68582E+006    6.61584E+005   -1.79751E+006    6.48333E+006   -1.18330E+006    4.18948E+006    6.62007E+005    4.61151E+006   -1.72363E+006    9.32592E+004    8.27279E+004    6.78012E+005
            7236    4.66929E+006    3.94201E+006    3.94201E+006    6.04812E+005   -1.39395E+006    5.33596E+006   -1.05096E+006    3.49175E+006    6.05260E+005    3.69478E+006   -1.14716E+006    7.33592E+004    7.93047E+004    1.11609E+006
            7237    3.71473E+006    3.32984E+006    3.32984E+006    6.09839E+005   -9.02513E+005    4.23235E+006   -1.01239E+006    2.88915E+006    6.10177E+005    2.86403E+006   -4.37038E+005    5.08102E+004    6.81304E+004    1.32171E+006
            7238    3.43408E+006    3.56836E+006    3.56836E+006    8.04873E+005   -2.76158E+005    3.84451E+006   -1.36569E+006    3.01402E+006    8.04958E+005    3.46022E+006   -1.68103E+005    6.44981E+004    5.60845E+004    6.29810E+005
            7239    3.88973E+006    4.31283E+006    4.31283E+006    1.08597E+006   -6.24063E+003    4.31907E+006   -1.79752E+006    3.51914E+006    1.08765E+006    4.30267E+006    2.24201E+003    7.54532E+004    1.44005E+004    1.89914E+005
            7240    3.98932E+006    3.95473E+006    3.95473E+006    7.59336E+005   -5.16419E+005    4.47115E+006   -1.39922E+006    3.48397E+006    7.59569E+005    3.92452E+006   -4.86435E+005    8.47997E+004    6.05758E+004    3.50773E+005
            7241    4.26432E+006    4.57368E+006    4.57368E+006    9.95495E+005   -1.44886E+005    4.71857E+006   -1.80810E+006    3.89852E+006    9.98000E+005    4.57089E+006   -1.44598E+005    9.92960E+004    1.73281E+004    1.24233E+004
            7242    4.66909E+006    4.48171E+006    4.48171E+006    7.36695E+005   -7.49605E+005    5.23131E+006   -1.48960E+006    4.08365E+006    7.36657E+005    4.46741E+006   -7.35271E+005    1.01770E+005    5.79873E+004   -2.46816E+005
            7243    4.14008E+006    4.36460E+006    4.36460E+006    7.51227E+005   -1.52799E+005    4.51739E+006   -1.65434E+006    3.90864E+006    7.54233E+005    4.34428E+006   -1.35489E+005    1.13927E+005    1.47403E+004   -2.74773E+005
            7244    4.84732E+006    4.94777E+006    4.94777E+006    8.60412E+005   -4.07511E+005    5.35528E+006   -1.80022E+006    4.45073E+006    8.60653E+005    4.81776E+006   -2.77743E+005    1.07978E+005    3.71851E+004   -8.16098E+005
            7245    3.66067E+006    3.82164E+006    3.82164E+006    4.12143E+005   -4.69098E+004    3.86855E+006   -1.39562E+006    3.59506E+006    4.14845E+005    3.77814E+006   -6.11409E+003    1.08476E+005    6.56464E+003   -3.91715E+005
            7246    3.18922E+006    3.21596E+006    3.21596E+006    4.76272E+004    6.26573E+003    3.20970E+006   -1.08995E+006    3.18861E+006    4.82776E+004    3.17491E+006    4.66680E+004    8.04920E+004   -1.46362E+003   -3.51568E+005
            7247    2.77324E+006    2.73698E+006    2.73698E+006    1.43177E+005   -1.86276E+005    2.92325E+006   -8.97959E+005    2.72870E+006   -1.85732E+005    2.72743E+006    1.52183E+005    3.08891E+004   -1.00962E+004   -1.54302E+005
            7248    4.53316E+006    4.96083E+006    4.96083E+006    8.49689E+005    9.92944E+004    4.86154E+006   -1.96994E+006    4.39016E+006    8.50897E+005    4.82064E+006    2.38277E+005    8.43230E+004    4.09225E+003   -8.08718E+005
            7249    3.99842E+006    4.66480E+006    4.66480E+006    7.64727E+005    5.74809E+005    4.08999E+006   -2.00145E+006    3.98825E+006    7.63122E+005    4.63874E+006    6.02475E+005    3.15502E+004   -2.14095E+004   -3.23597E+005
            7250    1.16607E+007    1.58262E+007    1.58262E+007    6.18987E+006    2.86375E+006    1.29624E+007   -8.29326E+006    1.05114E+007    6.19099E+006    1.52770E+007    3.41179E+006   -1.59686E+005   -3.12716E+004   -2.60524E+006
            7251    1.08364E+007    1.55547E+007    1.55547E+007    6.27139E+006    3.64711E+006    1.19076E+007   -8.49106E+006    1.00836E+007    6.27197E+006    1.53569E+007    3.84430E+006   -1.51496E+005   -4.69746E+004   -1.51305E+006
            7252    1.08399E+007    1.54298E+007    1.54298E+007    6.03104E+006    3.57142E+006    1.18584E+007   -8.34408E+006    1.01833E+007    6.03300E+006    1.53711E+007    3.62816E+006   -1.48107E+005   -1.80805E+004   -8.15896E+005
            7253    1.09449E+007    1.53718E+007    1.53718E+007    5.89907E+006    3.39032E+006    1.19815E+007   -8.22041E+006    1.02677E+007    5.89903E+006    1.53587E+007    3.40348E+006   -2.16458E+004   -1.48028E+004   -3.95500E+005
            7254    1.10747E+007    1.54056E+007    1.54056E+007    5.81378E+006    3.28535E+006    1.21203E+007   -8.16825E+006    1.03951E+007    5.81448E+006    1.54039E+007    3.28639E+006   -8.50207E+004   -1.08239E+004   -1.09405E+005
            7255    1.07836E+007    1.73639E+007    1.73639E+007    7.72655E+006    5.71670E+006    1.16472E+007   -1.02690E+007    1.03496E+007    7.72784E+006    1.69348E+007    6.14452E+006   -1.50313E+005   -1.37326E+004   -2.18836E+006
            7256    1.11614E+007    1.73523E+007    1.73523E+007    7.48685E+006    5.23764E+006    1.21147E+007   -1.00256E+007    1.06334E+007    7.48795E+006    1.72393E+007    5.34962E+006   -1.44495E+005   -3.15390E+004   -1.15449E+006
            7257    1.19064E+007    1.75108E+007    1.75108E+007    7.12519E+006    4.51632E+006    1.29945E+007   -9.71745E+006    1.12360E+007    7.12751E+006    1.74801E+007    4.54469E+006   -1.61309E+005   -1.31618E+004   -6.04736E+005
            7258    1.23897E+007    1.75449E+007    1.75449E+007    6.89601E+006    3.94666E+006    1.35982E+007   -9.46251E+006    1.15596E+007    6.89597E+006    1.75393E+007    3.95223E+006   -5.37742E+003   -1.01889E+004   -2.74251E+005
            7259    1.26715E+007    1.76017E+007    1.76017E+007    6.76689E+006    3.66828E+006    1.39334E+007   -9.34562E+006    1.17730E+007    6.76773E+006    1.76003E+007    3.66877E+006   -9.75791E+004   -9.66403E+003   -8.01391E+004
            7260    9.66000E+006    1.79789E+007    1.79789E+007    8.72508E+006    7.95846E+006    1.00205E+007   -1.15542E+007    9.59120E+006    8.72695E+006    1.79009E+007    8.03465E+006   -1.43210E+005   -3.20479E+003   -8.68487E+005
            7261    1.12650E+007    1.83663E+007    1.83663E+007    8.20889E+006    6.25045E+006    1.21158E+007   -1.09419E+007    1.08721E+007    8.21066E+006    1.83488E+007    6.26613E+006   -1.39268E+005   -1.05394E+004   -4.33884E+005
            7262    1.25178E+007    1.87084E+007    1.87084E+007    7.75347E+006    5.06468E+006    1.36437E+007   -1.05088E+007    1.18416E+007    7.75598E+006    1.87023E+007    5.06830E+006   -1.66671E+005   -5.18168E+003   -2.21400E+005
            7263    1.32333E+007    1.88201E+007    1.88201E+007    7.48037E+006    4.28024E+006    1.45399E+007   -1.01936E+007    1.23168E+007    7.48037E+006    1.88193E+007    4.28108E+006    6.48298E+003   -3.27827E+003   -1.10560E+005
            7264    1.36237E+007    1.89127E+007    1.89127E+007    7.33485E+006    3.90035E+006    1.50123E+007   -1.00493E+007    1.25932E+007    7.33579E+006    1.89117E+007    3.90041E+006   -1.04203E+005   -3.95822E+003   -2.81581E+004
            7265    3.67322E+006    3.27181E+006    3.27181E+006    5.92764E+005   -9.15447E+005    4.18726E+006   -9.83042E+005    2.83948E+006    5.93111E+005    2.79206E+006   -4.36044E+005   -4.92530E+004    6.70503E+004   -1.33094E+006
            7266    3.31617E+006    3.45184E+006    3.45184E+006    7.89553E+005   -2.62817E+005    3.71466E+006   -1.32619E+006    2.90321E+006    7.89593E+005    3.33209E+006   -1.43103E+005   -6.01356E+004    5.43774E+004   -6.51071E+005
            7267    3.76771E+006    4.16122E+006    4.16122E+006    1.05507E+006   -2.99496E+004    4.19117E+006   -1.72878E+006    3.38856E+006    1.05649E+006    4.15138E+006   -2.15254E+004   -6.83296E+004    1.42008E+004   -1.86401E+005
            7268    2.66195E+006    2.61206E+006    2.61206E+006    5.75524E+005   -4.00033E+005    3.01210E+006   -9.29184E+005    2.20220E+006    5.75368E+005    2.06673E+006    1.45453E+005   -2.78040E+004    5.15486E+004   -1.15838E+006
            7269    2.70333E+006    2.97570E+006    2.97570E+006    7.65960E+005   -3.85525E+004    3.01426E+006   -1.23437E+006    2.41110E+006    7.65049E+005    2.85975E+006    7.83085E+004   -3.69506E+004    4.65638E+004   -5.77193E+005
            7270    3.26211E+006    3.65239E+006    3.65239E+006    9.78543E+005    1.77983E+004    3.63459E+006   -1.54958E+006    2.91741E+006    9.79179E+005    3.64202E+006    2.75329E+004   -4.31734E+004    1.08871E+004   -1.87076E+005
            7271    1.54904E+006    1.84461E+006    1.84461E+006    5.18308E+005    1.42133E+005    1.70248E+006   -8.35018E+005    1.44079E+006    5.16525E+005    1.54197E+006    4.46554E+005   -1.30492E+004    3.90051E+004   -6.49678E+005
            7272    2.19156E+006    2.54128E+006    2.54128E+006    7.05755E+005    1.14846E+005    2.42643E+006   -1.12063E+006    2.00022E+006    7.03726E+005    2.49986E+006    1.58289E+005   -1.82288E+004    3.96958E+004   -3.13007E+005
            7273    2.85910E+006    3.22791E+006    3.22791E+006    8.86661E+005    4.15114E+004    3.18640E+006   -1.38536E+006    2.55455E+006    8.86750E+005    3.22470E+006    4.46344E+004   -1.94887E+004    8.72831E+003   -9.84503E+004
            7274    8.40754E+005    1.33438E+006    1.33438E+006    5.37314E+005    4.55864E+005    8.78516E+005   -7.75852E+005    8.31808E+005    4.74790E+005    1.33327E+006    5.19493E+005    1.60653E+003    3.44763E+004    2.98751E+004
            7275    2.01088E+006    2.39759E+006    2.39759E+006    6.89833E+005    1.81245E+005    2.21634E+006   -1.08956E+006    1.85773E+006    6.87077E+005    2.39671E+006    1.84876E+005    3.17565E+003    3.74694E+004    4.37705E+004
            7276    2.74078E+006    3.09270E+006    3.09270E+006    8.50733E+005    3.72837E+004    3.05542E+006   -1.32691E+006    2.44625E+006    8.50655E+005    3.09266E+006    3.74018E+004    2.93700E+003    8.15523E+003    1.05700E+004
            7277    1.68203E+006    1.94570E+006    1.94570E+006    5.31080E+005    8.58394E+004    1.85986E+006   -8.54207E+005    1.54087E+006    5.29638E+005    1.60136E+006    4.31622E+005    1.36727E+004    3.99806E+004    7.21258E+005
            7278    2.28646E+006    2.62565E+006    2.62565E+006    7.19959E+005    9.03547E+004    2.53530E+006   -1.14532E+006    2.07761E+006    7.18109E+005    2.57107E+006    1.46785E+005    2.11254E+004    4.09259E+004    3.66522E+005
            7279    2.93506E+006    3.31606E+006    3.31606E+006    9.09674E+005    4.60942E+004    3.26997E+006   -1.42394E+006    2.62558E+006    9.09881E+005    3.31073E+006    5.12199E+004    2.56272E+004    8.92691E+003    1.28438E+005
            7280    2.74520E+006    2.69383E+006    2.69383E+006    5.94507E+005   -4.12710E+005    3.10654E+006   -9.58543E+005    2.26981E+006    5.94525E+005    2.15576E+006    1.25341E+005    3.16644E+004    5.28424E+004    1.17397E+006
            7281    2.85740E+006    3.11379E+006    3.11379E+006    7.87789E+005   -7.57871E+004    3.18957E+006   -1.27526E+006    2.53790E+006    7.87294E+005    2.98471E+006    5.37893E+004    4.36469E+004    4.76801E+004    6.25489E+005
            7282    3.41110E+006    3.79444E+006    3.79444E+006    1.00000E+006   -6.72021E+003    3.80116E+006   -1.59591E+006    3.04901E+006    1.00084E+006    3.78382E+006    3.05672E+003    5.02618E+004    1.16124E+004    1.91703E+005
            7283    1.10661E+007    1.53914E+007    1.53914E+007    5.80680E+006    3.28055E+006    1.21108E+007   -8.15958E+006    1.03872E+007    5.80750E+006    1.53897E+007    3.28156E+006   -8.49494E+004    1.09431E+004    1.07372E+005
            7284    1.09475E+007    1.53730E+007    1.53730E+007    5.89882E+006    3.38824E+006    1.19848E+007   -8.22002E+006    1.02694E+007    5.89877E+006    1.53598E+007    3.40149E+006   -2.22896E+004    1.47241E+004    3.96725E+005
            7285    1.08474E+007    1.54430E+007    1.54430E+007    6.03860E+006    3.57604E+006    1.18670E+007   -8.35255E+006    1.01896E+007    6.04057E+006    1.53834E+007    3.63363E+006   -1.48692E+005    1.84098E+004    8.22174E+005
            7286    1.08390E+007    1.55670E+007    1.55670E+007    6.28071E+006    3.65698E+006    1.19100E+007   -8.50155E+006    1.00867E+007    6.28129E+006    1.53656E+007    3.85773E+006   -1.51631E+005    4.67882E+004    1.52668E+006
            7287    1.16597E+007    1.58375E+007    1.58375E+007    6.19888E+006    2.87747E+006    1.29600E+007   -8.30462E+006    1.05137E+007    6.20001E+006    1.52875E+007    3.42634E+006   -1.59520E+005    3.09694E+004    2.60691E+006
            7288    1.26720E+007    1.76002E+007    1.76002E+007    6.76532E+006    3.66612E+006    1.39341E+007   -9.34388E+006    1.17731E+007    6.76617E+006    1.75988E+007    3.66663E+006   -9.78624E+004    9.65059E+003    8.15694E+004
            7289    1.23907E+007    1.75434E+007    1.75434E+007    6.89402E+006    3.94385E+006    1.35995E+007   -9.46041E+006    1.15602E+007    6.89398E+006    1.75379E+007    3.94937E+006   -4.94449E+003    1.01650E+004    2.73124E+005
            7290    1.19062E+007    1.75067E+007    1.75067E+007    7.12253E+006    4.51184E+006    1.29949E+007   -9.71370E+006    1.12348E+007    7.12481E+006    1.74760E+007    4.54030E+006   -1.60185E+005    1.31742E+004    6.05770E+005
            7291    1.11524E+007    1.73604E+007    1.73604E+007    7.49772E+006    5.25815E+006    1.21022E+007   -1.00387E+007    1.06286E+007    7.49881E+006    1.72451E+007    5.37229E+006   -1.44544E+005    3.14751E+004    1.16496E+006
            7292    1.07823E+007    1.73668E+007    1.73668E+007    7.72964E+006    5.72160E+006    1.16452E+007   -1.02727E+007    1.03490E+007    7.73094E+006    1.69325E+007    6.15458E+006   -1.50435E+005    1.34340E+004    2.20086E+006
            7293    1.36189E+007    1.89087E+007    1.89087E+007    7.33394E+006    3.90212E+006    1.50065E+007   -1.00482E+007    1.25897E+007    7.33487E+006    1.89077E+007    3.90218E+006   -1.04423E+005    3.99901E+003    2.73029E+004
            7294    1.32380E+007    1.88201E+007    1.88201E+007    7.47800E+006    4.27427E+006    1.45459E+007   -1.01908E+007    1.23197E+007    7.47800E+006    1.88193E+007    4.27510E+006    6.50266E+003    3.32973E+003    1.09529E+005
            7295    1.25174E+007    1.87107E+007    1.87107E+007    7.75534E+006    5.06770E+006    1.36430E+007   -1.05112E+007    1.18419E+007    7.75784E+006    1.87046E+007    5.07122E+006   -1.66483E+005    5.09578E+003    2.18204E+005
            7296    1.12503E+007    1.83549E+007    1.83549E+007    8.20749E+006    6.25685E+006    1.20981E+007   -1.09397E+007    1.08600E+007    8.20926E+006    1.83380E+007    6.27196E+006   -1.39123E+005    1.06062E+004    4.25547E+005
            7297    9.65602E+006    1.79609E+007    1.79609E+007    8.71352E+006    7.94243E+006    1.00184E+007   -1.15389E+007    9.58638E+006    8.71540E+006    1.78823E+007    8.01909E+006   -1.43182E+005    3.05523E+003    8.71147E+005
            7298    6.99645E+006    6.10925E+006    6.10925E+006    1.11587E+006   -1.88743E+006    7.99668E+006   -1.77923E+006    5.21932E+006    1.11625E+006    6.10165E+006   -1.88022E+006   -1.15442E+005    8.75053E+004   -1.96409E+005
            7299    8.45779E+006    7.61192E+006    7.61192E+006    1.59034E+006   -2.05768E+006    9.66960E+006   -2.38152E+006    6.28276E+006    1.59100E+006    7.59970E+006   -2.04613E+006   -1.32516E+005    8.41977E+004    3.01450E+005
            7300    9.75161E+006    9.32175E+006    9.32175E+006    2.27768E+006   -1.80816E+006    1.11299E+007   -3.26376E+006    7.42305E+006    2.27859E+006    9.26046E+006   -1.74778E+006   -1.47525E+005    7.82144E+004    8.04284E+005
            7301    1.09299E+007    1.14067E+007    1.14067E+007    3.28383E+006   -1.02003E+006    1.24267E+007   -4.55682E+006    8.69115E+006    3.28482E+006    1.12129E+007   -8.27284E+005   -1.58527E+005    6.74232E+004    1.52848E+006
            7302    1.16810E+007    1.37052E+007    1.37052E+007    4.62962E+006    5.26166E+005    1.31790E+007   -6.28699E+006    9.85174E+006    4.63069E+006    1.33133E+007    9.17033E+005   -1.63052E+005    5.03430E+004    2.23130E+006
            7303    1.01654E+007    1.33332E+007    1.33332E+007    4.90106E+006    2.04531E+006    1.12879E+007   -6.75985E+006    9.19594E+006    4.90148E+006    1.31159E+007    2.26217E+006   -1.53590E+005    5.59573E+004    1.54194E+006
            7304    9.55285E+006    1.30282E+007    1.30282E+007    4.79584E+006    2.55364E+006    1.04745E+007   -6.79255E+006    8.93154E+006    4.79763E+006    1.29464E+007    2.63362E+006   -1.38795E+005    2.08006E+004    9.08924E+005
            7305    9.27141E+006    1.28666E+007    1.28666E+007    4.74801E+006    2.76375E+006    1.01029E+007   -6.79280E+006    8.77438E+006    4.74807E+006    1.28449E+007    2.78540E+006   -4.14669E+004    1.54334E+004    4.65518E+005
            7306    9.23259E+006    1.28433E+007    1.28433E+007    4.68995E+006    2.81831E+006    1.00250E+007   -6.78386E+006    8.79043E+006    4.69047E+006    1.28407E+007    2.82040E+006   -6.78205E+004    7.54818E+003    1.43141E+005
            7307    9.26539E+006    1.10847E+007    1.10847E+007    3.61657E+006    7.16088E+005    1.03686E+007   -5.13913E+006    8.14595E+006    3.61698E+006    1.09039E+007    8.96522E+005   -1.50272E+005    6.15988E+004    1.34718E+006
            7308    8.23065E+006    1.06747E+007    1.06747E+007    3.61223E+006    1.63582E+006    9.03892E+006   -5.30759E+006    7.66900E+006    3.61392E+006    1.05791E+007    1.72977E+006   -1.29774E+005    2.12907E+004    9.13717E+005
            7309    7.73360E+006    1.05013E+007    1.05013E+007    3.63450E+006    2.12378E+006    8.37749E+006   -5.41985E+006    7.39060E+006    3.63481E+006    1.04677E+007    2.15702E+006   -5.73836E+004    1.19192E+004    5.25318E+005
            7310    7.52002E+006    1.04211E+007    1.04211E+007    3.61112E+006    2.35042E+006    8.07069E+006   -5.46088E+006    7.27654E+006    3.61151E+006    1.04179E+007    2.35328E+006   -5.12407E+004   -3.28023E+002    1.52077E+005
            7311    8.21913E+006    9.01564E+006    9.01564E+006    2.53349E+006   -2.28790E+005    9.24443E+006   -3.77345E+006    7.05535E+006    2.53402E+006    8.87815E+006   -9.18279E+004   -1.42099E+005    6.16905E+004    1.10758E+006
            7312    7.11815E+006    8.68505E+006    8.68505E+006    2.60547E+006    8.54947E+005    7.83010E+006   -4.04849E+006    6.60731E+006    2.60706E+006    8.57679E+006    9.61615E+005   -1.20895E+005    2.08526E+004    9.04579E+005
            7313    6.42380E+006    8.46272E+006    8.46272E+006    2.66099E+006    1.55933E+006    6.90339E+006   -4.22768E+006    6.20591E+006    2.66162E+006    8.41481E+006    1.60661E+006   -6.61062E+004    5.25082E+003    5.68654E+005
            7314    6.15737E+006    8.38008E+006    8.38008E+006    2.66075E+006    1.86253E+006    6.51756E+006   -4.30112E+006    6.03932E+006    2.66092E+006    8.37343E+006    1.86901E+006   -3.89953E+004   -1.01772E+004    2.03927E+005
            7315    7.17218E+006    7.31343E+006    7.31343E+006    1.72030E+006   -7.72543E+005    8.08597E+006   -2.75373E+006    6.07607E+006    1.72076E+006    7.22851E+006   -6.88090E+005   -1.30672E+005    6.23648E+004    8.10776E+005
            7316    6.01861E+006    6.96654E+006    6.96654E+006    1.78942E+006    3.62796E+005    6.60374E+006   -3.03959E+006    5.61897E+006    1.79087E+006    6.84930E+006    4.78590E+005   -1.10068E+005    1.84228E+004    8.63785E+005
            7317    5.45714E+006    6.85690E+006    6.85690E+006    1.85495E+006    1.03692E+006    5.81998E+006   -3.24959E+006    5.31657E+006    1.85584E+006    6.78190E+006    1.11102E+006   -6.80597E+004   -2.63824E+003    6.52344E+005
            7318    5.14255E+006    6.73251E+006    6.73251E+006    1.84846E+006    1.36553E+006    5.36698E+006   -3.31550E+006    5.09116E+006    1.84797E+006    6.72384E+006    1.37470E+006   -3.05400E+004   -1.95146E+004    2.13067E+005
            7319    5.74087E+006    5.66434E+006    5.66434E+006    1.10283E+006   -7.81990E+005    6.44633E+006   -1.99506E+006    4.96964E+006    1.10316E+006    5.60841E+006   -7.26394E+005   -1.15462E+005    5.58066E+004    5.83386E+005
            7320    5.17064E+006    5.70752E+006    5.70752E+006    1.19468E+006    6.56512E+004    5.64187E+006   -2.32262E+006    4.88161E+006    1.19597E+006    5.55192E+006    2.19957E+005   -1.00391E+005    1.33556E+004    9.17685E+005
            7321    4.69471E+006    5.53300E+006    5.53300E+006    1.16500E+006    5.68572E+005    4.96443E+006   -2.42219E+006    4.60832E+006    1.16603E+006    5.43846E+006    6.62089E+005   -6.62726E+004   -8.99887E+003    6.74847E+005
            7322    4.38882E+006    5.37831E+006    5.37831E+006    1.13567E+006    8.56625E+005    4.52169E+006   -2.45687E+006    4.36880E+006    1.13382E+006    5.36379E+006    8.72994E+005   -2.56290E+004   -2.51176E+004    2.54286E+005
            7323    3.68133E+006    4.10383E+006    4.10383E+006    4.59988E+005    3.86135E+005    3.71770E+006   -1.64999E+006    3.67966E+006    4.52994E+005    4.09063E+006    4.06338E+005   -2.31647E+004   -2.32648E+004    2.19612E+005
            7324    2.66271E+006    2.53625E+006    2.53625E+006    9.22541E+004   -3.01350E+005    2.83760E+006   -7.75719E+005    2.59605E+006   -3.00924E+005    2.53223E+006    9.58499E+004   -2.50507E+004   -9.82744E+003    9.62201E+004
            7325    3.95879E+006    4.33515E+006    4.33515E+006    5.48834E+005    2.23924E+005    4.11123E+006   -1.70264E+006    3.92862E+006    5.49943E+005    4.24355E+006    3.14417E+005   -6.41593E+004   -1.18235E+004    6.03065E+005
            7326    2.93057E+006    2.89563E+006    2.89563E+006    5.23175E+004   -1.15022E+005    3.01065E+006   -9.44308E+005    2.91979E+006   -1.13403E+005    2.86879E+006    7.75390E+004   -6.95092E+004   -6.05419E+003    2.66533E+005
            7327    4.36761E+006    4.61715E+006    4.61715E+006    6.83904E+005   -8.31941E+004    4.70034E+006   -1.73929E+006    4.21204E+006    6.85292E+005    4.47247E+006    6.01017E+004   -9.49755E+004    7.90112E+003    8.05718E+005
            7328    3.37784E+006    3.46151E+006    3.46151E+006    1.95587E+005   -1.81023E+004    3.47961E+006   -1.21300E+006    3.36258E+006    1.97755E+005    3.42078E+006    2.04560E+004   -9.99623E+004    2.99024E+003    3.60101E+005
            7329    4.61278E+006    4.64165E+006    4.64165E+006    7.62738E+005   -4.59021E+005    5.10067E+006   -1.64845E+006    4.22515E+006    7.63257E+005    4.56408E+006   -3.81970E+005   -1.04928E+005    3.74472E+004    6.13706E+005
            7330    3.82030E+006    4.00604E+006    4.00604E+006    5.35527E+005   -8.74658E+004    4.09351E+006   -1.48470E+006    3.70342E+006    5.38368E+005    3.97577E+006   -6.00344E+004   -1.11629E+005    1.14354E+004    3.29727E+005
            7331    4.09538E+006    4.35906E+006    4.35906E+006    8.16226E+005   -1.24992E+005    4.48405E+006   -1.68343E+006    3.84055E+006    8.19077E+005    4.34791E+006   -1.16695E+005   -1.08717E+005    1.58395E+004    1.87438E+005
            7332    4.11430E+006    4.44956E+006    4.44956E+006    1.00707E+006   -1.07075E+005    4.55664E+006   -1.78319E+006    3.75175E+006    1.00934E+006    4.44681E+006   -1.06589E+005   -9.25449E+004    1.66341E+004   -3.42687E+004
            7333    4.45980E+006    4.36268E+006    4.36268E+006    7.76395E+005   -6.31049E+005    4.99372E+006   -1.50267E+006    3.91123E+006    7.76392E+005    4.35572E+006   -6.24091E+005   -9.98047E+004    5.85209E+004    1.45953E+005
            7334    3.94140E+006    3.90077E+006    3.90077E+006    7.66625E+005   -5.24184E+005    4.42495E+006   -1.38107E+006    3.41485E+006    7.66685E+005    3.86175E+006   -4.85233E+005   -7.97673E+004    6.13480E+004   -4.01121E+005
            7335    4.68604E+006    3.91676E+006    3.91676E+006    5.89738E+005   -1.44231E+006    5.35907E+006   -1.02140E+006    3.46409E+006    5.90173E+005    3.62747E+006   -1.15344E+006   -6.98240E+004    7.87213E+004   -1.20617E+006
            7336    5.83645E+006    4.83982E+006    4.83982E+006    7.15365E+005   -1.83822E+006    6.67804E+006   -1.23899E+006    4.27862E+006    7.15782E+005    4.76277E+006   -1.76159E+006   -9.52031E+004    8.52958E+004   -7.00877E+005
            7337    7.76636E+006    7.57872E+006    7.57872E+006    1.71457E+006   -1.22916E+006    8.80788E+006   -2.68805E+006    6.31443E+006    1.71667E+006    7.52617E+006   -1.17871E+006    2.28305E+005   -1.18092E+005    6.22885E+005
            7338    9.03351E+006    9.30445E+006    9.30445E+006    2.44860E+006   -9.31732E+005    1.02362E+007   -3.60711E+006    7.39519E+006    2.45080E+006    9.17005E+006   -7.99531E+005    2.53409E+005   -1.16497E+005    1.12816E+006
            7339    1.01937E+007    1.13188E+007    1.13188E+007    3.43074E+006   -1.91362E+005    1.15101E+007   -4.85272E+006    8.55491E+006    3.43285E+006    1.11019E+007    2.33880E+004    2.75728E+005   -1.15144E+005    1.53380E+006
            7340    1.10348E+007    1.35489E+007    1.35489E+007    4.70793E+006    1.18200E+006    1.23669E+007   -6.47960E+006    9.63955E+006    4.70990E+006    1.31993E+007    1.52961E+006    2.91661E+005   -1.02103E+005    2.02468E+006
            7341    9.51140E+006    1.30911E+007    1.30911E+007    4.79740E+006    2.70903E+006    1.03820E+007   -6.86583E+006    8.97354E+006    4.80078E+006    1.30128E+007    2.78393E+006    1.98547E+005   -3.35986E+004    8.71303E+005
            7342    9.24497E+006    1.28405E+007    1.28405E+007    4.60681E+006    2.83939E+006    1.00011E+007   -6.76223E+006    8.85282E+006    4.60736E+006    1.28345E+007    2.84484E+006    7.34636E+004   -1.16366E+004    2.31201E+005
            7343    8.16045E+006    1.07370E+007    1.07370E+007    3.62215E+006    1.82908E+006    8.90788E+006   -5.39606E+006    7.69828E+006    3.62554E+006    1.06332E+007    1.92946E+006    1.94308E+005   -3.43889E+004    9.32190E+005
            7344    7.57453E+006    1.03795E+007    1.03795E+007    3.48418E+006    2.27191E+006    8.10755E+006   -5.37852E+006    7.35151E+006    3.48498E+006    1.03677E+007    2.28289E+006    7.41259E+004    1.93908E+003    2.98195E+005
            7345    7.05798E+006    8.69381E+006    8.69381E+006    2.56393E+006    9.77687E+005    7.71613E+006   -4.07848E+006    6.63892E+006    2.56778E+006    8.58374E+006    1.08391E+006    1.86424E+005   -2.80623E+004    8.92197E+005
            7346    6.03625E+006    8.10767E+006    8.10767E+006    2.44892E+006    1.75407E+006    6.35360E+006   -4.10355E+006    5.94527E+006    2.44939E+006    8.09746E+006    1.76381E+006    7.01308E+004    1.95884E+004    2.43205E+005
            7347    5.66561E+006    6.56287E+006    6.56287E+006    1.56906E+006    4.05970E+005    6.15690E+006   -2.84597E+006    5.38709E+006    1.57284E+006    6.45666E+006    5.08398E+005    1.67229E+005   -2.12150E+004    7.81164E+005
            7348    4.91571E+006    6.26759E+006    6.26759E+006    1.54889E+006    1.17608E+006    5.09150E+006   -2.99752E+006    4.88375E+006    1.54678E+006    6.24298E+006    1.20281E+006    6.28733E+004    3.77984E+004    3.46472E+005
            7349    4.03537E+006    4.67944E+006    4.67944E+006    7.23757E+005    5.68856E+005    4.11059E+006   -1.99069E+006    4.02867E+006    7.14131E+005    4.65407E+006    6.03854E+005    5.44587E+004    4.32225E+004    3.16187E+005
            7350    2.81486E+006    2.75907E+006    2.75907E+006    1.45446E+005   -2.21101E+005    2.98017E+006   -8.94472E+005    2.76040E+006   -2.19404E+005    2.74960E+006    1.53218E+005    5.04167E+004    2.01084E+004    1.49493E+005
            7351    4.53799E+006    4.95366E+006    4.95366E+006    8.01639E+005    1.09274E+005    4.84438E+006   -1.95486E+006    4.41681E+006    8.05429E+005    4.81660E+006    2.42540E+005    1.41977E+005   -1.74656E+003    7.89232E+005
            7352    3.21431E+006    3.22177E+006    3.22177E+006    1.74117E+004   -2.41584E+003    3.22418E+006   -1.07892E+006    3.21418E+006    1.19795E+004    3.17917E+006    4.56162E+004    1.34068E+005    4.56850E+003    3.42617E+005
            7353    3.66930E+006    3.80817E+006    3.80817E+006    3.71246E+005   -5.60904E+004    3.86426E+006   -1.37444E+006    3.61268E+006    3.78293E+005    3.76016E+006   -1.51230E+004    1.80817E+005   -1.29386E+004    3.84251E+005
            7354    4.13840E+006    4.33996E+006    4.33996E+006    7.12933E+005   -1.67969E+005    4.50793E+006   -1.62831E+006    3.91904E+006    7.20839E+005    4.31359E+006   -1.49509E+005    1.90063E+005   -2.89337E+004    2.72734E+005
            7355    4.25696E+006    4.54885E+006    4.54885E+006    9.68176E+005   -1.57950E+005    4.70680E+006   -1.78636E+006    3.90017E+006    9.74766E+005    4.54116E+006   -1.56849E+005    1.65371E+005   -3.51470E+004   -1.20954E+004
            7356    3.87920E+006    4.27983E+006    4.27983E+006    1.06199E+006   -2.76600E+004    4.30749E+006   -1.77139E+006    3.50933E+006    1.06631E+006    4.26672E+006   -1.88678E+004    1.24985E+005   -3.17997E+004   -1.87141E+005
            7357    4.83373E+006    4.93303E+006    4.93303E+006    8.24494E+005   -3.93072E+005    5.32610E+006   -1.78815E+006    4.46875E+006    8.26412E+005    4.80447E+006   -2.66438E+005    1.80631E+005   -5.25312E+004    7.94155E+005
            7358    4.64193E+006    4.46837E+006    4.46837E+006    7.17212E+005   -7.22939E+005    5.19131E+006   -1.48755E+006    4.09210E+006    7.18445E+005    4.45039E+006   -7.06186E+005    1.68207E+005   -8.48963E+004    2.36197E+005
            7359    3.96932E+006    3.94333E+006    3.94333E+006    7.41757E+005   -4.97861E+005    4.44120E+006   -1.39574E+006    3.49226E+006    7.43754E+005    3.90866E+006   -4.65188E+005    1.37280E+005   -8.54711E+004   -3.52440E+005
            7360    3.41715E+006    3.56045E+006    3.56045E+006    7.93554E+005   -2.59206E+005    3.81966E+006   -1.36493E+006    3.01860E+006    7.95562E+005    3.44868E+006   -1.49442E+005    1.05503E+005   -7.38490E+004   -6.29252E+005
            7361    3.70934E+006    3.31049E+006    3.31049E+006    5.96221E+005   -9.16091E+005    4.22658E+006   -9.96874E+005    2.88204E+006    5.95378E+005    2.83919E+006   -4.43948E+005    9.00971E+004   -1.43065E+005   -1.31991E+006
            7362    4.67841E+006    3.93760E+006    3.93760E+006    5.92594E+005   -1.40855E+006    5.34616E+006   -1.04055E+006    3.50088E+006    5.91936E+005    3.68461E+006   -1.15490E+006    1.27303E+005   -1.58653E+005   -1.11727E+006
            7363    5.66485E+006    4.67684E+006    4.67684E+006    6.48945E+005   -1.80058E+006    6.47742E+006   -1.17507E+006    4.19854E+006    6.48554E+005    4.59659E+006   -1.71993E+006    1.60094E+005   -1.58436E+005   -6.80902E+005
            7364    6.58932E+006    5.90934E+006    5.90934E+006    1.05187E+006   -1.59118E+006    7.50051E+006   -1.79001E+006    5.17752E+006    1.05245E+006    5.90095E+006   -1.58337E+006    1.99154E+005   -1.39657E+005    4.62615E+004
            7365    1.10729E+007    1.54096E+007    1.54096E+007    5.73942E+006    3.33048E+006    1.20791E+007   -8.15983E+006    1.04587E+007    5.73976E+006    1.54060E+007    3.33367E+006    6.90143E+004   -1.77932E+004    1.91829E+005
            7366    1.08335E+007    1.54653E+007    1.54653E+007    5.99512E+006    3.65195E+006    1.18133E+007   -8.37078E+006    1.02398E+007    5.99847E+006    1.54126E+007    3.70129E+006    1.99762E+005   -2.98267E+004    7.55740E+005
            7367    1.12934E+007    1.56752E+007    1.56752E+007    6.17260E+006    3.18969E+006    1.24855E+007   -8.34581E+006    1.03500E+007    6.17459E+006    1.52523E+007    3.61055E+006    2.98464E+005   -8.25664E+004    2.23599E+006
            7368    1.26435E+007    1.75880E+007    1.75880E+007    6.69027E+006    3.72566E+006    1.38624E+007   -9.33465E+006    1.18229E+007    6.69053E+006    1.75865E+007    3.72691E+006    6.19839E+004   -1.57158E+004    1.26714E+005
            7369    1.19607E+007    1.74967E+007    1.74967E+007    7.01827E+006    4.46582E+006    1.30309E+007   -9.66027E+006    1.13234E+007    7.02180E+006    1.74723E+007    4.48673E+006    2.00507E+005   -1.85334E+004    5.17967E+005
            7370    1.08430E+007    1.72724E+007    1.72724E+007    7.57889E+006    5.56293E+006    1.17095E+007   -1.01381E+007    1.04087E+007    7.58231E+006    1.69634E+007    5.86854E+006    2.96180E+005   -5.25363E+004    1.85115E+006
            7371    1.35655E+007    1.88652E+007    1.88652E+007    7.24711E+006    3.95733E+006    1.49079E+007   -1.00232E+007    1.26204E+007    7.24737E+006    1.88648E+007    3.95751E+006    5.58132E+004   -5.97208E+003    4.96781E+004
            7372    1.26193E+007    1.86699E+007    1.86699E+007    7.60285E+006    4.92742E+006    1.37425E+007   -1.04001E+007    1.19559E+007    7.60647E+006    1.86639E+007    4.92981E+006    2.01073E+005   -6.67574E+003    1.80043E+005
            7373    1.01658E+007    1.80435E+007    1.80435E+007    8.48534E+006    7.36320E+006    1.06803E+007   -1.12973E+007    1.00250E+007    8.49276E+006    1.79829E+007    7.41634E+006    2.91741E+005   -1.89487E+004    7.41400E+005
            7374    3.77164E+006    4.14337E+006    4.14337E+006    1.03375E+006   -5.20684E+004    4.19544E+006   -1.70835E+006    3.39234E+006    1.03742E+006    4.13103E+006   -4.33942E+004   -1.14609E+005   -3.17297E+004    1.83133E+005
            7375    3.31112E+006    3.44875E+006    3.44875E+006    7.76490E+005   -2.55463E+005    3.70421E+006   -1.32326E+006    2.91497E+006    7.77897E+005    3.32526E+006   -1.33385E+005   -9.52175E+004   -7.25207E+004    6.53118E+005
            7376    3.66563E+006    3.25738E+006    3.25738E+006    5.83429E+005   -9.21132E+005    4.17852E+006   -9.73227E+005    2.83435E+006    5.82247E+005    2.77630E+006   -4.38864E+005   -8.50573E+004   -1.41696E+005    1.32389E+006
            7377    3.26564E+006    3.63577E+006    3.63577E+006    9.63142E+005   -4.27296E+003    3.64005E+006   -1.53155E+006    2.91614E+006    9.64625E+005    3.62410E+006    5.92038E+003   -7.24435E+004   -2.68887E+004    1.87015E+005
            7378    2.69380E+006    2.97119E+006    2.97119E+006    7.57205E+005   -2.79635E+004    2.99915E+006   -1.23348E+006    2.41552E+006    7.57122E+005    2.85236E+006    9.09488E+004   -6.18347E+004   -5.67890E+004    5.79029E+005
            7379    2.66628E+006    2.60076E+006    2.60076E+006    5.65178E+005   -4.17365E+005    3.01813E+006   -9.16191E+005    2.19982E+006    5.62635E+005    2.05463E+006    1.31310E+005   -5.18999E+004   -1.16332E+005    1.15539E+006
            7380    2.85589E+006    3.20642E+006    3.20642E+006    8.72992E+005    2.16761E+004    3.18474E+006   -1.36703E+006    2.54605E+006    8.72909E+005    3.20285E+006    2.53279E+004   -3.29197E+004   -2.30054E+004    9.90496E+004
            7381    2.18071E+006    2.53456E+006    2.53456E+006    6.99521E+005    1.23733E+005    2.41083E+006   -1.11927E+006    1.99868E+006    6.96909E+005    2.49250E+006    1.68400E+005   -2.67941E+004   -4.66904E+004    3.13220E+005
            7382    1.56185E+006    1.84217E+006    1.84217E+006    5.20714E+005    1.18572E+005    1.72360E+006   -8.27152E+005    1.43829E+006    5.08739E+005    1.53699E+006    4.35729E+005   -2.17603E+004   -9.30570E+004    6.51736E+005
            7383    2.73247E+006    3.06561E+006    3.06561E+006    8.36283E+005    1.73119E+004    3.04830E+006   -1.30640E+006    2.43247E+006    8.35713E+005    3.06557E+006    1.79186E+004    4.22396E+003   -2.17763E+004   -9.23121E+003
            7384    1.99793E+006    2.38720E+006    2.38720E+006    6.83112E+005    1.88385E+005    2.19882E+006   -1.08623E+006    1.85245E+006    6.79222E+005    2.38636E+006    1.93123E+005    2.05648E+003   -4.37726E+004   -4.29974E+004
            7385    8.47892E+005    1.32223E+006    1.32223E+006    5.75352E+005    4.00565E+005    9.21665E+005   -7.66049E+005    8.05850E+005    4.65700E+005    1.32177E+006    5.10680E+005    9.95474E+002   -8.45561E+004   -1.91763E+004
            7386    2.91893E+006    3.28047E+006    3.28047E+006    8.92307E+005    2.66146E+004    3.25386E+006   -1.39980E+006    2.60576E+006    8.92514E+005    3.27481E+006    3.20700E+004    4.17459E+004   -2.35493E+004   -1.26155E+005
            7387    2.27390E+006    2.61775E+006    2.61775E+006    7.13599E+005    1.00020E+005    2.51773E+006   -1.14379E+006    2.07505E+006    7.11615E+005    2.56231E+006    1.57435E+005    3.59225E+004   -4.81733E+004   -3.66035E+005
            7388    1.66288E+006    1.92109E+006    1.92109E+006    5.29110E+005    7.96784E+004    1.84141E+006   -8.43291E+005    1.51696E+006    5.19571E+005    1.58415E+006    4.26153E+005    2.63602E+004   -9.42269E+004   -7.05918E+005
            7389    3.39313E+006    3.75408E+006    3.75408E+006    9.78197E+005   -2.84800E+004    3.78256E+006   -1.56793E+006    3.02881E+006    9.80167E+005    3.74198E+006   -1.83531E+004    8.24138E+004   -2.78460E+004   -1.89949E+005
            7390    2.85123E+006    3.11181E+006    3.11181E+006    7.78925E+005   -6.65406E+004    3.17835E+006   -1.27473E+006    2.54544E+006    7.79215E+005    2.98243E+006    6.25464E+004    6.79622E+004   -5.93039E+004   -6.21386E+005
            7391    2.72897E+006    2.66878E+006    2.66878E+006    5.83222E+005   -4.19746E+005    3.08853E+006   -9.44086E+005    2.25450E+006    5.80762E+005    2.12789E+006    1.23607E+005    5.48674E+004   -1.18362E+005   -1.16709E+006
            7392    1.12964E+007    1.56815E+007    1.56815E+007    6.17606E+006    3.19295E+006    1.24886E+007   -8.35018E+006    1.03531E+007    6.17806E+006    1.52578E+007    3.61472E+006    2.98629E+005    8.24399E+004   -2.23867E+006
            7393    1.08419E+007    1.54807E+007    1.54807E+007    6.00222E+006    3.65868E+006    1.18220E+007   -8.38052E+006    1.02485E+007    6.00556E+006    1.54301E+007    3.70595E+006    1.99312E+005    2.95751E+004   -7.39918E+005
            7394    1.10979E+007    1.54447E+007    1.54447E+007    5.75474E+006    3.33736E+006    1.21074E+007   -8.17895E+006    1.04807E+007    5.75508E+006    1.54413E+007    3.34047E+006    6.89347E+004    1.78023E+004   -1.89535E+005
            7395    1.08296E+007    1.72789E+007    1.72789E+007    7.59002E+006    5.58807E+006    1.16908E+007   -1.01523E+007    1.04009E+007    7.59346E+006    1.69708E+007    5.89273E+006    2.96244E+005    5.21070E+004   -1.84681E+006
            7396    1.19753E+007    1.74956E+007    1.74956E+007    7.01024E+006    4.44586E+006    1.30498E+007   -9.65058E+006    1.13326E+007    7.01375E+006    1.74714E+007    4.46654E+006    2.00216E+005    1.86835E+004   -5.15547E+005
            7397    1.26531E+007    1.76019E+007    1.76019E+007    6.69643E+006    3.72868E+006    1.38732E+007   -9.34233E+006    1.18314E+007    6.69669E+006    1.76003E+007    3.72994E+006    6.17506E+004    1.56498E+004   -1.27441E+005
            7398    1.01550E+007    1.80443E+007    1.80443E+007    8.49120E+006    7.37904E+006    1.06653E+007   -1.13049E+007    1.00166E+007    8.49868E+006    1.79866E+007    7.42932E+006    2.91719E+005    1.84689E+004   -7.20677E+005
            7399    1.26266E+007    1.86645E+007    1.86645E+007    7.59526E+006    4.91188E+006    1.37526E+007   -1.03905E+007    1.19596E+007    7.59886E+006    1.86581E+007    4.91459E+006    2.00968E+005    7.12684E+003   -1.91718E+005
            7400    1.35630E+007    1.88635E+007    1.88635E+007    7.24697E+006    3.95881E+006    1.49047E+007   -1.00231E+007    1.26185E+007    7.24723E+006    1.88631E+007    3.95898E+006    5.57487E+004    6.04705E+003   -4.90880E+004
            7401    4.40797E+006    5.35085E+006    5.35085E+006    1.06178E+006    8.32906E+005    4.51795E+006   -2.41518E+006    4.39457E+006    1.05226E+006    5.33725E+006    8.56036E+005   -3.72794E+004    4.86358E+004   -2.43924E+005
            7402    5.15818E+006    6.68951E+006    6.68951E+006    1.74614E+006    1.34048E+006    5.34903E+006   -3.25871E+006    5.12210E+006    1.74280E+006    6.68002E+006    1.35332E+006   -3.53744E+004    3.96286E+004   -2.21775E+005
            7403    6.16941E+006    8.33592E+006    8.33592E+006    2.54492E+006    1.84740E+006    6.48853E+006   -4.24275E+006    6.07975E+006    2.54435E+006    8.32969E+006    1.85420E+006   -2.97358E+004    2.34842E+004   -1.98373E+005
            7404    7.55512E+006    1.04024E+007    1.04024E+007    3.49450E+006    2.33424E+006    8.06813E+006   -5.41037E+006    7.35066E+006    3.49451E+006    1.03994E+007    2.33723E+006   -1.79264E+004    6.29349E+003   -1.54363E+005
            7405    9.26259E+006    1.28178E+007    1.28178E+007    4.56358E+006    2.80025E+006    1.00175E+007   -6.72719E+006    8.87310E+006    4.56355E+006    1.28157E+007    2.80233E+006   -1.39968E+002   -7.26999E+003   -1.43332E+005
            7406    4.70288E+006    5.51376E+006    5.51376E+006    1.09239E+006    5.72569E+005    4.94119E+006   -2.39291E+006    4.63759E+006    1.09549E+006    5.42193E+006    6.61295E+005   -1.18011E+005    2.56284E+004   -6.55279E+005
            7407    5.47098E+006    6.83836E+006    6.83836E+006    1.76056E+006    1.04469E+006    5.79367E+006   -3.21454E+006    5.36409E+006    1.76395E+006    6.76503E+006    1.11463E+006   -1.30280E+005    1.72465E+004   -6.32468E+005
            7408    6.44313E+006    8.44230E+006    8.44230E+006    2.54286E+006    1.56685E+006    6.87545E+006   -4.18400E+006    6.27357E+006    2.54632E+006    8.39652E+006    1.60916E+006   -1.44108E+005    4.00036E+003   -5.37254E+005
            7409    7.78470E+006    1.05120E+007    1.05120E+007    3.50762E+006    2.13080E+006    8.38125E+006   -5.38349E+006    7.50340E+006    3.51094E+006    1.04786E+007    2.16091E+006   -1.59248E+005   -9.61669E+003   -4.99114E+005
            7410    9.33610E+006    1.28817E+007    1.28817E+007    4.60599E+006    2.76075E+006    1.01209E+007   -6.74948E+006    8.91187E+006    4.60918E+006    1.28586E+007    2.78066E+006   -1.73309E+005   -1.96604E+004   -4.43868E+005
            7411    5.17621E+006    5.69434E+006    5.69434E+006    1.14616E+006    6.18754E+004    5.63246E+006   -2.30079E+006    4.91085E+006    1.14954E+006    5.54083E+006    2.11998E+005   -1.70324E+005   -2.51619E+004   -8.99021E+005
            7412    6.01913E+006    6.95538E+006    6.95538E+006    1.73820E+006    3.69898E+005    6.58549E+006   -3.02116E+006    5.65310E+006    1.74164E+006    6.83768E+006    4.84165E+005   -1.84489E+005   -3.64325E+004   -8.49493E+005
            7413    7.12190E+006    8.69119E+006    8.69119E+006    2.56354E+006    8.77582E+005    7.81360E+006   -4.04410E+006    6.65030E+006    2.56689E+006    8.58181E+006    9.83615E+005   -1.96411E+005   -4.32926E+004   -8.92716E+005
            7414    8.21095E+006    1.06442E+007    1.06442E+007    3.55888E+006    1.64548E+006    8.99871E+006   -5.28285E+006    7.68495E+006    3.56169E+006    1.05476E+007    1.73930E+006   -1.97674E+005   -4.79241E+004   -9.02055E+005
            7415    9.52501E+006    1.29695E+007    1.29695E+007    4.73114E+006    2.53983E+006    1.04297E+007   -6.74683E+006    8.93107E+006    4.73341E+006    1.28863E+007    2.62077E+006   -1.88809E+005   -4.71369E+004   -9.04651E+005
            7416    5.72971E+006    5.65556E+006    5.65556E+006    1.06997E+006   -7.67482E+005    6.42304E+006   -1.98602E+006    4.99937E+006    1.07174E+006    5.59772E+006   -7.11413E+005   -1.95712E+005   -8.69437E+004   -5.64900E+005
            7417    7.15817E+006    7.31349E+006    7.31349E+006    1.67714E+006   -7.40430E+005    8.05392E+006   -2.75007E+006    6.13330E+006    1.68036E+006    7.22726E+006   -6.57412E+005   -2.24728E+005   -8.80581E+004   -7.88239E+005
            7418    8.23197E+006    9.04860E+006    9.04860E+006    2.48445E+006   -1.87413E+005    9.23601E+006   -3.78188E+006    7.15413E+006    2.48817E+006    8.90965E+006   -5.21775E+004   -2.46826E+005   -8.34135E+004   -1.08938E+006
            7419    9.27897E+006    1.11085E+007    1.11085E+007    3.54060E+006    7.56066E+005    1.03524E+007   -5.13505E+006    8.25746E+006    3.54491E+006    1.09288E+007    9.31425E+005   -2.62964E+005   -7.29442E+004   -1.31983E+006
            7420    1.01841E+007    1.33404E+007    1.33404E+007    4.78771E+006    2.07446E+006    1.12660E+007   -6.73419E+006    9.31750E+006    4.79223E+006    1.31266E+007    2.28374E+006   -2.71852E+005   -6.05942E+004   -1.50801E+006
            7421    1.16373E+007    1.36325E+007    1.36325E+007    4.59449E+006    5.01730E+005    1.31307E+007   -6.24289E+006    9.81006E+006    4.59530E+006    1.32396E+007    8.93796E+005   -3.27807E+005   -1.38862E+005   -2.20787E+006
            7422    1.08697E+007    1.13366E+007    1.13366E+007    3.25173E+006   -1.02001E+006    1.23566E+007   -4.52278E+006    8.65378E+006    3.25280E+006    1.11419E+007   -8.26377E+005   -2.97185E+005   -1.53646E+005   -1.50055E+006
            7423    9.69320E+006    9.26963E+006    9.26963E+006    2.25371E+006   -1.79086E+006    1.10605E+007   -3.24416E+006    7.40265E+006    2.25476E+006    9.20495E+006   -1.72723E+006   -2.63776E+005   -1.61220E+005   -7.81966E+005
            7424    8.41640E+006    7.58852E+006    7.58852E+006    1.57865E+006   -2.03056E+006    9.61908E+006   -2.37887E+006    6.28411E+006    1.57951E+006    7.57131E+006   -2.01422E+006   -2.31966E+005   -1.59982E+005   -2.87557E+005
            7425    6.97555E+006    6.09511E+006    6.09511E+006    1.10610E+006   -1.87576E+006    7.97087E+006   -1.77515E+006    5.22265E+006    1.10656E+006    6.08127E+006   -1.86238E+006   -1.98521E+005   -1.57504E+005    2.11119E+005
            7426    5.80549E+006    4.81895E+006    4.81895E+006    7.05983E+005   -1.82188E+006    6.64084E+006   -1.23435E+006    4.27529E+006    7.05538E+005    4.73492E+006   -1.73741E+006   -1.63626E+005   -1.63588E+005    7.06072E+005
            7427    4.66951E+006    3.89757E+006    3.89757E+006    5.79008E+005   -1.44202E+006    5.33959E+006   -1.01152E+006    3.45788E+006    5.78498E+005    3.60298E+006   -1.14691E+006   -1.23328E+005   -1.59548E+005    1.20267E+006
            7428    3.93966E+006    3.90294E+006    3.90294E+006    7.51370E+005   -5.13900E+005    4.41684E+006   -1.38014E+006    3.43583E+006    7.53353E+005    3.85976E+006   -4.72697E+005   -1.32283E+005   -8.53251E+004    4.02086E+005
            7429    4.11234E+006    4.42450E+006    4.42450E+006    9.77804E+005   -1.27542E+005    4.55204E+006   -1.75825E+006    3.75570E+006    9.83724E+005    4.41738E+006   -1.26336E+005   -1.54340E+005   -3.46209E+004    2.88226E+004
            7430    4.44999E+006    4.36042E+006    4.36042E+006    7.59148E+005   -6.14406E+005    4.97483E+006   -1.50172E+006    3.92881E+006    7.60152E+005    4.34940E+006   -6.04385E+005   -1.62829E+005   -8.71629E+004   -1.38738E+005
            7431    4.09238E+006    4.33803E+006    4.33803E+006    7.84104E+005   -1.36121E+005    4.47415E+006   -1.66200E+006    3.84913E+006    7.91675E+005    4.32121E+006   -1.26877E+005   -1.81679E+005   -3.07743E+004   -1.84651E+005
            7432    3.83107E+006    4.00019E+006    4.00019E+006    5.00368E+005   -9.29064E+004    4.09310E+006   -1.46922E+006    3.72561E+006    5.08088E+005    3.96482E+006   -6.52527E+004   -1.86111E+005   -1.94925E+004   -3.22732E+005
            7433    3.39503E+006    3.46525E+006    3.46525E+006    1.60708E+005   -1.35607E+004    3.47881E+006   -1.20413E+006    3.38495E+006    1.66709E+005    3.42069E+006    2.49951E+004   -1.65631E+005   -2.55087E+003   -3.53219E+005
            7434    2.96217E+006    2.90599E+006    2.90599E+006    5.14030E+004   -1.53170E+005    3.05916E+006   -9.34739E+005    2.94622E+006   -1.48761E+005    2.87777E+006    7.52142E+004   -1.15411E+005    1.15780E+004   -2.59446E+005
            7435    2.70117E+006    2.55181E+006    2.55181E+006    9.19787E+004   -3.38893E+005    2.89070E+006   -7.68299E+005    2.62218E+006   -3.37558E+005    2.54765E+006    9.48069E+004   -4.13349E+004    1.92198E+004   -9.33949E+004
            7436    4.60861E+006    4.63342E+006    4.63342E+006    7.34529E+005   -4.52626E+005    5.08604E+006   -1.63844E+006    4.24366E+006    7.36383E+005    4.55535E+006   -3.76408E+005   -1.76793E+005   -5.97243E+004   -5.95061E+005
            7437    4.38004E+006    4.61788E+006    4.61788E+006    6.46049E+005   -7.97066E+004    4.69758E+006   -1.72807E+006    4.24159E+006    6.50026E+005    4.47572E+006    5.84750E+004   -1.59391E+005   -1.18548E+004   -7.87217E+005
            7438    3.98016E+006    4.33460E+006    4.33460E+006    5.01194E+005    2.22344E+005    4.11225E+006   -1.68604E+006    3.95809E+006    5.04054E+005    4.24502E+006    3.09060E+005   -1.08706E+005    2.62984E+004   -5.89302E+005
            7439    3.69546E+006    4.08413E+006    4.08413E+006    4.31925E+005    3.46894E+005    3.73724E+006   -1.62098E+006    3.69326E+006    3.92071E+005    4.07121E+006    3.99670E+005   -3.85915E+004    4.47772E+004   -2.14282E+005
            7440    4.91092E+006    6.26119E+006    6.26119E+006    1.54604E+006    1.17551E+006    5.08568E+006   -2.99425E+006    4.87932E+006    1.54391E+006    6.23635E+006    1.20248E+006    6.27898E+004   -3.77700E+004   -3.47961E+005
            7441    6.04105E+006    8.11903E+006    8.11903E+006    2.45546E+006    1.76059E+006    6.35843E+006   -4.11169E+006    5.95014E+006    2.45594E+006    8.10896E+006    1.77018E+006    6.99774E+004   -1.93866E+004   -2.41453E+005
            7442    7.61646E+006    1.04416E+007    1.04416E+007    3.51236E+006    2.28662E+006    8.15499E+006   -5.41353E+006    7.38966E+006    3.51315E+006    1.04301E+007    2.29737E+006    7.41018E+004   -1.66638E+003   -2.95835E+005
            7443    9.29646E+006    1.29140E+007    1.29140E+007    4.63935E+006    2.85449E+006    1.00595E+007   -6.80260E+006    8.89863E+006    4.63990E+006    1.29080E+007    2.85989E+006    7.34732E+004    1.17347E+004   -2.30960E+005
            7444    5.66819E+006    6.56558E+006    6.56558E+006    1.56956E+006    4.05853E+005    6.15973E+006   -2.84700E+006    5.38950E+006    1.57334E+006    6.45975E+006    5.07904E+005    1.67186E+005    2.12479E+004   -7.79919E+005
            7445    7.07386E+006    8.71637E+006    8.71637E+006    2.57328E+006    9.82600E+005    7.73377E+006   -4.09075E+006    6.65337E+006    2.57712E+006    8.60568E+006    1.08945E+006    1.86439E+005    2.80905E+004   -8.95832E+005
            7446    8.16998E+006    1.07692E+007    1.07692E+007    3.64187E+006    1.85296E+006    8.91621E+006   -5.42133E+006    7.71064E+006    3.64526E+006    1.06659E+007    1.95282E+006    1.94209E+005    3.42265E+004   -9.30216E+005
            7447    9.52238E+006    1.31243E+007    1.31243E+007    4.81721E+006    2.73221E+006    1.03921E+007   -6.89125E+006    8.98701E+006    4.82059E+006    1.30465E+007    2.80662E+006    1.98235E+005    3.33033E+004   -8.68932E+005
            7448    1.10342E+007    1.35399E+007    1.35399E+007    4.70201E+006    1.17293E+006    1.23670E+007   -6.47163E+006    9.63606E+006    4.70398E+006    1.31903E+007    1.52066E+006    2.91663E+005    1.02255E+005   -2.02498E+006
            7449    1.01868E+007    1.13082E+007    1.13082E+007    3.42558E+006   -1.94107E+005    1.15023E+007   -4.84656E+006    8.54905E+006    3.42769E+006    1.10928E+007    1.92192E+004    2.75537E+005    1.15178E+005   -1.52813E+006
            7450    9.02449E+006    9.30119E+006    9.30119E+006    2.44922E+006   -9.24003E+005    1.02252E+007   -3.60880E+006    7.39207E+006    2.45142E+006    9.16667E+006   -7.91678E+005    2.53312E+005    1.16325E+005   -1.12809E+006
            7451    7.77462E+006    7.59440E+006    7.59440E+006    1.72088E+006   -1.22208E+006    8.81648E+006   -2.69773E+006    6.32571E+006    1.72300E+006    7.54137E+006   -1.17117E+006    2.28613E+005    1.17866E+005   -6.26460E+005
            7452    6.59953E+006    5.91622E+006    5.91622E+006    1.05319E+006   -1.59634E+006    7.51256E+006   -1.79102E+006    5.18243E+006    1.05377E+006    5.90784E+006   -1.58854E+006    1.99259E+005    1.39802E+005   -4.59819E+004
            7453    5.65967E+006    4.67503E+006    4.67503E+006    6.50459E+005   -1.79639E+006    6.47143E+006   -1.17637E+006    4.19535E+006    6.50064E+005    4.59415E+006   -1.71512E+006    1.59951E+005    1.58470E+005    6.83470E+005
            7454    4.66737E+006    3.93276E+006    3.93276E+006    5.93947E+005   -1.40047E+006    5.33323E+006   -1.04208E+006    3.49564E+006    5.93277E+005    3.67977E+006   -1.14682E+006    1.27210E+005    1.58604E+005    1.11581E+006
            7455    3.71316E+006    3.31556E+006    3.31556E+006    5.97986E+005   -9.15273E+005    4.23083E+006   -9.99425E+005    2.88584E+006    5.97152E+005    2.84618E+006   -4.45058E+005    9.03818E+004    1.43073E+005    1.31825E+006
            7456    3.42082E+006    3.56124E+006    3.56124E+006    7.92446E+005   -2.62897E+005    3.82414E+006   -1.36360E+006    3.02064E+006    7.94436E+005    3.44922E+006   -1.52862E+005    1.05537E+005    7.41485E+004    6.30342E+005
            7457    3.88202E+006    4.28277E+006    4.28277E+006    1.06204E+006   -2.76339E+004    4.31041E+006   -1.77239E+006    3.51244E+006    1.06638E+006    4.26959E+006   -1.87921E+004    1.25414E+005    3.20898E+004    1.87627E+005
            7458    3.97776E+006    3.94993E+006    3.94993E+006    7.43189E+005   -5.01280E+005    4.45121E+006   -1.39728E+006    3.49781E+006    7.45198E+005    3.91495E+006   -4.68310E+005    1.37596E+005    8.57696E+004    3.54614E+005
            7459    4.25776E+006    4.54641E+006    4.54641E+006    9.67026E+005   -1.62102E+005    4.70852E+006   -1.78378E+006    3.89901E+006    9.73586E+005    4.53873E+006   -1.60982E+005    1.65173E+005    3.54646E+004    1.28307E+004
            7460    4.65339E+006    4.47341E+006    4.47341E+006    7.16545E+005   -7.31964E+005    5.20538E+006   -1.48600E+006    4.09815E+006    7.17784E+005    4.45569E+006   -7.15483E+005    1.68361E+005    8.52711E+004   -2.33524E+005
            7461    4.14290E+006    4.34639E+006    4.34639E+006    7.18366E+005   -1.67927E+005    4.51432E+006   -1.63228E+006    3.92099E+006    7.26249E+005    4.32037E+006   -1.49783E+005    1.89832E+005    2.91669E+004   -2.70346E+005
            7462    4.83750E+006    4.93924E+006    4.93924E+006    8.27567E+005   -3.91059E+005    5.33029E+006   -1.79191E+006    4.47218E+006    8.29480E+005    4.81008E+006   -2.63818E+005    1.80782E+005    5.25702E+004   -7.96375E+005
            7463    3.67594E+006    3.81681E+006    3.81681E+006    3.76563E+005   -5.64713E+004    3.87328E+006   -1.37897E+006    3.61789E+006    3.83635E+005    3.76892E+006   -1.56578E+004    1.81123E+005    1.31463E+004   -3.83965E+005
            7464    3.21802E+006    3.22613E+006    3.22613E+006    1.81811E+004   -1.88162E+003    3.22801E+006   -1.08081E+006    3.21788E+006    1.41658E+004    3.18327E+006    4.49886E+004    1.34718E+005   -4.49578E+003   -3.43835E+005
            7465    2.81398E+006    2.75647E+006    2.75647E+006    1.43957E+005   -2.22982E+005    2.97945E+006   -8.92481E+005    2.75939E+006   -2.21286E+005    2.74679E+006    1.51937E+005    5.09154E+004   -1.99755E+004   -1.51096E+005
            7466    4.53945E+006    4.95505E+006    4.95505E+006    8.01886E+005    1.08995E+005    4.84606E+006   -1.95531E+006    4.41812E+006    8.05677E+005    4.81767E+006    2.42584E+005    1.42074E+005    1.75343E+003   -7.90297E+005
            7467    4.02967E+006    4.66913E+006    4.66913E+006    7.18243E+005    5.65050E+005    4.10408E+006   -1.98414E+006    4.02311E+006    7.08531E+005    4.64373E+006    6.00167E+005    5.45335E+004   -4.31559E+004   -3.16119E+005
            7468    1.16147E+007    1.57642E+007    1.57642E+007    6.17311E+006    2.85014E+006    1.29140E+007   -8.26248E+006    1.04624E+007    6.17390E+006    1.52092E+007    3.40433E+006   -3.48363E+005   -1.10793E+005   -2.59291E+006
            7469    1.08986E+007    1.55763E+007    1.55763E+007    6.13193E+006    3.65120E+006    1.19251E+007   -8.45315E+006    1.02340E+007    6.13709E+006    1.53818E+007    3.84057E+006   -2.76680E+005   -4.44634E+004   -1.48043E+006
            7470    1.07939E+007    1.53338E+007    1.53338E+007    5.95314E+006    3.53647E+006    1.17974E+007   -8.27448E+006    1.01581E+007    5.95508E+006    1.52736E+007    3.59478E+006   -1.73215E+005   -4.05653E+004   -8.19082E+005
            7471    1.10113E+007    1.53862E+007    1.53862E+007    5.75476E+006    3.38191E+006    1.20043E+007   -8.17430E+006    1.04125E+007    5.75806E+006    1.53704E+007    3.39442E+006   -1.88887E+005   -2.37218E+004   -3.81447E+005
            7472    1.11014E+007    1.53720E+007    1.53720E+007    5.67685E+006    3.26195E+006    1.21100E+007   -8.10359E+006    1.04857E+007    5.67680E+006    1.53710E+007    3.26302E+006    1.65356E+004   -1.35704E+004   -1.09439E+005
            7473    1.07363E+007    1.72906E+007    1.72906E+007    7.71063E+006    5.68618E+006    1.16044E+007   -1.02291E+007    1.02937E+007    7.71280E+006    1.68523E+007    6.12229E+006   -3.57502E+005   -7.25267E+004   -2.18114E+006
            7474    1.12664E+007    1.74016E+007    1.74016E+007    7.33283E+006    5.23311E+006    1.21685E+007   -9.98919E+006    1.08129E+007    7.33911E+006    1.72881E+007    5.34035E+006   -2.81120E+005   -2.73362E+004   -1.12967E+006
            7475    1.18510E+007    1.73957E+007    1.73957E+007    7.03897E+006    4.47140E+006    1.29243E+007   -9.63536E+006    1.11993E+007    7.04079E+006    1.73648E+007    4.50049E+006   -1.54646E+005   -2.67412E+004   -6.07715E+005
            7476    1.24513E+007    1.75549E+007    1.75549E+007    6.75836E+006    3.93402E+006    1.36209E+007   -9.41576E+006    1.16976E+007    6.76198E+006    1.75459E+007    3.93940E+006   -2.03418E+005   -1.93509E+004   -2.65637E+005
            7477    1.27004E+007    1.75653E+007    1.75653E+007    6.62127E+006    3.63919E+006    1.39261E+007   -9.27525E+006    1.18738E+007    6.62128E+006    1.75648E+007    3.63969E+006    2.69566E+004   -1.23699E+004   -7.89100E+004
            7478    9.60806E+006    1.78997E+007    1.78997E+007    8.70636E+006    7.92472E+006    9.97500E+006   -1.15103E+007    9.53614E+006    8.71606E+006    1.78100E+007    8.00475E+006   -3.58834E+005   -2.48632E+004   -8.66518E+005
            7479    1.13973E+007    1.84322E+007    1.84322E+007    8.05061E+006    6.23666E+006    1.21955E+007   -1.09065E+007    1.10655E+007    8.05801E+006    1.84097E+007    6.25166E+006   -2.81441E+005   -9.49347E+003   -4.24465E+005
            7480    1.24582E+007    1.85832E+007    1.85832E+007    7.66179E+006    5.01383E+006    1.35693E+007   -1.04196E+007    1.17999E+007    7.66355E+006    1.85777E+007    5.01754E+006   -1.40662E+005   -9.00731E+003   -2.22987E+005
            7481    1.32916E+007    1.88274E+007    1.88274E+007    7.34786E+006    4.26542E+006    1.45620E+007   -1.01469E+007    1.24487E+007    7.35170E+006    1.88227E+007    4.26625E+006   -2.10710E+005   -8.30124E+003   -1.07706E+005
            7482    1.36550E+007    1.88753E+007    1.88753E+007    7.18455E+006    3.86736E+006    1.50080E+007   -9.97575E+006    1.27001E+007    7.18463E+006    1.88752E+007    3.86742E+006    3.34130E+004   -5.03354E+003   -2.73909E+004
            7483    3.67181E+006    3.25881E+006    3.25881E+006    5.81806E+005   -9.27048E+005    4.18585E+006   -9.71188E+005    2.83671E+006    5.80636E+005    2.77593E+006   -4.43007E+005   -8.50294E+004    1.41784E+005   -1.32738E+006
            7484    3.30349E+006    3.44527E+006    3.44527E+006    7.77949E+005   -2.49976E+005    3.69525E+006   -1.32442E+006    2.90965E+006    7.79348E+005    3.32248E+006   -1.28585E+005   -9.47344E+004    7.19960E+004   -6.50566E+005
            7485    3.75944E+006    4.13218E+006    4.13218E+006    1.03290E+006   -4.98042E+004    4.18199E+006   -1.70509E+006    3.38108E+006    1.03652E+006    4.11975E+006   -4.09916E+004   -1.13684E+005    3.15939E+004   -1.84468E+005
            7486    2.66071E+006    2.59809E+006    2.59809E+006    5.65788E+005   -4.13483E+005    3.01157E+006   -9.16798E+005    2.19658E+006    5.63246E+005    2.05139E+006    1.35755E+005   -5.17655E+004    1.16164E+005   -1.15432E+006
            7487    2.69086E+006    2.96845E+006    2.96845E+006    7.56926E+005   -2.74386E+004    2.99589E+006   -1.23265E+006    2.41284E+006    7.56829E+005    2.85052E+006    9.05895E+004   -6.15578E+004    5.66206E+004   -5.76603E+005
            7488    3.25503E+006    3.62421E+006    3.62421E+006    9.60567E+005   -4.12916E+003    3.62834E+006   -1.52688E+006    2.90633E+006    9.62004E+005    3.61275E+006    5.89026E+003   -7.15435E+004    2.68264E+004   -1.85005E+005
            7489    1.55030E+006    1.83235E+006    1.83235E+006    5.18973E+005    1.22227E+005    1.71012E+006   -8.24516E+005    1.42924E+006    5.06783E+005    1.52894E+006    4.37826E+005   -2.16091E+004    9.30372E+004   -6.47052E+005
            7490    2.17895E+006    2.53214E+006    2.53214E+006    6.98745E+005    1.23185E+005    2.40895E+006   -1.11802E+006    1.99690E+006    6.96097E+005    2.49029E+006    1.67677E+005   -2.65363E+004    4.68227E+004   -3.12347E+005
            7491    2.85214E+006    3.20205E+006    3.20205E+006    8.71915E+005    2.14030E+004    3.18065E+006   -1.36512E+006    2.54246E+006    8.71812E+005    3.19859E+006    2.49620E+004   -3.22699E+004    2.29974E+004   -9.74546E+004
            7492    8.48312E+005    1.32309E+006    1.32309E+006    5.75771E+005    4.01011E+005    9.22082E+005   -7.66625E+005    8.06305E+005    4.66200E+005    1.32199E+006    5.11682E+005    1.16193E+003    8.46094E+004    2.95825E+004
            7493    1.99818E+006    2.38818E+006    2.38818E+006    6.83695E+005    1.89177E+005    2.19901E+006   -1.08702E+006    1.85285E+006    6.79806E+005    2.38731E+006    1.93936E+005    2.36947E+003    4.37708E+004    4.35299E+004
            7494    2.73384E+006    3.06732E+006    3.06732E+006    8.36835E+005    1.75010E+004    3.04982E+006   -1.30722E+006    2.43374E+006    8.36267E+005    3.06728E+006    1.81155E+004    4.84249E+003    2.17955E+004    1.03634E+004
            7495    1.68246E+006    1.93279E+006    1.93279E+006    5.28562E+005    6.80239E+004    1.86477E+006   -8.43127E+005    1.53073E+006    5.19345E+005    1.58739E+006    4.22643E+005    2.65976E+004    9.46324E+004    7.18406E+005
            7496    2.27366E+006    2.61630E+006    2.61630E+006    7.12439E+005    9.88043E+004    2.51750E+006   -1.14251E+006    2.07474E+006    7.10449E+005    2.56078E+006    1.56319E+005    3.61143E+004    4.83241E+004    3.66290E+005
            7497    2.92824E+006    3.28984E+006    3.28984E+006    8.94222E+005    2.55491E+004    3.26429E+006   -1.40320E+006    2.61389E+006    8.94459E+005    3.28409E+006    3.10592E+004    4.25108E+004    2.35078E+004    1.27135E+005
            7498    2.74384E+006    2.67992E+006    2.67992E+006    5.84590E+005   -4.25863E+005    3.10578E+006   -9.46214E+005    2.26455E+006    5.82134E+005    2.14080E+006    1.15707E+005    5.52564E+004    1.18689E+005    1.16950E+006
            7499    2.84507E+006    3.10665E+006    3.10665E+006    7.77875E+005   -6.44918E+004    3.17114E+006   -1.27334E+006    2.54095E+006    7.78153E+005    2.97577E+006    6.61096E+004    6.79000E+004    5.95021E+004    6.24146E+005
            7500    3.40304E+006    3.76564E+006    3.76564E+006    9.81065E+005   -2.77475E+004    3.79339E+006   -1.57299E+006    3.03829E+006    9.83081E+005    3.75358E+006   -1.76997E+004    8.32599E+004    2.78423E+004    1.89457E+005
            7501    1.10929E+007    1.53578E+007    1.53578E+007    5.66987E+006    3.25719E+006    1.21006E+007   -8.09496E+006    1.04778E+007    5.66982E+006    1.53568E+007    3.25822E+006    1.64835E+004    1.36509E+004    1.07261E+005
            7502    1.10132E+007    1.53868E+007    1.53868E+007    5.75491E+006    3.37992E+006    1.20069E+007   -8.17389E+006    1.04134E+007    5.75820E+006    1.53710E+007    3.39251E+006   -1.88743E+005    2.39386E+004    3.82653E+005
            7503    1.08017E+007    1.53473E+007    1.53473E+007    5.96039E+006    3.54103E+006    1.18062E+007   -8.28289E+006    1.01649E+007    5.96234E+006    1.52862E+007    3.60015E+006   -1.73800E+005    4.05153E+004    8.25139E+005
            7504    1.09011E+007    1.55887E+007    1.55887E+007    6.14162E+006    3.66106E+006    1.19276E+007   -8.46378E+006    1.02368E+007    6.14678E+006    1.53906E+007    3.85398E+006   -2.77751E+005    4.49132E+004    1.49410E+006
            7505    1.16133E+007    1.57751E+007    1.57751E+007    6.18254E+006    2.86366E+006    1.29114E+007   -8.27377E+006    1.04639E+007    6.18331E+006    1.52192E+007    3.41877E+006   -3.48933E+005    1.10913E+005    2.59464E+006
            7506    1.27008E+007    1.75637E+007    1.75637E+007    6.61961E+006    3.63695E+006    1.39267E+007   -9.27341E+006    1.18739E+007    6.61964E+006    1.75631E+007    3.63747E+006    2.80131E+004    1.23211E+004    8.03902E+004
            7507    1.24525E+007    1.75536E+007    1.75536E+007    6.75609E+006    3.93135E+006    1.36223E+007   -9.41368E+006    1.16987E+007    6.75967E+006    1.75447E+007    3.93668E+006   -2.02375E+005    1.92640E+004    2.64503E+005
            7508    1.18521E+007    1.73929E+007    1.73929E+007    7.03568E+006    4.46713E+006    1.29258E+007   -9.63190E+006    1.11999E+007    7.03752E+006    1.73619E+007    4.49633E+006   -1.55363E+005    2.68048E+004    6.08772E+005
            7509    1.12564E+007    1.74090E+007    1.74090E+007    7.34483E+006    5.25359E+006    1.21554E+007   -1.00025E+007    1.08063E+007    7.35115E+006    1.72933E+007    5.36295E+006   -2.82400E+005    2.74523E+004    1.14008E+006
            7510    1.07340E+007    1.72930E+007    1.72930E+007    7.71531E+006    5.69092E+006    1.16021E+007   -1.02331E+007    1.02913E+007    7.71735E+006    1.68494E+007    6.13248E+006   -3.58192E+005    7.31217E+004    2.19388E+006
            7511    1.36501E+007    1.88713E+007    1.88713E+007    7.18365E+006    3.86916E+006    1.50021E+007   -9.97470E+006    1.26965E+007    7.18374E+006    1.88712E+007    3.86921E+006    3.40212E+004    5.15544E+003    2.66254E+004
            7512    1.32965E+007    1.88274E+007    1.88274E+007    7.34539E+006    4.25931E+006    1.45681E+007   -1.01440E+007    1.24518E+007    7.34920E+006    1.88228E+007    4.26012E+006   -2.10100E+005    8.28316E+003    1.06611E+005
            7513    1.24583E+007    1.85859E+007    1.85859E+007    7.66357E+006    5.01690E+006    1.35690E+007   -1.04221E+007    1.18007E+007    7.66533E+006    1.85805E+007    5.02052E+006   -1.40755E+005    8.92092E+003    2.19893E+005
            7514    1.13823E+007    1.84206E+007    1.84206E+007    8.04935E+006    6.24322E+006    1.21774E+007   -1.09044E+007    1.10530E+007    8.05676E+006    1.83988E+007    6.25765E+006   -2.81434E+005    9.31155E+003    4.15964E+005
            7515    9.60375E+006    1.78810E+007    1.78810E+007    8.69464E+006    7.90828E+006    9.97275E+006   -1.14946E+007    9.53091E+006    8.70429E+006    1.77908E+007    7.98889E+006   -3.58852E+005    2.53200E+004    8.69366E+005
            7516    6.97438E+006    6.09553E+006    6.09553E+006    1.10707E+006   -1.87396E+006    7.96949E+006   -1.77621E+006    5.22228E+006    1.10752E+006    6.08195E+006   -1.86083E+006   -1.98649E+005    1.57477E+005   -2.05956E+005
            7517    8.42412E+006    7.59210E+006    7.59210E+006    1.57937E+006   -2.03628E+006    9.62838E+006   -2.37840E+006    6.28511E+006    1.58022E+006    7.57480E+006   -2.01983E+006   -2.31877E+005    1.60081E+005    2.89524E+005
            7518    9.71045E+006    9.29329E+006    9.29329E+006    2.26452E+006   -1.78681E+006    1.10801E+007   -3.25700E+006    7.41643E+006    2.26556E+006    9.22740E+006   -1.72196E+006   -2.64288E+005    1.61381E+005    7.91035E+005
            7519    1.08826E+007    1.13677E+007    1.13677E+007    3.26899E+006   -1.00274E+006    1.23704E+007   -4.54463E+006    8.67047E+006    3.27003E+006    1.11700E+007   -8.06126E+005   -2.97856E+005    1.53881E+005    1.51307E+006
            7520    1.16325E+007    1.36538E+007    1.36538E+007    4.61215E+006    5.30512E+005    1.31232E+007   -6.26547E+006    9.81571E+006    4.61295E+006    1.32576E+007    9.25820E+005   -3.27960E+005    1.38450E+005    2.21623E+006
            7521    1.01913E+007    1.33334E+007    1.33334E+007    4.77996E+006    2.05724E+006    1.12762E+007   -6.72353E+006    9.31894E+006    4.78449E+006    1.31196E+007    2.26654E+006   -2.72154E+005    6.08598E+004    1.50874E+006
            7522    9.52005E+006    1.29558E+007    1.29558E+007    4.72441E+006    2.53018E+006    1.04256E+007   -6.73678E+006    8.92410E+006    4.72667E+006    1.28716E+007    2.61207E+006   -1.89347E+005    4.76732E+004    9.09600E+005
            7523    9.33403E+006    1.28795E+007    1.28795E+007    4.60658E+006    2.76026E+006    1.01192E+007   -6.74877E+006    8.90918E+006    4.60980E+006    1.28560E+007    2.78047E+006   -1.74398E+005    1.99692E+004    4.47053E+005
            7524    9.26116E+006    1.28166E+007    1.28166E+007    4.56321E+006    2.80087E+006    1.00157E+007   -6.72689E+006    8.87206E+006    4.56318E+006    1.28145E+007    2.80299E+006   -9.55632E+002    7.07647E+003    1.44822E+005
            7525    9.26671E+006    1.10732E+007    1.10732E+007    3.52059E+006    7.32534E+005    1.03406E+007   -5.10876E+006    8.24075E+006    3.52487E+006    1.08943E+007    9.07116E+005   -2.62733E+005    7.33464E+004    1.31605E+006
            7526    8.21242E+006    1.06255E+007    1.06255E+007    3.54532E+006    1.62221E+006    9.00333E+006   -5.26436E+006    7.68090E+006    3.54814E+006    1.05274E+007    1.71756E+006   -1.98172E+005    4.80550E+004    9.09649E+005
            7527    7.78630E+006    1.05090E+007    1.05090E+007    3.50549E+006    2.12470E+006    8.38433E+006   -5.37974E+006    7.50340E+006    3.50884E+006    1.04749E+007    2.15543E+006   -1.60394E+005    1.00726E+004    5.04218E+005
            7528    7.55330E+006    1.04032E+007    1.04032E+007    3.49628E+006    2.33752E+006    8.06572E+006   -5.41235E+006    7.34933E+006    3.49630E+006    1.04002E+007    2.34053E+006   -1.83871E+004   -6.29453E+003    1.54955E+005
            7529    8.20644E+006    8.99856E+006    8.99856E+006    2.45970E+006   -2.10412E+005    9.20897E+006   -3.74928E+006    7.12603E+006    2.46341E+006    8.86152E+006   -7.70822E+004   -2.46598E+005    8.38920E+004    1.07979E+006
            7530    7.10966E+006    8.65455E+006    8.65455E+006    2.54347E+006    8.51566E+005    7.80299E+006   -4.01653E+006    6.63364E+006    2.54679E+006    8.54467E+006    9.58125E+005   -1.96774E+005    4.39842E+004    8.94107E+005
            7531    6.46404E+006    8.46442E+006    8.46442E+006    2.55146E+006    1.56314E+006    6.90128E+006   -4.19301E+006    6.29068E+006    2.55498E+006    8.41728E+006    1.60677E+006   -1.45679E+005   -3.48912E+003    5.46420E+005
            7532    6.19403E+006    8.37020E+006    8.37020E+006    2.56012E+006    1.85292E+006    6.51728E+006   -4.26108E+006    6.10221E+006    2.55959E+006    8.36349E+006    1.86017E+006   -3.03756E+004   -2.32794E+004    2.06411E+005
            7533    7.15381E+006    7.29774E+006    7.29774E+006    1.66941E+006   -7.52685E+005    8.05042E+006   -2.73815E+006    6.12380E+006    1.67263E+006    7.21192E+006   -6.70091E+005   -2.24694E+005    8.83006E+004    7.85904E+005
            7534    6.01577E+006    6.94714E+006    6.94714E+006    1.73442E+006    3.64583E+005    6.58256E+006   -3.01538E+006    5.64865E+006    1.73787E+006    6.82962E+006    4.78654E+005   -1.84770E+005    3.66033E+004    8.48511E+005
            7535    5.48507E+006    6.85424E+006    6.85424E+006    1.76720E+006    1.04307E+006    5.81117E+006   -3.22150E+006    5.37596E+006    1.77062E+006    6.78172E+006    1.11217E+006   -1.31079E+005   -1.66754E+004    6.29644E+005
            7536    5.17877E+006    6.72842E+006    6.72842E+006    1.76695E+006    1.35676E+006    5.37167E+006   -3.28404E+006    5.14202E+006    1.76370E+006    6.71957E+006    1.36886E+006   -3.57957E+004   -3.93582E+004    2.14345E+005
            7537    5.72849E+006    5.65025E+006    5.65025E+006    1.06653E+006   -7.71707E+005    6.42196E+006   -1.98169E+006    4.99727E+006    1.06828E+006    5.59290E+006   -7.16111E+005   -1.95751E+005    8.71734E+004    5.62117E+005
            7538    5.16807E+006    5.69465E+006    5.69465E+006    1.14863E+006    7.36261E+004    5.62102E+006   -2.30563E+006    4.90696E+006    1.15205E+006    5.54095E+006    2.23905E+005   -1.70000E+005    2.44034E+004    8.98702E+005
            7539    4.71503E+006    5.52963E+006    5.52963E+006    1.09869E+006    5.74345E+005    4.95529E+006   -2.40089E+006    4.64876E+006    1.10175E+006    5.43829E+006    6.62626E+005   -1.17446E+005   -2.57539E+004    6.54583E+005
            7540    4.42176E+006    5.37899E+006    5.37899E+006    1.07769E+006    8.45887E+005    4.53311E+006   -2.43419E+006    4.40806E+006    1.06835E+006    5.36445E+006    8.69781E+005   -3.77094E+004   -4.86627E+004    2.52750E+005
            7541    3.71373E+006    4.11202E+006    4.11202E+006    4.42090E+005    3.55977E+005    3.75604E+006   -1.63669E+006    3.71148E+006    4.05756E+005    4.09898E+006    4.05346E+005   -3.87000E+004   -4.49274E+004    2.15886E+005
            7542    2.70545E+006    2.55898E+006    2.55898E+006    9.28196E+004   -3.34813E+005    2.89380E+006   -7.72330E+005    2.62780E+006   -3.33457E+005    2.55481E+006    9.56418E+004   -4.15645E+004   -1.93443E+004    9.36357E+004
            7543    3.97796E+006    4.33616E+006    4.33616E+006    5.03149E+005    2.27583E+005    4.10857E+006   -1.68896E+006    3.95640E+006    5.05956E+005    4.24680E+006    3.14140E+005   -1.08352E+005   -2.66579E+004    5.88377E+005
            7544    2.96553E+006    2.91193E+006    2.91193E+006    5.28317E+004   -1.49642E+005    3.06157E+006   -9.38374E+005    2.94991E+006   -1.45198E+005    2.88342E+006    7.69016E+004   -1.15895E+005   -1.17232E+004    2.61050E+005
            7545    4.37202E+006    4.61133E+006    4.61133E+006    6.43828E+005   -7.58921E+004    4.68722E+006   -1.72642E+006    4.23566E+006    6.47794E+005    4.46870E+006    6.27712E+004   -1.58781E+005    1.14820E+004    7.87744E+005
            7546    3.39891E+006    3.46777E+006    3.46777E+006    1.61095E+005   -1.64203E+004    3.48419E+006   -1.20415E+006    3.38846E+006    1.67092E+005    3.42346E+006    2.18929E+004   -1.65673E+005    2.80380E+003    3.52323E+005
            7547    4.60552E+006    4.63109E+006    4.63109E+006    7.33958E+005   -4.51176E+005    5.08227E+006   -1.63796E+006    4.24162E+006    7.35793E+005    4.55249E+006   -3.74409E+005   -1.76788E+005    5.97075E+004    5.97031E+005
            7548    3.82803E+006    4.00038E+006    4.00038E+006    5.02187E+005   -8.87650E+004    4.08914E+006   -1.47127E+006    3.72333E+006    5.09912E+005    3.96508E+006   -6.11893E+004   -1.85984E+005    1.93496E+004    3.22159E+005
            7549    4.09503E+006    4.33990E+006    4.33990E+006    7.85765E+005   -1.38151E+005    4.47806E+006   -1.66251E+006    3.84990E+006    7.93310E+005    4.32321E+006   -1.29004E+005   -1.81353E+005    3.08329E+004    1.83642E+005
            7550    4.10887E+006    4.42223E+006    4.42223E+006    9.80290E+005   -1.26742E+005    4.54897E+006   -1.75859E+006    3.75072E+006    9.86157E+005    4.41509E+006   -1.25475E+005   -1.53491E+005    3.46427E+004   -3.39594E+004
            7551    4.44685E+006    4.35582E+006    4.35582E+006    7.57580E+005   -6.15675E+005    4.97150E+006   -1.49924E+006    3.92548E+006    7.58591E+005    4.34502E+006   -6.05883E+005   -1.62601E+005    8.71764E+004    1.34813E+005
            7552    3.92809E+006    3.89556E+006    3.89556E+006    7.51804E+005   -5.07831E+005    4.40339E+006   -1.37985E+006    3.42745E+006    7.53801E+005    3.85161E+006   -4.65872E+005   -1.31762E+005    8.49157E+004   -4.05734E+005
            7553    4.68259E+006    3.90486E+006    3.90486E+006    5.78562E+005   -1.44996E+006    5.35482E+006   -1.01116E+006    3.46471E+006    5.78069E+005    3.61007E+006   -1.15468E+006   -1.23581E+005    1.59721E+005   -1.20487E+006
            7554    5.82643E+006    4.82841E+006    4.82841E+006    7.03383E+005   -1.83686E+006    6.66527E+006   -1.23165E+006    4.28556E+006    7.02951E+005    4.74465E+006   -1.75267E+006   -1.63907E+005    1.63784E+005   -7.06156E+005
            7555    7.72251E+006    7.54038E+006    7.54038E+006    1.66572E+006   -1.20672E+006    8.74710E+006   -2.66646E+006    6.34163E+006    1.67045E+006    7.48192E+006   -1.15300E+006    3.31178E+005   -1.67653E+005    5.97308E+005
            7556    8.97935E+006    9.25097E+006    9.25097E+006    2.38681E+006   -9.10980E+005    1.01619E+007   -3.57560E+006    7.42078E+006    2.39222E+006    9.11219E+006   -7.77610E+005    3.72727E+005   -1.64875E+005    1.09900E+006
            7557    1.01339E+007    1.12490E+007    1.12490E+007    3.34858E+006   -1.76683E+005    1.14257E+007   -4.80697E+006    8.58207E+006    3.35475E+006    1.10281E+007    3.80668E+004    4.15698E+005   -1.61318E+005    1.50203E+006
            7558    1.09817E+007    1.34592E+007    1.34592E+007    4.59851E+006    1.17299E+006    1.22862E+007   -6.41024E+006    9.66537E+006    4.60505E+006    1.31062E+007    1.51943E+006    4.50457E+005   -1.42213E+005    1.99223E+006
            7559    9.54802E+006    1.30568E+007    1.30568E+007    4.62606E+006    2.68861E+006    1.03682E+007   -6.79048E+006    9.08983E+006    4.63354E+006    1.29742E+007    2.76374E+006    3.10386E+005   -5.71306E+004    8.58008E+005
            7560    9.30522E+006    1.28053E+007    1.28053E+007    4.39122E+006    2.81123E+006    9.99406E+006   -6.66924E+006    8.99598E+006    4.39265E+006    1.27994E+007    2.81566E+006    1.10130E+005   -1.05480E+003    2.10256E+005
            7561    8.19102E+006    1.07098E+007    1.07098E+007    3.46472E+006    1.82183E+006    8.88794E+006   -5.33211E+006    7.80731E+006    3.47335E+006    1.06033E+007    1.91973E+006    3.03438E+005   -4.54963E+004    9.09930E+005
            7562    7.63595E+006    1.03545E+007    1.03545E+007    3.29360E+006    2.25075E+006    8.10378E+006   -5.29963E+006    7.47322E+006    3.29498E+006    1.03432E+007    2.26074E+006    1.05736E+005    1.90164E+004    2.81194E+005
            7563    7.07858E+006    8.66798E+006    8.66798E+006    2.42799E+006    9.75991E+005    7.69199E+006   -4.02398E+006    6.73117E+006    2.43747E+006    8.55690E+006    1.07758E+006    2.86358E+005   -3.53915E+004    8.63712E+005
            7564    6.09769E+006    8.09342E+006    8.09342E+006    2.29184E+006    1.73747E+006    6.35595E+006   -4.04091E+006    6.04060E+006    2.29036E+006    8.08347E+006    1.74890E+006    9.79301E+004    4.54648E+004    2.28604E+005
            7565    5.67740E+006    6.54661E+006    6.54661E+006    1.46640E+006    4.18124E+005    6.12848E+006   -2.81038E+006    5.45325E+006    1.47608E+006    6.44144E+006    5.13618E+005    2.51783E+005   -1.92768E+004    7.48656E+005
            7566    4.96943E+006    6.25975E+006    6.25975E+006    1.43864E+006    1.15420E+006    5.10555E+006   -2.95086E+006    4.95107E+006    1.42478E+006    6.23617E+006    1.19163E+006    8.63315E+004    7.05145E+004    3.32853E+005
            7567    4.08039E+006    4.68227E+006    4.68227E+006    6.78972E+005    5.28927E+005    4.15334E+006   -1.96339E+006    4.07417E+006    6.33199E+005    4.65793E+006    5.99033E+005    7.66970E+004    7.56909E+004    3.04172E+005
            7568    2.87074E+006    2.78601E+006    2.78601E+006    1.45566E+005   -2.69787E+005    3.05579E+006   -8.87262E+005    2.80194E+006   -2.65781E+005    2.77639E+006    1.51173E+005    7.08692E+004    3.45979E+004    1.44077E+005
            7569    4.54986E+006    4.94158E+006    4.94158E+006    7.28353E+005    1.16917E+005    4.82466E+006   -1.92895E+006    4.45603E+006    7.36993E+005    4.80907E+006    2.40786E+005    2.03919E+005    6.70261E+003    7.58890E+005
            7570    3.25146E+006    3.23690E+006    3.23690E+006    1.67662E+004   -4.50121E+004    3.28191E+006   -1.06955E+006    3.25014E+006   -3.34333E+004    3.19207E+006    5.00199E+004    1.85081E+005    1.10641E+004    3.30273E+005
            7571    3.68316E+006    3.81307E+006    3.81307E+006    3.20291E+005   -3.47591E+004    3.84783E+006   -1.36620E+006    3.64436E+006    3.34153E+005    3.75953E+006    4.91532E+003    2.49758E+005   -1.21534E+004    3.69100E+005
            7572    4.12571E+006    4.33047E+006    4.33047E+006    6.65124E+005   -1.37618E+005    4.46808E+006   -1.61932E+006    3.94422E+006    6.80436E+005    4.29665E+006   -1.19119E+005    2.62887E+005   -3.58282E+004    2.59856E+005
            7573    4.23042E+006    4.52971E+006    4.52971E+006    9.25165E+005   -1.27702E+005    4.65742E+006   -1.77573E+006    3.91904E+006    9.37814E+005    4.51525E+006   -1.25886E+005    2.27221E+005   -4.37960E+004   -1.78073E+004
            7574    3.84678E+006    4.26045E+006    4.26045E+006    1.02625E+006    6.56057E+003    4.25389E+006   -1.76442E+006    3.52297E+006    1.03461E+006    4.24275E+006    1.59063E+004    1.70712E+005   -3.69134E+004   -1.89837E+005
            7575    4.82445E+006    4.90626E+006    4.90626E+006    7.75468E+005   -3.96076E+005    5.30233E+006   -1.76188E+006    4.48735E+006    7.77830E+005    4.77915E+006   -2.71328E+005    2.58156E+005   -8.13038E+004    7.62952E+005
            7576    4.63765E+006    4.44190E+006    4.44190E+006    6.83623E+005   -7.40912E+005    5.18282E+006   -1.46154E+006    4.10028E+006    6.82549E+005    4.41810E+006   -7.16032E+005    2.37553E+005   -1.37126E+005    2.21539E+005
            7577    3.96778E+006    3.91451E+006    3.91451E+006    7.13692E+005   -5.24805E+005    4.43931E+006   -1.36780E+006    3.49146E+006    7.13665E+005    3.87246E+006   -4.82726E+005    1.94401E+005   -1.43656E+005   -3.55691E+005
            7578    3.41663E+006    3.53031E+006    3.53031E+006    7.65490E+005   -2.89355E+005    3.81966E+006   -1.33548E+006    3.01627E+006    7.65083E+005    3.41501E+006   -1.73650E+005    1.47669E+005   -1.31570E+005   -6.23196E+005
            7579    3.70504E+006    3.31027E+006    3.31027E+006    5.95160E+005   -9.10588E+005    4.22086E+006   -9.98280E+005    2.88520E+006    5.95145E+005    2.83385E+006   -4.34152E+005    1.19530E+005   -1.77863E+005   -1.31834E+006
            7580    4.66817E+006    3.93638E+006    3.93638E+006    5.91214E+005   -1.39669E+006    5.33307E+006   -1.04363E+006    3.50653E+006    5.92094E+005    3.67443E+006   -1.13563E+006    1.74119E+005   -2.01518E+005   -1.12068E+006
            7581    5.64722E+006    4.67754E+006    4.67754E+006    6.43771E+005   -1.77641E+006    6.45395E+006   -1.18164E+006    4.21882E+006    6.45165E+005    4.58711E+006   -1.68737E+006    2.22678E+005   -2.04758E+005   -6.93341E+005
            7582    6.55915E+006    5.89425E+006    5.89425E+006    1.02746E+006   -1.56490E+006    7.45915E+006   -1.78560E+006    5.20353E+006    1.03067E+006    5.87774E+006   -1.55161E+006    2.83097E+005   -1.83821E+005    2.48258E+004
            7583    1.11352E+007    1.53664E+007    1.53664E+007    5.50179E+006    3.29186E+006    1.20745E+007   -8.05334E+006    1.06249E+007    5.50316E+006    1.53626E+007    3.29430E+006    1.20373E+005   -1.29432E+004    1.68013E+005
            7584    1.08627E+007    1.54196E+007    1.54196E+007    5.83028E+006    3.62263E+006    1.17970E+007   -8.29084E+006    1.03398E+007    5.83750E+006    1.53620E+007    3.67297E+006    3.08735E+005   -5.42588E+004    7.49612E+005
            7585    1.12600E+007    1.55738E+007    1.55738E+007    6.03143E+006    3.15437E+006    1.24194E+007   -8.25320E+006    1.03836E+007    6.03944E+006    1.51476E+007    3.57254E+006    4.71191E+005   -1.07220E+005    2.20409E+006
            7586    1.27121E+007    1.75425E+007    1.75425E+007    6.43642E+006    3.67749E+006    1.38650E+007   -9.21880E+006    1.20105E+007    6.43789E+006    1.75401E+007    3.67840E+006    1.31040E+005   -1.35331E+004    1.07527E+005
            7587    1.19747E+007    1.74353E+007    1.74353E+007    6.86372E+006    4.43094E+006    1.30043E+007   -9.57665E+006    1.13987E+007    6.87113E+006    1.74060E+007    4.45278E+006    3.02239E+005   -4.02904E+004    5.18437E+005
            7588    1.08438E+007    1.71666E+007    1.71666E+007    7.40097E+006    5.49677E+006    1.16698E+007   -1.00214E+007    1.04577E+007    7.41235E+006    1.68505E+007    5.80143E+006    4.76486E+005   -6.50028E+004    1.82723E+006
            7589    1.36406E+007    1.88200E+007    1.88200E+007    6.98348E+006    3.90239E+006    1.49176E+007   -9.90195E+006    1.28221E+007    6.98510E+006    1.88182E+007    3.90251E+006    1.39183E+005   -5.61615E+003    4.14998E+004
            7590    1.26186E+007    1.85957E+007    1.85957E+007    7.46019E+006    4.88975E+006    1.37059E+007   -1.03152E+007    1.20082E+007    7.46793E+006    1.85854E+007    4.89226E+006    2.96165E+005   -1.45987E+004    1.80422E+005
            7591    1.02009E+007    1.79433E+007    1.79433E+007    8.28165E+006    7.27746E+006    1.06658E+007   -1.11675E+007    1.00888E+007    8.30179E+006    1.78696E+007    7.33098E+006    4.73998E+005   -2.13826E+004    7.32077E+005
            7592    3.74097E+006    4.12482E+006    4.12482E+006    9.99682E+005   -2.03912E+004    4.14521E+006   -1.70137E+006    3.40639E+006    1.00678E+006    4.10850E+006   -1.11718E+004   -1.56384E+005   -3.73491E+004    1.85329E+005
            7593    3.30926E+006    3.41857E+006    3.41857E+006    7.50041E+005   -2.84326E+005    3.70289E+006   -1.29476E+006    2.91078E+006    7.49381E+005    3.29118E+006   -1.56281E+005   -1.37229E+005   -1.28042E+005    6.48719E+005
            7594    3.65987E+006    3.25463E+006    3.25463E+006    5.81664E+005   -9.16651E+005    4.17128E+006   -9.73214E+005    2.83521E+006    5.81590E+005    2.76845E+006   -4.30403E+005   -1.15606E+005   -1.75724E+005    1.32191E+006
            7595    3.23455E+006    3.62034E+006    3.62034E+006    9.35463E+005    2.93597E+004    3.59098E+006   -1.52839E+006    2.92795E+006    9.38553E+005    3.60666E+006    3.99470E+004   -9.88943E+004   -2.97536E+004    1.88405E+005
            7596    2.69035E+006    2.94087E+006    2.94087E+006    7.36571E+005   -5.69965E+004    2.99787E+006   -1.20682E+006    2.40511E+006    7.31697E+005    2.82116E+006    6.75918E+004   -8.57691E+004   -1.06952E+005    5.73605E+005
            7597    2.66028E+006    2.59374E+006    2.59374E+006    5.63226E+005   -4.17717E+005    3.01146E+006   -9.13084E+005    2.19418E+006    5.60296E+005    2.04603E+006    1.32926E+005   -6.72625E+004   -1.41249E+005    1.15161E+006
            7598    2.82662E+006    3.19149E+006    3.19149E+006    8.49085E+005    5.18688E+004    3.13962E+006   -1.36415E+006    2.55473E+006    8.49286E+005    3.18743E+006    5.57207E+004   -4.49062E+004   -2.48867E+004    9.95577E+004
            7599    2.17685E+006    2.50733E+006    2.50733E+006    6.86303E+005    9.62961E+004    2.41103E+006   -1.09664E+006    1.98466E+006    6.75682E+005    2.46473E+006    1.49515E+005   -4.08105E+004   -8.98054E+004    3.11226E+005
            7600    1.55799E+006    1.83358E+006    1.83358E+006    5.20641E+005    1.11995E+005    1.72159E+006   -8.22073E+005    1.42977E+006    5.04869E+005    1.52759E+006    4.33761E+005   -3.07309E+004   -1.11675E+005    6.48936E+005
            7601    2.70365E+006    3.05112E+006    3.05112E+006    8.13705E+005    4.68859E+004    3.00424E+006   -1.30390E+006    2.44042E+006    8.12996E+005    3.05108E+006    4.76399E+004    5.65849E+003   -2.35574E+004   -9.60944E+003
            7602    1.99363E+006    2.36011E+006    2.36011E+006    6.73233E+005    1.60067E+005    2.20004E+006   -1.06447E+006    1.83600E+006    6.58977E+005    2.35924E+006    1.75196E+005    5.91974E+003   -8.45661E+004   -4.28145E+004
            7603    8.47268E+005    1.31268E+006    1.31268E+006    5.87362E+005    3.81428E+005    9.31252E+005   -7.60490E+005    7.87952E+005    4.61374E+005    1.31219E+006    5.07907E+005    2.71140E+003   -1.00449E+005   -1.92302E+004
            7604    2.88922E+006    3.26548E+006    3.26548E+006    8.67861E+005    5.76525E+004    3.20783E+006   -1.39700E+006    2.61474E+006    8.68596E+005    3.25904E+006    6.33610E+004    5.67976E+004   -2.53569E+004   -1.27145E+005
            7605    2.26992E+006    2.59012E+006    2.59012E+006    6.99007E+005    7.28517E+004    2.51727E+006   -1.12066E+006    2.06179E+006    6.89381E+005    2.53448E+006    1.38122E+005    4.87570E+004   -9.27379E+004   -3.62487E+005
            7606    1.65847E+006    1.91254E+006    1.91254E+006    5.29482E+005    7.38888E+004    1.83865E+006   -8.38635E+005    1.50775E+006    5.16086E+005    1.57529E+006    4.24533E+005    3.26930E+004   -1.13193E+005   -7.02758E+005
            7607    3.36226E+006    3.73778E+006    3.73778E+006    9.49034E+005    4.18551E+003    3.73360E+006   -1.56367E+006    3.04138E+006    9.52998E+005    3.72328E+006    1.47218E+004    1.12304E+005   -3.12406E+004   -1.91404E+005
            7608    2.84675E+006    3.08007E+006    3.08007E+006    7.56130E+005   -9.52128E+004    3.17529E+006   -1.24700E+006    2.53571E+006    7.53079E+005    2.94882E+006    3.90918E+004    9.91128E+004   -1.09742E+005   -6.16328E+005
            7609    2.72265E+006    2.66054E+006    2.66054E+006    5.80051E+005   -4.20909E+005    3.08145E+006   -9.39895E+005    2.24894E+006    5.77887E+005    2.11746E+006    1.24333E+005    7.42520E+004   -1.43837E+005   -1.16332E+006
            7610    1.12631E+007    1.55803E+007    1.55803E+007    6.03492E+006    3.15770E+006    1.24226E+007   -8.25764E+006    1.03869E+007    6.04292E+006    1.51532E+007    3.57679E+006    4.71463E+005    1.07283E+005   -2.20674E+006
            7611    1.08712E+007    1.54352E+007    1.54352E+007    5.83741E+006    3.62946E+006    1.18057E+007   -8.30067E+006    1.03485E+007    5.84463E+006    1.53797E+007    3.67772E+006    3.07941E+005    5.38493E+004   -7.33904E+005
            7612    1.11604E+007    1.54016E+007    1.54016E+007    5.51691E+006    3.29867E+006    1.21029E+007   -8.07239E+006    1.06473E+007    5.51828E+006    1.53978E+007    3.30104E+006    1.20445E+005    1.29708E+004   -1.65738E+005
            7613    1.08309E+007    1.71734E+007    1.71734E+007    7.41233E+006    5.52173E+006    1.16517E+007   -1.00358E+007    1.04499E+007    7.42370E+006    1.68582E+007    5.82553E+006    4.76593E+005    6.47742E+004   -1.82306E+006
            7614    1.19891E+007    1.74342E+007    1.74342E+007    6.85573E+006    4.41120E+006    1.30230E+007   -9.56705E+006    1.14080E+007    6.86312E+006    1.74052E+007    4.43280E+006    3.01652E+005    4.03356E+004   -5.15850E+005
            7615    1.27219E+007    1.75563E+007    1.75563E+007    6.44220E+006    3.68038E+006    1.38759E+007   -9.22630E+006    1.20193E+007    6.44366E+006    1.75539E+007    3.68131E+006    1.30929E+005    1.35532E+004   -1.08479E+005
            7616    1.01904E+007    1.79444E+007    1.79444E+007    8.28760E+006    7.29326E+006    1.06511E+007   -1.11751E+007    1.00804E+007    8.30786E+006    1.78734E+007    7.34396E+006    4.74030E+005    2.10867E+004   -7.11746E+005
            7617    1.26258E+007    1.85903E+007    1.85903E+007    7.45274E+006    4.87442E+006    1.37159E+007   -1.03058E+007    1.20118E+007    7.46046E+006    1.85798E+007    4.87725E+006    2.95974E+005    1.49724E+004   -1.91767E+005
            7618    1.36381E+007    1.88184E+007    1.88184E+007    6.98340E+006    3.90382E+006    1.49146E+007   -9.90188E+006    1.28203E+007    6.98502E+006    1.88167E+007    3.90395E+006    1.39183E+005    5.85040E+003   -4.12133E+004
            7619    4.46137E+006    5.35076E+006    5.35076E+006    9.92214E+005    7.93219E+005    4.55754E+006   -2.37873E+006    4.45137E+006    9.48566E+005    5.33824E+006    8.49384E+005   -6.47234E+004    8.64454E+004   -2.26852E+005
            7620    5.22506E+006    6.68688E+006    6.68688E+006    1.61950E+006    1.31726E+006    5.36962E+006   -3.20788E+006    5.20534E+006    1.60287E+006    6.67798E+006    1.34279E+006   -7.69938E+004    7.42759E+004   -2.02202E+005
            7621    6.24775E+006    8.33166E+006    8.33166E+006    2.37363E+006    1.82975E+006    6.50191E+006   -4.17835E+006    6.19416E+006    2.37078E+006    8.32526E+006    1.83899E+006   -9.02006E+004    5.04164E+004   -1.79990E+005
            7622    7.63940E+006    1.03952E+007    1.03952E+007    3.29097E+006    2.31447E+006    8.08070E+006   -5.33353E+006    7.49706E+006    3.29210E+006    1.03912E+007    2.31732E+006   -1.05503E+005    2.27614E+004   -1.39243E+005
            7623    9.34441E+006    1.28032E+007    1.28032E+007    4.34027E+006    2.77499E+006    1.00282E+007   -6.63948E+006    9.04237E+006    4.34198E+006    1.27997E+007    2.77674E+006   -1.20417E+005   -1.52372E+003   -1.32326E+005
            7624    4.72752E+006    5.50044E+006    5.50044E+006    1.00501E+006    5.70782E+005    4.92966E+006   -2.35875E+006    4.68234E+006    1.01009E+006    5.41056E+006    6.55594E+005   -1.63962E+005    4.49706E+004   -6.35883E+005
            7625    5.49895E+006    6.81417E+006    6.81417E+006    1.64726E+006    1.03451E+006    5.77966E+006   -3.16531E+006    5.42134E+006    1.65304E+006    6.74111E+006    1.10179E+006   -1.75298E+005    3.38665E+004   -6.17971E+005
            7626    6.46980E+006    8.40429E+006    8.40429E+006    2.40612E+006    1.54842E+006    6.85587E+006   -4.11961E+006    6.34000E+006    2.41167E+006    8.35775E+006    1.58941E+006   -1.81793E+005    1.50280E+004   -5.28327E+005
            7627    7.80074E+006    1.04515E+007    1.04515E+007    3.34945E+006    2.10236E+006    8.34916E+006   -5.30111E+006    7.57158E+006    3.35375E+006    1.04176E+007    2.13194E+006   -1.78199E+005   -3.26465E+003   -4.94672E+005
            7628    9.34261E+006    1.27981E+007    1.27981E+007    4.42555E+006    2.72039E+006    1.00777E+007   -6.64802E+006    8.98245E+006    4.42830E+006    1.27756E+007    2.74020E+006   -1.61618E+005   -1.66105E+004   -4.42567E+005
            7629    5.17826E+006    5.67679E+006    5.67679E+006    1.05846E+006    7.86143E+004    5.59818E+006   -2.27129E+006    4.96322E+006    1.06768E+006    5.52886E+006    2.17318E+005   -2.49222E+005   -2.06810E+004   -8.57883E+005
            7630    6.03284E+006    6.94296E+006    6.94296E+006    1.61929E+006    3.90225E+005    6.55273E+006   -2.98416E+006    5.74093E+006    1.62971E+006    6.82812E+006    4.94632E+005   -2.80624E+005   -3.32016E+004   -8.04801E+005
            7631    7.15551E+006    8.68486E+006    8.68486E+006    2.40673E+006    8.93899E+005    7.79096E+006   -3.99516E+006    6.78154E+006    2.41787E+006    8.57637E+006    9.91252E+005   -3.13109E+005   -4.23377E+004   -8.47271E+005
            7632    8.27506E+006    1.06537E+007    1.06537E+007    3.36428E+006    1.65877E+006    8.99493E+006   -5.22558E+006    7.86490E+006    3.37539E+006    1.05564E+007    1.74490E+006   -3.37747E+005   -5.02481E+004   -8.54809E+005
            7633    9.62195E+006    1.29970E+007    1.29970E+007    4.50705E+006    2.54536E+006    1.04516E+007   -6.68313E+006    9.15567E+006    4.51813E+006    1.29112E+007    2.62001E+006   -3.58246E+005   -5.43198E+004   -8.58227E+005
            7634    5.70669E+006    5.63249E+006    5.63249E+006    1.02947E+006   -7.52589E+005    6.38508E+006   -1.96979E+006    5.02095E+006    1.03262E+006    5.57074E+006   -6.93990E+005   -2.83534E+005   -1.27751E+005   -5.36942E+005
            7635    7.12523E+006    7.27344E+006    7.27344E+006    1.62573E+006   -7.31767E+005    8.00521E+006   -2.72247E+006    6.15126E+006    1.63112E+006    7.18197E+006   -6.45690E+005   -3.32411E+005   -1.39953E+005   -7.62585E+005
            7636    8.18842E+006    8.99149E+006    8.99149E+006    2.42653E+006   -1.83895E+005    9.17538E+006   -3.74471E+006    7.15834E+006    2.43313E+006    8.84577E+006   -4.47741E+004   -3.72590E+005   -1.37531E+005   -1.06852E+006
            7637    9.22234E+006    1.10207E+007    1.10207E+007    3.47438E+006    7.40456E+005    1.02802E+007   -5.07850E+006    8.23384E+006    3.48112E+006    1.08313E+007    9.23026E+005   -4.03751E+005   -1.35367E+005   -1.30835E+006
            7638    1.01076E+007    1.32140E+007    1.32140E+007    4.72061E+006    2.03474E+006    1.11792E+007   -6.65644E+006    9.25227E+006    4.72770E+006    1.29882E+007    2.25339E+006   -4.21100E+005   -1.21746E+005   -1.50431E+006
            7639    1.15851E+007    1.35548E+007    1.35548E+007    4.47280E+006    5.07750E+005    1.30470E+007   -6.17844E+006    9.87566E+006    4.47841E+006    1.31641E+007    8.92780E+005   -4.51424E+005   -1.58517E+005   -2.16683E+006
            7640    1.08047E+007    1.12659E+007    1.12659E+007    3.16042E+006   -1.00067E+006    1.22666E+007   -4.47522E+006    8.70670E+006    3.16570E+006    1.10682E+007   -8.08219E+005   -4.18658E+005   -1.89930E+005   -1.46769E+006
            7641    9.63050E+006    9.21532E+006    9.21532E+006    2.19086E+006   -1.76279E+006    1.09781E+007   -3.21446E+006    7.44542E+006    2.19587E+006    9.14420E+006   -1.69669E+006   -3.76707E+005   -2.06271E+005   -7.56108E+005
            7642    8.36588E+006    7.54999E+006    7.54999E+006    1.53782E+006   -2.00424E+006    9.55423E+006   -2.36119E+006    6.31453E+006    1.54156E+006    7.52496E+006   -1.98295E+006   -3.30830E+005   -2.11875E+005   -2.66485E+005
            7643    6.94303E+006    6.07197E+006    6.07197E+006    1.07890E+006   -1.85665E+006    7.92862E+006   -1.76474E+006    5.24658E+006    1.08102E+006    6.04879E+006   -1.83560E+006   -2.82226E+005   -2.14519E+005    2.26611E+005
            7644    5.78333E+006    4.81354E+006    4.81354E+006    7.00818E+005   -1.79924E+006    6.61278E+006   -1.23837E+006    4.28741E+006    7.02093E+005    4.71953E+006   -1.70651E+006   -2.27864E+005   -2.12411E+005    7.16052E+005
            7645    4.66008E+006    3.90018E+006    3.90018E+006    5.79281E+005   -1.42702E+006    5.32720E+006   -1.01748E+006    3.46735E+006    5.80175E+005    3.59699E+006   -1.12473E+006   -1.65753E+005   -2.00197E+005    1.20588E+006
            7646    3.93889E+006    3.87339E+006    3.87339E+006    7.23736E+005   -5.43015E+005    4.41641E+006   -1.35137E+006    3.43363E+006    7.23090E+005    3.82387E+006   -4.92844E+005   -1.85084E+005   -1.45809E+005    4.01920E+005
            7647    4.08454E+006    4.40757E+006    4.40757E+006    9.37532E+005   -9.37875E+004    4.50136E+006   -1.75044E+006    3.77457E+006    9.48973E+005    4.39423E+006   -9.18947E+004   -2.12172E+005   -4.25198E+004    3.52398E+004
            7648    4.44601E+006    4.33456E+006    4.33456E+006    7.27184E+005   -6.32541E+005    4.96710E+006   -1.47640E+006    3.93578E+006    7.26202E+005    4.31694E+006   -6.13937E+005   -2.32424E+005   -1.38868E+005   -1.23414E+005
            7649    4.07872E+006    4.32642E+006    4.32642E+006    7.39001E+005   -1.09984E+005    4.43640E+006   -1.65181E+006    3.87237E+006    7.53411E+005    4.30238E+006   -1.00353E+005   -2.49410E+005   -3.86475E+004   -1.74014E+005
            7650    3.83902E+006    3.99287E+006    3.99287E+006    4.52386E+005   -8.75264E+004    4.08040E+006   -1.45258E+006    3.75218E+006    4.66831E+005    3.95066E+006   -5.97625E+004   -2.56150E+005   -2.54571E+004   -3.11110E+005
            7651    3.42453E+006    3.47215E+006    3.47215E+006    1.14286E+005   -1.53581E+004    3.48751E+006   -1.19036E+006    3.41900E+006    1.24962E+005    3.42276E+006    2.33580E+004   -2.29608E+005   -2.09529E+003   -3.40764E+005
            7652    3.00945E+006    2.92911E+006    2.92911E+006    5.40733E+004   -1.98798E+005    3.12791E+006   -9.28129E+005    2.98541E+006   -1.90266E+005    2.89892E+006    7.57348E+004   -1.59657E+005    2.16500E+004   -2.49559E+005
            7653    2.75848E+006    2.58365E+006    2.58365E+006    9.23467E+004   -3.80808E+005    2.96446E+006   -7.65062E+005    2.66488E+006   -3.77747E+005    2.57919E+006    9.37383E+004   -5.70052E+004    3.21861E+004   -9.07846E+004
            7654    4.59979E+006    4.61568E+006    4.61568E+006    6.92038E+005   -4.46443E+005    5.06212E+006   -1.62043E+006    4.26517E+006    6.94961E+005    4.53673E+006   -3.70416E+005   -2.47736E+005   -8.57106E+004   -5.67091E+005
            7655    4.38274E+006    4.60531E+006    4.60531E+006    5.86357E+005   -6.76903E+004    4.67300E+006   -1.70799E+006    4.27087E+006    5.95523E+005    4.46690E+006    6.15519E+004   -2.25441E+005   -7.47030E+003   -7.56264E+005
            7656    4.00793E+006    4.33451E+006    4.33451E+006    4.36882E+005    2.24697E+005    4.10981E+006   -1.66536E+006    3.99527E+006    4.40505E+005    4.24772E+006    3.07862E+005   -1.52663E+005    4.58659E+004   -5.68572E+005
            7657    3.74092E+006    4.09245E+006    4.09245E+006    4.33971E+005    2.74203E+005    3.81824E+006   -1.60021E+006    3.73323E+006    3.24323E+005    4.08027E+006    3.96024E+005   -5.50741E+004    7.69105E+004   -2.03825E+005
            7658    4.96458E+006    6.25330E+006    6.25330E+006    1.43596E+006    1.15354E+006    5.09976E+006   -2.94760E+006    4.94646E+006    1.42200E+006    6.22952E+006    1.19127E+006    8.62220E+004   -7.04665E+004   -3.34286E+005
            7659    6.10255E+006    8.10473E+006    8.10473E+006    2.29817E+006    1.74399E+006    6.36074E+006   -4.04896E+006    6.04555E+006    2.29672E+006    8.09491E+006    1.75525E+006    9.77080E+004   -4.51324E+004   -2.27006E+005
            7660    7.67775E+006    1.04163E+007    1.04163E+007    3.32128E+006    2.26523E+006    8.15111E+006   -5.33428E+006    7.51174E+006    3.32266E+006    1.04052E+007    2.27499E+006    1.05542E+005   -1.85912E+004   -2.78849E+005
            7661    9.35672E+006    1.28785E+007    1.28785E+007    4.42312E+006    2.82599E+006    1.00525E+007   -6.70920E+006    9.04239E+006    4.42455E+006    1.28727E+007    2.83039E+006    1.10239E+005    1.19774E+003   -2.09944E+005
            7662    5.68002E+006    6.54933E+006    6.54933E+006    1.46680E+006    4.18003E+005    6.13133E+006   -2.81138E+006    5.45576E+006    1.47646E+006    6.44452E+006    5.13152E+005    2.51723E+005    1.93683E+004   -7.47464E+005
            7663    7.09452E+006    8.69045E+006    8.69045E+006    2.43697E+006    9.80837E+005    7.70961E+006   -4.03608E+006    6.74590E+006    2.44644E+006    8.57878E+006    1.08304E+006    2.86452E+005    3.53484E+004   -8.67359E+005
            7664    8.20100E+006    1.07422E+007    1.07422E+007    3.48400E+006    1.84565E+006    8.89650E+006   -5.35727E+006    7.81998E+006    3.49262E+006    1.06361E+007    1.94304E+006    3.03437E+005    4.54442E+004   -9.07978E+005
            7665    9.55926E+006    1.30899E+007    1.30899E+007    4.64565E+006    2.71148E+006    1.03784E+007   -6.81568E+006    9.10326E+006    4.65312E+006    1.30078E+007    2.78613E+006    3.10020E+005    5.67858E+004   -8.55759E+005
            7666    1.09811E+007    1.34503E+007    1.34503E+007    4.59276E+006    1.16390E+006    1.22864E+007   -6.40234E+006    9.66183E+006    4.59927E+006    1.30973E+007    1.51045E+006    4.50266E+005    1.42502E+005   -1.99252E+006
            7667    1.01270E+007    1.12385E+007    1.12385E+007    3.34327E+006   -1.79484E+005    1.14179E+007   -4.80075E+006    8.57642E+006    3.34943E+006    1.10189E+007    3.38853E+004    4.15479E+005    1.61454E+005   -1.49644E+006
            7668    8.97044E+006    9.24763E+006    9.24763E+006    2.38710E+006   -9.03402E+005    1.01510E+007   -3.57711E+006    7.41785E+006    2.39252E+006    9.10874E+006   -7.69932E+005    3.72550E+005    1.64533E+005   -1.09891E+006
            7669    7.73085E+006    7.55603E+006    7.55603E+006    1.67167E+006   -1.19964E+006    8.75568E+006   -2.67602E+006    6.35324E+006    1.67644E+006    7.49710E+006   -1.14548E+006    3.31688E+005    1.67362E+005   -6.00885E+005
            7670    6.56916E+006    5.90109E+006    5.90109E+006    1.02877E+006   -1.56988E+006    7.47097E+006   -1.78666E+006    5.20852E+006    1.03200E+006    5.88458E+006   -1.55661E+006    2.83286E+005    1.83945E+005   -2.45295E+004
            7671    5.64215E+006    4.67583E+006    4.67583E+006    6.45393E+005   -1.77229E+006    6.44812E+006   -1.18298E+006    4.21554E+006    6.46780E+005    4.58477E+006   -1.68261E+006    2.22450E+005    2.04784E+005    6.95862E+005
            7672    4.65720E+006    3.93157E+006    3.93157E+006    5.92571E+005   -1.38865E+006    5.32023E+006   -1.04516E+006    3.50130E+006    5.93449E+005    3.66964E+006   -1.12760E+006    1.73887E+005    2.01218E+005    1.11924E+006
            7673    3.70884E+006    3.31541E+006    3.31541E+006    5.96944E+005   -9.09646E+005    4.22506E+006   -1.00090E+006    2.88910E+006    5.96955E+005    2.84090E+006   -4.35148E+005    1.19877E+005    1.77755E+005    1.31670E+006
            7674    3.42031E+006    3.53114E+006    3.53114E+006    7.64463E+005   -2.93027E+005    3.82417E+006   -1.33419E+006    3.01826E+006    7.64028E+005    3.41557E+006   -1.77019E+005    1.47715E+005    1.31907E+005    6.24343E+005
            7675    3.84967E+006    4.26334E+006    4.26334E+006    1.02620E+006    6.46578E+003    4.25687E+006   -1.76533E+006    3.52610E+006    1.03459E+006    4.24554E+006    1.58798E+004    1.71343E+005    3.74659E+004    1.90334E+005
            7676    3.97611E+006    3.92102E+006    3.92102E+006    7.15182E+005   -5.28192E+005    4.44921E+006   -1.36934E+006    3.49685E+006    7.15216E+005    3.87865E+006   -4.85853E+005    1.94831E+005    1.43916E+005    3.57803E+005
            7677    4.23116E+006    4.52738E+006    4.52738E+006    9.24088E+005   -1.31693E+005    4.65908E+006   -1.77326E+006    3.91801E+006    9.36677E+005    4.51294E+006   -1.29836E+005    2.26969E+005    4.43148E+004    1.85783E+004
            7678    4.64913E+006    4.44698E+006    4.44698E+006    6.83011E+005   -7.49944E+005    5.19693E+006   -1.46002E+006    4.10636E+006    6.81949E+005    4.42341E+006   -7.25307E+005    2.37841E+005    1.37746E+005   -2.18895E+005
            7679    4.12979E+006    4.33663E+006    4.33663E+006    6.70630E+005   -1.37481E+005    4.47411E+006   -1.62326E+006    3.94597E+006    6.85894E+005    4.30317E+006   -1.19286E+005    2.62512E+005    3.61299E+004   -2.57490E+005
            7680    4.82815E+006    4.91234E+006    4.91234E+006    7.78484E+005   -3.94105E+005    5.30644E+006   -1.76557E+006    4.49070E+006    7.80821E+005    4.78465E+006   -2.68756E+005    2.58377E+005    8.14120E+004   -7.65127E+005
            7681    3.68950E+006    3.82150E+006    3.82150E+006    3.25616E+005   -3.51328E+004    3.85663E+006   -1.37066E+006    3.64951E+006    3.39530E+005    3.76805E+006    4.39797E+003    2.50204E+005    1.24435E+004   -3.68831E+005
            7682    3.25501E+006    3.24114E+006    3.24114E+006    1.60522E+004   -4.29959E+004    3.28414E+006   -1.07140E+006    3.25381E+006   -3.12027E+004    3.19603E+006    4.93724E+004    1.85951E+005   -1.09440E+004   -3.31439E+005
            7683    2.86990E+006    2.78347E+006    2.78347E+006    1.44003E+005   -2.71557E+005    3.05503E+006   -8.85306E+005    2.80101E+006   -2.67561E+005    2.77365E+006    1.49830E+005    7.15968E+004   -3.43829E+004   -1.45625E+005
            7684    4.55132E+006    4.94296E+006    4.94296E+006    7.28545E+005    1.16658E+005    4.82631E+006   -1.92939E+006    4.45737E+006    7.37197E+005    4.81014E+006    2.40832E+005    2.04103E+005   -6.72552E+003   -7.59930E+005
            7685    4.07462E+006    4.67203E+006    4.67203E+006    6.74010E+005    5.24891E+005    4.14714E+006   -1.95698E+006    4.06848E+006    6.27816E+005    4.64766E+006    5.95459E+005    7.67408E+004   -7.55527E+004   -3.04160E+005
            7686    1.15953E+007    1.56906E+007    1.56906E+007    6.01853E+006    2.83658E+006    1.28540E+007   -8.18190E+006    1.05439E+007    6.02466E+006    1.51421E+007    3.37891E+006   -4.66573E+005   -1.13424E+005   -2.54997E+006
            7687    1.07914E+007    1.54018E+007    1.54018E+007    6.06270E+006    3.58815E+006    1.18137E+007   -8.35090E+006    1.01230E+007    6.07118E+006    1.51938E+007    3.78770E+006   -4.25003E+005   -9.95287E+004   -1.48475E+006
            7688    1.09224E+007    1.53813E+007    1.53813E+007    5.71394E+006    3.53295E+006    1.18484E+007   -8.20939E+006    1.04155E+007    5.72581E+006    1.53153E+007    3.58705E+006   -3.79014E+005   -5.15363E+004   -7.78352E+005
            7689    1.10159E+007    1.52859E+007    1.52859E+007    5.54873E+006    3.32933E+006    1.19566E+007   -8.05466E+006    1.04950E+007    5.55047E+006    1.52718E+007    3.34172E+006   -1.43060E+005   -2.29115E+004   -3.79406E+005
            7690    1.11741E+007    1.53454E+007    1.53454E+007    5.44507E+006    3.22946E+006    1.21159E+007   -8.00664E+006    1.06630E+007    5.44673E+006    1.53427E+007    3.23045E+006   -1.32387E+005   -1.43646E+004   -1.03196E+005
            7691    1.07743E+007    1.72389E+007    1.72389E+007    7.52884E+006    5.64811E+006    1.15908E+007   -1.01386E+007    1.03953E+007    7.53687E+006    1.68048E+007    6.07418E+006   -4.64555E+005   -6.48934E+004   -2.14742E+006
            7692    1.11215E+007    1.71772E+007    1.71772E+007    7.26399E+006    5.15062E+006    1.20266E+007   -9.86394E+006    1.06556E+007    7.27560E+006    1.70517E+007    5.26446E+006   -4.16625E+005   -6.58712E+004   -1.13663E+006
            7693    1.20020E+007    1.74585E+007    1.74585E+007    6.79901E+006    4.45866E+006    1.29998E+007   -9.57205E+006    1.14717E+007    6.81263E+006    1.74176E+007    4.48591E+006   -4.01044E+005   -3.79137E+004   -5.79585E+005
            7694    1.24658E+007    1.74495E+007    1.74495E+007    6.52662E+006    3.86929E+006    1.35802E+007   -9.28179E+006    1.18030E+007    6.52799E+006    1.74428E+007    3.87456E+006   -1.30271E+005   -1.87912E+004   -2.63056E+005
            7695    1.27614E+007    1.75251E+007    1.75251E+007    6.38914E+006    3.59974E+006    1.39254E+007   -9.17133E+006    1.20465E+007    6.39078E+006    1.75229E+007    3.60026E+006   -1.39515E+005   -1.63896E+004   -7.63321E+004
            7696    9.70354E+006    1.78707E+007    1.78707E+007    8.50428E+006    7.86187E+006    1.00088E+007   -1.14123E+007    9.65552E+006    8.52099E+006    1.77750E+007    7.94079E+006   -4.58747E+005   -1.97924E+004   -8.53095E+005
            7697    1.12312E+007    1.81814E+007    1.81814E+007    7.97472E+006    6.14926E+006    1.20321E+007   -1.07684E+007    1.08899E+007    7.99029E+006    1.81498E+007    6.16522E+006   -4.08476E+005   -2.16588E+004   -4.27777E+005
            7698    1.26225E+007    1.86554E+007    1.86554E+007    7.42281E+006    4.99552E+006    1.36599E+007   -1.03579E+007    1.20806E+007    7.43742E+006    1.86373E+007    4.99901E+006   -4.07651E+005   -1.47768E+004   -2.12376E+005
            7699    1.33139E+007    1.87200E+007    1.87200E+007    7.10110E+006    4.19218E+006    1.45278E+007   -1.00044E+007    1.25687E+007    7.10227E+006    1.87180E+007    4.19298E+006   -1.17937E+005   -7.28866E+003   -1.06227E+005
            7700    1.37090E+007    1.88270E+007    1.88270E+007    6.95378E+006    3.82356E+006    1.50034E+007   -9.86811E+006    1.28676E+007    6.95547E+006    1.88252E+007    3.82363E+006   -1.42493E+005   -7.12765E+003   -2.70467E+004
            7701    3.66608E+006    3.25602E+006    3.25602E+006    5.79946E+005   -9.22643E+005    4.17866E+006   -9.71107E+005    2.83766E+006    5.79879E+005    2.76806E+006   -4.34618E+005   -1.15720E+005    1.76135E+005   -1.32535E+006
            7702    3.30163E+006    3.41508E+006    3.41508E+006    7.51500E+005   -2.78859E+005    3.69394E+006   -1.29591E+006    2.90545E+006    7.50797E+005    3.28843E+006   -1.51506E+005   -1.36562E+005    1.27507E+005   -6.46163E+005
            7703    3.72877E+006    4.11378E+006    4.11378E+006    9.99015E+005   -1.79843E+004    4.13176E+006   -1.69827E+006    3.39510E+006    1.00602E+006    4.09742E+006   -8.63358E+003   -1.55048E+005    3.70576E+004   -1.86650E+005
            7704    2.65466E+006    2.59096E+006    2.59096E+006    5.63866E+005   -4.13922E+005    3.00488E+006   -9.13634E+005    2.19076E+006    5.60918E+005    2.04269E+006    1.37296E+005   -6.70458E+004    1.41120E+005   -1.15054E+006
            7705    2.68743E+006    2.93803E+006    2.93803E+006    7.36315E+005   -5.66518E+004    2.99469E+006   -1.20590E+006    2.40229E+006    7.31391E+005    2.81924E+006    6.70719E+004   -8.54185E+004    1.06849E+005   -5.71171E+005
            7706    3.22390E+006    3.60884E+006    3.60884E+006    9.33004E+005    2.96102E+004    3.57923E+006   -1.52382E+006    2.91811E+006    9.36017E+005    3.59541E+006    4.00198E+004   -9.77100E+004    2.96321E+004   -1.86402E+005
            7707    1.54659E+006    1.82390E+006    1.82390E+006    5.18986E+005    1.15591E+005    1.70831E+006   -8.19492E+005    1.42081E+006    5.02935E+005    1.51966E+006    4.35881E+005   -3.04002E+004    1.11513E+005   -6.44320E+005
            7708    2.17513E+006    2.50492E+006    2.50492E+006    6.85651E+005    9.56616E+004    2.40926E+006   -1.09541E+006    1.98278E+006    6.74923E+005    2.46256E+006    1.48751E+005   -4.04991E+004    9.00585E+004   -3.10281E+005
            7709    2.82286E+006    3.18718E+006    3.18718E+006    8.48071E+005    5.16746E+004    3.13550E+006   -1.36231E+006    2.55115E+006    8.48233E+005    3.18325E+006    5.54386E+004   -4.39193E+004    2.48433E+004   -9.80848E+004
            7710    8.47670E+005    1.31354E+006    1.31354E+006    5.87831E+005    3.81868E+005    9.31673E+005   -7.61080E+005    7.88369E+005    4.61904E+005    1.31240E+006    5.08934E+005    3.11091E+003    1.00565E+005    2.95377E+004
            7711    1.99393E+006    2.36105E+006    2.36105E+006    6.73781E+005    1.60721E+005    2.20033E+006   -1.06518E+006    1.83641E+006    6.59519E+005    2.36015E+006    1.75885E+005    6.17248E+003    8.45906E+004    4.34508E+004
            7712    2.70502E+006    3.05287E+006    3.05287E+006    8.14243E+005    4.71455E+004    3.00573E+006   -1.30475E+006    2.44174E+006    8.13538E+005    3.05281E+006    4.79074E+004    6.47715E+003    2.35845E+004    1.06181E+004
            7713    1.67794E+006    1.92425E+006    1.92425E+006    5.28784E+005    6.24740E+004    1.86178E+006   -8.38503E+005    1.52161E+006    5.15883E+005    1.57856E+006    4.21063E+005    3.31812E+004    1.13703E+005    7.15161E+005
            7714    2.26974E+006    2.58873E+006    2.58873E+006    6.97905E+005    7.15943E+004    2.51714E+006   -1.11941E+006    2.06148E+006    6.88243E+005    2.53296E+006    1.37028E+005    4.89567E+004    9.29770E+004    3.62840E+005
            7715    2.89845E+006    3.27471E+006    3.27471E+006    8.69687E+005    5.65261E+004    3.21818E+006   -1.40031E+006    2.62282E+006    8.70483E+005    3.26817E+006    6.22720E+004    5.79226E+004    2.52507E+004    1.27961E+005
            7716    2.73744E+006    2.67161E+006    2.67161E+006    5.81345E+005   -4.26972E+005    3.09858E+006   -9.41995E+005    2.25902E+006    5.79197E+005    2.13029E+006    1.16500E+005    7.48620E+004    1.44316E+005    1.16571E+006
            7717    2.84067E+006    3.07498E+006    3.07498E+006    7.55102E+005   -9.32069E+004    3.16819E+006   -1.24562E+006    2.53127E+006    7.52031E+005    2.94222E+006    4.26255E+004    9.89601E+004    1.09873E+005    6.19121E+005
            7718    3.37224E+006    3.74932E+006    3.74932E+006    9.51797E+005    4.83561E+003    3.74448E+006   -1.56865E+006    3.05091E+006    9.55840E+005    3.73482E+006    1.52914E+004    1.13457E+005    3.12926E+004    1.90900E+005
            7719    1.11655E+007    1.53312E+007    1.53312E+007    5.43808E+006    3.22478E+006    1.21064E+007   -7.99801E+006    1.06550E+007    5.43973E+006    1.53285E+007    3.22574E+006   -1.32212E+005    1.46239E+004    1.01272E+005
            7720    1.10185E+007    1.52873E+007    1.52873E+007    5.54850E+006    3.32734E+006    1.19599E+007   -8.05437E+006    1.04970E+007    5.55027E+006    1.52730E+007    3.33980E+006   -1.44263E+005    2.28724E+004    3.80494E+005
            7721    1.09290E+007    1.53939E+007    1.53939E+007    5.72221E+006    3.53752E+006    1.18563E+007   -8.21786E+006    1.04206E+007    5.73412E+006    1.53270E+007    3.59249E+006   -3.80387E+005    5.21522E+004    7.84686E+005
            7722    1.07933E+007    1.54137E+007    1.54137E+007    6.07263E+006    3.59785E+006    1.18158E+007   -8.36138E+006    1.01250E+007    6.08110E+006    1.52021E+007    3.80093E+006   -4.25627E+005    9.94025E+004    1.49818E+006
            7723    1.15944E+007    1.57021E+007    1.57021E+007    6.02753E+006    2.85031E+006    1.28518E+007   -8.19330E+006    1.05463E+007    6.03367E+006    1.51528E+007    3.39339E+006   -4.66510E+005    1.13013E+005    2.55153E+006
            7724    1.27619E+007    1.75237E+007    1.75237E+007    6.38761E+006    3.59763E+006    1.39260E+007   -9.16964E+006    1.20467E+007    6.38925E+006    1.75215E+007    3.59817E+006   -1.39272E+005    1.63466E+004    7.77789E+004
            7725    1.24669E+007    1.74480E+007    1.74480E+007    6.52436E+006    3.86640E+006    1.35816E+007   -9.27957E+006    1.18039E+007    6.52569E+006    1.74414E+007    3.87162E+006   -1.28696E+005    1.86674E+004    2.62060E+005
            7726    1.20010E+007    1.74537E+007    1.74537E+007    6.79652E+006    4.45409E+006    1.29996E+007   -9.56809E+006    1.14697E+007    6.81001E+006    1.74128E+007    4.48144E+006   -3.99236E+005    3.79838E+004    5.80649E+005
            7727    1.11127E+007    1.71852E+007    1.71852E+007    7.27498E+006    5.17089E+006    1.20143E+007   -9.87703E+006    1.06506E+007    7.28658E+006    1.70576E+007    5.28695E+006   -4.17330E+005    6.58364E+004    1.14708E+006
            7728    1.07731E+007    1.72419E+007    1.72419E+007    7.53183E+006    5.65297E+006    1.15889E+007   -1.01422E+007    1.03948E+007    7.53980E+006    1.68028E+007    6.08412E+006   -4.65113E+005    6.47932E+004    2.15963E+006
            7729    1.37043E+007    1.88230E+007    1.88230E+007    6.95283E+006    3.82531E+006    1.49977E+007   -9.86706E+006    1.28641E+007    6.95452E+006    1.88213E+007    3.82537E+006   -1.42504E+005    7.26672E+003    2.61679E+004
            7730    1.33185E+007    1.87200E+007    1.87200E+007    7.09867E+006    4.18635E+006    1.45336E+007   -1.00017E+007    1.25717E+007    7.09983E+006    1.87180E+007    4.18713E+006   -1.17443E+005    7.32743E+003    1.05252E+005
            7731    1.26220E+007    1.86574E+007    1.86574E+007    7.42467E+006    4.99841E+006    1.36590E+007   -1.03602E+007    1.20805E+007    7.43926E+006    1.86395E+007    5.00180E+006   -4.07315E+005    1.45711E+004    2.09179E+005
            7732    1.12167E+007    1.81702E+007    1.81702E+007    7.97359E+006    6.15556E+006    1.20147E+007   -1.07665E+007    1.08778E+007    7.98916E+006    1.81393E+007    6.17097E+006   -4.08158E+005    2.16388E+004    4.19674E+005
            7733    9.69948E+006    1.78530E+007    1.78530E+007    8.49322E+006    7.84625E+006    1.00068E+007   -1.13975E+007    9.65076E+006    8.50996E+006    1.77569E+007    7.92562E+006   -4.58733E+005    1.98122E+004    8.55667E+005
            7734    6.94192E+006    6.07239E+006    6.07239E+006    1.07984E+006   -1.85491E+006    7.92730E+006   -1.76577E+006    5.24624E+006    1.08196E+006    6.04949E+006   -1.83413E+006   -2.82441E+005    2.14425E+005   -2.21590E+005
            7735    8.37327E+006    7.55364E+006    7.55364E+006    1.53867E+006   -2.00951E+006    9.56315E+006   -2.36093E+006    6.31570E+006    1.54239E+006    7.52854E+006   -1.98812E+006   -3.30723E+005    2.12040E+005    2.68376E+005
            7736    9.64773E+006    9.23898E+006    9.23898E+006    2.20172E+006   -1.75872E+006    1.09977E+007   -3.22733E+006    7.45913E+006    2.20674E+006    9.16672E+006   -1.69148E+006   -3.77120E+005    2.06087E+005    7.64973E+005
            7737    1.08175E+007    1.12970E+007    1.12970E+007    3.17690E+006   -9.82961E+005    1.22799E+007   -4.49697E+006    8.72446E+006    3.18222E+006    1.10964E+007   -7.87716E+005   -4.19448E+005    1.89338E+005    1.47980E+006
            7738    1.15807E+007    1.35760E+007    1.35760E+007    4.48998E+006    5.36115E+005    1.30399E+007   -6.20069E+006    9.88140E+006    4.49561E+006    1.31821E+007    9.24341E+005   -4.51647E+005    1.57767E+005    2.17525E+006
            7739    1.01144E+007    1.32067E+007    1.32067E+007    4.71315E+006    2.01759E+006    1.11891E+007   -6.64582E+006    9.25317E+006    4.72021E+006    1.29810E+007    2.23627E+006   -4.21266E+005    1.22386E+005    1.50498E+006
            7740    9.61679E+006    1.29834E+007    1.29834E+007    4.50070E+006    2.53597E+006    1.04474E+007   -6.67335E+006    9.14874E+006    4.51186E+006    1.28967E+007    2.61154E+006   -3.60264E+005    5.51926E+004    8.62955E+005
            7741    9.34105E+006    1.27965E+007    1.27965E+007    4.42570E+006    2.72024E+006    1.00763E+007   -6.64749E+006    8.98071E+006    4.42852E+006    1.27736E+007    2.74031E+006   -1.63732E+005    1.70662E+004    4.45234E+005
            7742    9.34263E+006    1.28017E+007    1.28017E+007    4.34015E+006    2.77556E+006    1.00261E+007   -6.63914E+006    9.04081E+006    4.34186E+006    1.27982E+007    2.77735E+006   -1.20598E+005    1.24436E+003    1.33882E+005
            7743    9.21014E+006    1.09855E+007    1.09855E+007    3.45409E+006    7.17085E+005    1.02684E+007   -5.05222E+006    8.21766E+006    3.46085E+006    1.07970E+007    8.98848E+005   -4.03186E+005    1.35375E+005    1.30466E+006
            7744    8.27578E+006    1.06353E+007    1.06353E+007    3.35153E+006    1.63631E+006    8.99899E+006   -5.20771E+006    7.86079E+006    3.36267E+006    1.05366E+007    1.72389E+006   -3.38853E+005    5.08710E+004    8.62045E+005
            7745    7.80229E+006    1.04484E+007    1.04484E+007    3.34744E+006    2.09608E+006    8.35234E+006   -5.29732E+006    7.57158E+006    3.35177E+006    1.04139E+007    2.12630E+006   -1.79140E+005    3.65909E+003    4.99904E+005
            7746    7.63736E+006    1.03959E+007    1.03959E+007    3.29278E+006    2.31785E+006    8.07801E+006   -5.33550E+006    7.49544E+006    3.29394E+006    1.03918E+007    2.32072E+006   -1.06376E+005   -2.27052E+004    1.39719E+005
            7747    8.16301E+006    8.94130E+006    8.94130E+006    2.40285E+006   -2.07657E+005    9.14895E+006   -3.71216E+006    7.12893E+006    2.40938E+006    8.79740E+006   -7.02934E+004   -3.71967E+005    1.38428E+005    1.05929E+006
            7748    7.14256E+006    8.64855E+006    8.64855E+006    2.38752E+006    8.68766E+005    7.77978E+006   -3.96828E+006    6.76480E+006    2.39864E+006    8.53963E+006    9.66567E+005   -3.13797E+005    4.33865E+004    8.48167E+005
            7749    6.49026E+006    8.42599E+006    8.42599E+006    2.41466E+006    1.54458E+006    6.88141E+006   -4.12841E+006    6.35706E+006    2.42031E+006    8.37808E+006    1.58684E+006   -1.83598E+005   -1.45301E+004    5.37388E+005
            7750    6.27212E+006    8.36572E+006    8.36572E+006    2.38837E+006    1.83543E+006    6.53029E+006   -4.19651E+006    6.21693E+006    2.38575E+006    8.35886E+006    1.84491E+006   -9.15552E+004   -4.99170E+004    1.87812E+005
            7751    7.12038E+006    7.25764E+006    7.25764E+006    1.61863E+006   -7.43664E+005    8.00130E+006   -2.71087E+006    6.14113E+006    1.62401E+006    7.16657E+006   -6.57983E+005   -3.32182E+005    1.40294E+005    7.60316E+005
            7752    6.02960E+006    6.93467E+006    6.93467E+006    1.61546E+006    3.84619E+005    6.55005E+006   -2.97825E+006    5.73664E+006    1.62593E+006    6.82000E+006    4.88805E+005   -2.81119E+005    3.33371E+004    8.03707E+005
            7753    5.51289E+006    6.83008E+006    6.83008E+006    1.65362E+006    1.03325E+006    5.79683E+006   -3.17232E+006    5.43352E+006    1.65952E+006    6.75778E+006    1.09966E+006   -1.76561E+005   -3.27491E+004    6.15148E+005
            7754    5.24593E+006    6.72563E+006    6.72563E+006    1.63934E+006    1.33345E+006    5.39218E+006   -3.23281E+006    5.22581E+006    1.62304E+006    6.71730E+006    1.35808E+006   -7.72604E+004   -7.39981E+004    1.94900E+005
            7755    5.70553E+006    5.62724E+006    5.62724E+006    1.02615E+006   -7.56883E+005    6.38412E+006   -1.96550E+006    5.01879E+006    1.02928E+006    5.56595E+006   -6.98738E+005   -2.83443E+005    1.27990E+005    5.34174E+005
            7756    5.17043E+006    5.67712E+006    5.67712E+006    1.06095E+006    9.00656E+004    5.58705E+006   -2.27604E+006    4.95909E+006    1.07024E+006    5.52901E+006    2.28878E+005   -2.48743E+005    1.96455E+004    8.57634E+005
            7757    4.73964E+006    5.51629E+006    5.51629E+006    1.01099E+006    5.72743E+005    4.94355E+006   -2.36668E+006    4.69373E+006    1.01595E+006    5.42689E+006    6.57190E+005   -1.63134E+005   -4.53388E+004    6.35247E+005
            7758    4.47524E+006    5.37872E+006    5.37872E+006    1.00693E+006    8.06742E+005    4.57197E+006   -2.39746E+006    4.46515E+006    9.64047E+005    5.36532E+006    8.63026E+005   -6.53033E+004   -8.64210E+004    2.35628E+005
            7759    3.75906E+006    4.11995E+006    4.11995E+006    4.42196E+005    2.84554E+005    3.83540E+006   -1.61557E+006    3.75161E+006    3.37395E+005    4.10767E+006    4.01634E+005   -5.53139E+004   -7.72601E+004    2.05334E+005
            7760    2.76267E+006    2.59069E+006    2.59069E+006    9.32679E+004   -3.76890E+005    2.96758E+006   -7.69023E+005    2.67043E+006   -3.73778E+005    2.58622E+006    9.46308E+004   -5.73571E+004   -3.23946E+004    9.10186E+004
            7761    4.00597E+006    4.33608E+006    4.33608E+006    4.38833E+005    2.29596E+005    4.10649E+006   -1.66817E+006    3.99365E+006    4.42251E+005    4.24952E+006    3.12745E+005   -1.52083E+005   -4.62910E+004    5.67705E+005
            7762    3.01268E+006    2.93495E+006    2.93495E+006    5.56447E+004   -1.95404E+005    3.13035E+006   -9.31729E+005    2.98901E+006   -1.86796E+005    2.90446E+006    7.75247E+004   -1.60325E+005   -2.19164E+004    2.51036E+005
            7763    4.37504E+006    4.59893E+006    4.59893E+006    5.84072E+005   -6.40042E+004    4.66293E+006   -1.70633E+006    4.26504E+006    5.93195E+005    4.46007E+006    6.57261E+004   -2.24602E+005    7.05325E+003    7.56941E+005
            7764    3.42822E+006    3.47469E+006    3.47469E+006    1.14653E+005   -1.78723E+004    3.49256E+006   -1.19049E+006    3.42245E+006    1.25353E+005    3.42554E+006    2.05780E+004   -2.29695E+005    2.40579E+003    3.39816E+005
            7765    4.59674E+006    4.61337E+006    4.61337E+006    6.91405E+005   -4.44986E+005    5.05835E+006   -1.61993E+006    4.26317E+006    6.94292E+005    4.53392E+006   -3.68425E+005   -2.47720E+005    8.56623E+004    5.69033E+005
            7766    3.83598E+006    3.99297E+006    3.99297E+006    4.54190E+005   -8.34776E+004    4.07645E+006   -1.45456E+006    3.74980E+006    4.68649E+005    3.95084E+006   -5.58081E+004   -2.55977E+005    2.52360E+004    3.10523E+005
            7767    4.08124E+006    4.32817E+006    4.32817E+006    7.40733E+005   -1.12105E+005    4.44027E+006   -1.65227E+006    3.87307E+006    7.55093E+005    4.30427E+006   -1.02564E+005   -2.48968E+005    3.87372E+004    1.73094E+005
            7768    4.08081E+006    4.40517E+006    4.40517E+006    9.40168E+005   -9.28816E+004    4.49806E+006   -1.75082E+006    3.76940E+006    9.51513E+005    4.39187E+006   -9.09266E+004   -2.11007E+005    4.25024E+004   -4.02218E+004
            7769    4.44284E+006    4.33001E+006    4.33001E+006    7.25663E+005   -6.33703E+005    4.96371E+006   -1.47399E+006    3.93246E+006    7.24687E+005    4.31259E+006   -6.15309E+005   -2.32085E+005    1.38929E+005    1.19552E+005
            7770    3.92732E+006    3.86585E+006    3.86585E+006    7.24055E+005   -5.37134E+005    4.40298E+006   -1.35092E+006    3.42518E+006    7.23413E+005    3.81559E+006   -4.86236E+005   -1.84328E+005    1.45406E+005   -4.05474E+005
            7771    4.67303E+006    3.90738E+006    3.90738E+006    5.78838E+005   -1.43491E+006    5.34229E+006   -1.01710E+006    3.47412E+006    5.79745E+005    3.60398E+006   -1.13241E+006   -1.66129E+005    2.00594E+005   -1.20806E+006
            7772    5.80402E+006    4.82285E+006    4.82285E+006    6.98179E+005   -1.81409E+006    6.63694E+006   -1.23564E+006    4.29768E+006    6.99471E+005    4.72912E+006   -1.72165E+006   -2.28363E+005    2.12797E+005   -7.16062E+005
            7773    7.67461E+006    7.49255E+006    7.49255E+006    1.59186E+006   -1.18370E+006    8.67625E+006   -2.63357E+006    6.38939E+006    1.60216E+006    7.42322E+006   -1.12466E+006    4.56371E+005   -2.21695E+005    5.58017E+005
            7774    8.91530E+006    9.18646E+006    9.18646E+006    2.28768E+006   -8.80160E+005    1.00666E+007   -3.53133E+006    7.48203E+006    2.29869E+006    9.03790E+006   -7.42606E+005    5.22893E+005   -2.25160E+005    1.05641E+006
            7775    1.00710E+007    1.11650E+007    1.11650E+007    3.22893E+006   -1.64356E+005    1.13293E+007   -4.74318E+006    8.63674E+006    3.23891E+006    1.09338E+007    5.68066E+004    5.89860E+005   -2.36549E+005    1.45936E+006
            7776    1.09258E+007    1.33651E+007    1.33651E+007    4.47311E+006    1.16838E+006    1.21967E+007   -6.33551E+006    9.70200E+006    4.48256E+006    1.30028E+007    1.52116E+006    6.50336E+005   -2.20809E+005    1.94605E+006
            7777    9.59444E+006    1.29719E+007    1.29719E+007    4.32999E+006    2.64746E+006    1.03244E+007   -6.64977E+006    9.25375E+006    4.34980E+006    1.28841E+007    2.71538E+006    4.57832E+005   -4.58148E+004    8.08934E+005
            7778    9.40429E+006    1.27513E+007    1.27513E+007    4.07902E+006    2.75533E+006    9.99601E+006   -6.52856E+006    9.19120E+006    4.08161E+006    1.27438E+007    2.76029E+006    1.51234E+005    1.20515E+004    2.21320E+005
            7779    8.22176E+006    1.06378E+007    1.06378E+007    3.21885E+006    1.79838E+006    8.83944E+006   -5.21835E+006    7.93862E+006    3.23884E+006    1.05279E+007    1.88837E+006    4.30858E+005   -3.71686E+004    8.63926E+005
            7780    7.74225E+006    1.03205E+007    1.03205E+007    3.01577E+006    2.20456E+006    8.11591E+006   -5.18027E+006    7.64576E+006    3.01716E+006    1.03073E+007    2.21633E+006    1.56474E+005    4.59555E+004    2.80898E+005
            7781    7.09463E+006    8.61525E+006    8.61525E+006    2.23697E+006    9.73927E+005    7.64132E+006   -3.94205E+006    6.83478E+006    2.25803E+006    8.50225E+006    1.06587E+006    3.97642E+005   -2.12150E+004    8.16992E+005
            7782    6.20148E+006    8.07262E+006    8.07262E+006    2.07125E+006    1.68875E+006    6.38387E+006   -3.94420E+006    6.17485E+006    2.05822E+006    8.06125E+006    1.71314E+006    1.48035E+005    8.35852E+004    2.19616E+005
            7783    5.69100E+006    6.50783E+006    6.50783E+006    1.32553E+006    4.17353E+005    6.09048E+006   -2.75024E+006    5.52443E+006    1.34477E+006    6.40396E+006    5.01986E+005    3.38913E+005   -9.00038E+003    7.00750E+005
            7784    5.05145E+006    6.24649E+006    6.24649E+006    1.32074E+006    1.07810E+006    5.16840E+006   -2.88178E+006    5.03831E+006    1.25215E+006    6.22334E+006    1.16984E+006    1.27341E+005    1.19093E+005    3.14739E+005
            7785    4.13973E+006    4.67928E+006    4.67928E+006    6.60960E+005    4.27981E+005    4.25130E+006   -1.92274E+006    4.12494E+006    5.26120E+005    4.65621E+006    5.85890E+005    1.03535E+005    1.22086E+005    2.86426E+005
            7786    2.93045E+006    2.81554E+006    2.81554E+006    1.47389E+005   -3.20824E+005    3.13637E+006   -8.80702E+005    2.84447E+006   -3.12651E+005    2.80603E+006    1.48730E+005    8.72547E+004    5.53693E+004    1.35839E+005
            7787    4.55752E+006    4.92015E+006    4.92015E+006    6.33553E+005    1.33032E+005    4.78712E+006   -1.89558E+006    4.49506E+006    6.49730E+005    4.79390E+006    2.43102E+005    2.66417E+005    2.44585E+004    7.14514E+005
            7788    3.29455E+006    3.24917E+006    3.24917E+006    1.38719E+004   -1.01597E+005    3.35077E+006   -1.05382E+006    3.28999E+006   -8.52860E+004    3.20257E+006    4.41600E+004    2.32022E+005    2.03922E+004    3.10994E+005
            7789    3.70926E+006    3.79540E+006    3.79540E+006    2.57513E+005   -6.42675E+004    3.85967E+006   -1.32955E+006    3.67766E+006    2.77488E+005    3.73561E+006   -2.44535E+004    3.13476E+005   -1.96559E+004    3.50575E+005
            7790    4.13490E+006    4.28910E+006    4.28910E+006    5.98952E+005   -1.79795E+005    4.46890E+006   -1.56942E+006    3.96484E+006    6.20808E+005    4.24591E+006   -1.58456E+005    3.30302E+005   -5.63917E+004    2.49664E+005
            7791    4.22506E+006    4.47248E+006    4.47248E+006    8.61506E+005   -1.74097E+005    4.64658E+006   -1.71996E+006    3.92397E+006    8.79654E+005    4.44958E+006   -1.69343E+005    2.86078E+005   -7.07799E+004   -1.83376E+004
            7792    3.84212E+006    4.19935E+006    4.19935E+006    9.69137E+005   -4.94218E+004    4.24877E+006   -1.70636E+006    3.51863E+006    9.80914E+005    4.17683E+006   -3.86742E+004    2.14223E+005   -6.29701E+004   -1.82945E+005
            7793    4.80040E+006    4.88750E+006    4.88750E+006    7.11912E+005   -3.57374E+005    5.24487E+006   -1.74735E+006    4.52065E+006    7.19436E+005    4.76333E+006   -2.40733E+005    3.32924E+005   -8.75689E+004    7.14241E+005
            7794    4.60565E+006    4.42836E+006    4.42836E+006    6.48132E+005   -7.01258E+005    5.12962E+006   -1.45841E+006    4.12448E+006    6.48475E+005    4.39868E+006   -6.71915E+005    2.99769E+005   -1.62285E+005    1.86395E+005
            7795    3.95135E+006    3.91140E+006    3.91140E+006    6.83202E+005   -4.95046E+005    4.40645E+006   -1.36652E+006    3.52236E+006    6.83938E+005    3.86071E+006   -4.45089E+005    2.37756E+005   -1.68790E+005   -3.67368E+005
            7796    3.40146E+006    3.52308E+006    3.52308E+006    7.35209E+005   -2.66845E+005    3.78992E+006   -1.33048E+006    3.04182E+006    7.36723E+005    3.40020E+006   -1.45486E+005    1.82214E+005   -1.49002E+005   -6.27571E+005
            7797    3.71731E+006    3.29179E+006    3.29179E+006    5.71323E+005   -9.43805E+005    4.23560E+006   -9.73103E+005    2.88883E+006    5.66090E+005    2.80548E+006   -4.52259E+005    1.62102E+005   -2.70203E+005   -1.31507E+006
            7798    4.67859E+006    3.92596E+006    3.92596E+006    5.69679E+005   -1.41834E+006    5.34431E+006   -1.02577E+006    3.52082E+006    5.64925E+005    3.65026E+006   -1.13788E+006    2.30168E+005   -2.99557E+005   -1.12377E+006
            7799    5.63680E+006    4.65658E+006    4.65658E+006    6.22105E+005   -1.78397E+006    6.44056E+006   -1.16491E+006    4.22560E+006    6.18844E+005    4.55061E+006   -1.67474E+006    2.95686E+005   -3.01938E+005   -7.07235E+005
            7800    6.53502E+006    5.86284E+006    5.86284E+006    9.82443E+005   -1.56162E+006    7.42445E+006   -1.76122E+006    5.23284E+006    9.85141E+005    5.83234E+006   -1.53381E+006    3.85055E+005   -2.65367E+005   -6.74795E+003
            7801    1.12129E+007    1.52858E+007    1.52858E+007    5.17438E+006    3.22661E+006    1.20592E+007   -7.89560E+006    1.08225E+007    5.17615E+006    1.52811E+007    3.22958E+006    1.36783E+005   -9.91633E+003    1.86839E+005
            7802    1.09463E+007    1.53355E+007    1.53355E+007    5.47312E+006    3.55800E+006    1.17775E+007   -8.12220E+006    1.05595E+007    5.49310E+006    1.52704E+007    3.60308E+006    4.77455E+005   -4.50836E+004    7.03400E+005
            7803    1.12182E+007    1.54704E+007    1.54704E+007    5.90808E+006    3.12164E+006    1.23488E+007   -8.16672E+006    1.03960E+007    5.91905E+006    1.50313E+007    3.54984E+006    6.96550E+005   -1.82898E+005    2.16470E+006
            7804    1.27663E+007    1.74346E+007    1.74346E+007    6.10427E+006    3.60261E+006    1.38320E+007   -9.04715E+006    1.21964E+007    6.10537E+006    1.74322E+007    3.60384E+006    1.17807E+005   -1.58888E+004    1.24511E+005
            7805    1.21040E+007    1.73642E+007    1.73642E+007    6.45872E+006    4.34110E+006    1.30231E+007   -9.38799E+006    1.16763E+007    6.47949E+006    1.73243E+007    4.36018E+006    4.90860E+005   -3.28850E+004    4.81504E+005
            7806    1.08170E+007    1.70624E+007    1.70624E+007    7.28925E+006    5.44000E+006    1.16224E+007   -9.93057E+006    1.04525E+007    7.30890E+006    1.67252E+007    5.75756E+006    7.21033E+005   -1.20224E+005    1.80031E+006
            7807    1.36790E+007    1.86948E+007    1.86948E+007    6.65249E+006    3.82198E+006    1.48729E+007   -9.72310E+006    1.29954E+007    6.65336E+006    1.86938E+007    3.82216E+006    1.03936E+005   -7.10479E+003    4.93351E+004
            7808    1.27827E+007    1.85391E+007    1.85391E+007    7.02332E+006    4.78506E+006    1.37540E+007   -1.01158E+007    1.23302E+007    7.04473E+006    1.85155E+007    4.78722E+006    4.97681E+005   -1.07701E+004    1.67383E+005
            7809    1.01816E+007    1.78382E+007    1.78382E+007    8.16365E+006    7.21578E+006    1.06224E+007   -1.10725E+007    1.00816E+007    8.20918E+006    1.77339E+007    7.27450E+006    7.29180E+005   -4.22008E+004    7.22848E+005
            7810    3.73541E+006    4.06702E+006    4.06702E+006    9.46097E+005   -7.18388E+004    4.13886E+006   -1.64709E+006    3.40176E+006    9.56032E+005    4.04639E+006   -6.11400E+004   -1.96845E+005   -6.24804E+004    1.79772E+005
            7811    3.29485E+006    3.41176E+006    3.41176E+006    7.20773E+005   -2.62882E+005    3.67465E+006   -1.28989E+006    2.93620E+006    7.20635E+005    3.27853E+006   -1.29511E+005   -1.65184E+005   -1.46776E+005    6.50476E+005
            7812    3.67206E+006    3.23890E+006    3.23890E+006    5.60420E+005   -9.46970E+005    4.18587E+006   -9.50784E+005    2.83906E+006    5.54406E+005    2.74370E+006   -4.45749E+005   -1.53940E+005   -2.67337E+005    1.31853E+006
            7813    3.23178E+006    3.56675E+006    3.56675E+006    8.90899E+005   -2.37803E+004    3.59053E+006   -1.47796E+006    2.91856E+006    8.94652E+005    3.55144E+006   -1.22181E+004   -1.23730E+005   -5.13024E+004    1.82830E+005
            7814    2.67599E+006    2.93034E+006    2.93034E+006    7.06781E+005   -3.95979E+004    2.96994E+006   -1.19918E+006    2.42471E+006    7.01861E+005    2.80662E+006    8.90413E+004   -1.06795E+005   -1.18755E+005    5.74163E+005
            7815    2.67009E+006    2.57550E+006    2.57550E+006    5.47379E+005   -4.49636E+005    3.02514E+006   -8.91081E+005    2.18827E+006    5.36560E+005    2.02276E+006    1.13924E+005   -9.29500E+004   -2.20798E+005    1.14625E+006
            7816    2.82377E+006    3.14482E+006    3.14482E+006    8.11927E+005    5.59181E+003    3.13923E+006   -1.32078E+006    2.54477E+006    8.11275E+005    3.14037E+006    1.06934E+004   -5.62753E+004   -4.26143E+004    9.73987E+004
            7817    2.16069E+006    2.49185E+006    2.49185E+006    6.59570E+005    1.09209E+005    2.38265E+006   -1.08688E+006    1.99363E+006    6.45316E+005    2.44837E+006    1.66943E+005   -4.74538E+004   -1.00314E+005    3.10509E+005
            7818    1.57105E+006    1.81745E+006    1.81745E+006    5.28622E+005    6.74288E+004    1.75002E+006   -8.04501E+005    1.40621E+006    4.86982E+005    1.50849E+006    4.18028E+005   -3.98253E+004   -1.78437E+005    6.45298E+005
            7819    2.70064E+006    3.00621E+006    3.00621E+006    7.78479E+005    2.53522E+003    3.00367E+006   -1.26241E+006    2.43022E+006    7.76441E+005    3.00615E+006    4.62638E+003    7.41018E+003   -3.99867E+004   -9.06596E+003
            7820    1.97636E+006    2.34309E+006    2.34309E+006    6.48811E+005    1.71924E+005    2.17117E+006   -1.05461E+006    1.84011E+006    6.29131E+005    2.34223E+006    1.92466E+005    4.11452E+003   -9.50045E+004   -4.25353E+004
            7821    8.73785E+005    1.29629E+006    1.29629E+006    6.34864E+005    3.05735E+005    9.90552E+005   -7.45629E+005    7.12834E+005    4.46781E+005    1.29580E+006    4.94304E+005    2.18830E+003   -1.62969E+005   -1.88155E+004
            7822    2.88714E+006    3.21792E+006    3.21792E+006    8.29178E+005    9.59017E+003    3.20833E+006   -1.35223E+006    2.60551E+006    8.29325E+005    3.21094E+006    1.64165E+004    7.08563E+004   -4.37533E+004   -1.23572E+005
            7823    2.25435E+006    2.57481E+006    2.57481E+006    6.70529E+005    8.56688E+004    2.48914E+006   -1.11034E+006    2.07310E+006    6.58584E+005    2.51707E+006    1.55354E+005    6.23201E+004   -1.03050E+005   -3.63373E+005
            7824    1.66994E+006    1.89519E+006    1.89519E+006    5.31317E+005    3.27560E+004    1.86244E+006   -8.19756E+005    1.48816E+006    4.96755E+005    1.55449E+006    4.08026E+005    4.71033E+004   -1.80625E+005   -6.98485E+005
            7825    3.35759E+006    3.68273E+006    3.68273E+006    9.02666E+005   -4.75685E+004    3.73030E+006   -1.51261E+006    3.03222E+006    9.07808E+005    3.66606E+006   -3.60347E+004    1.40904E+005   -5.35311E+004   -1.85423E+005
            7826    2.83241E+006    3.06982E+006    3.06982E+006    7.26119E+005   -7.75867E+004    3.14741E+006   -1.23945E+006    2.55637E+006    7.22551E+005    2.93532E+006    6.04854E+004    1.17486E+005   -1.23361E+005   -6.15308E+005
            7827    2.73287E+006    2.64277E+006    2.64277E+006    5.63945E+005   -4.52708E+005    3.09548E+006   -9.18004E+005    2.24403E+006    5.53498E+005    2.09525E+006    1.05268E+005    9.87684E+004   -2.24418E+005   -1.15748E+006
            7828    1.12212E+007    1.54765E+007    1.54765E+007    5.91130E+006    3.12457E+006    1.23520E+007   -8.17080E+006    1.03990E+007    5.92232E+006    1.50364E+007    3.55366E+006    6.96991E+005    1.82694E+005   -2.16734E+006
            7829    1.09556E+007    1.53512E+007    1.53512E+007    5.47920E+006    3.56439E+006    1.17868E+007   -8.13159E+006    1.05692E+007    5.49919E+006    1.52881E+007    3.60749E+006    4.76444E+005    4.44641E+004   -6.87920E+005
            7830    1.12379E+007    1.53206E+007    1.53206E+007    5.18916E+006    3.23314E+006    1.20875E+007   -7.91431E+006    1.08449E+007    5.19092E+006    1.53160E+007    3.23604E+006    1.36547E+005    1.00736E+004   -1.84639E+005
            7831    1.08040E+007    1.70687E+007    1.70687E+007    7.30003E+006    5.46458E+006    1.16041E+007   -9.94444E+006    1.04445E+007    7.31980E+006    1.67323E+007    5.78120E+006    7.21239E+005    1.19250E+005   -1.79607E+006
            7832    1.21186E+007    1.73633E+007    1.73633E+007    6.45020E+006    4.32140E+006    1.30419E+007   -9.37831E+006    1.16868E+007    6.47088E+006    1.73238E+007    4.34029E+006    4.90026E+005    3.30942E+004   -4.79238E+005
            7833    1.27759E+007    1.74483E+007    1.74483E+007    6.11029E+006    3.60549E+006    1.38428E+007   -9.05470E+006    1.22050E+007    6.11138E+006    1.74460E+007    3.60674E+006    1.17221E+005    1.58444E+004   -1.25195E+005
            7834    1.01711E+007    1.78390E+007    1.78390E+007    8.16905E+006    7.23157E+006    1.06074E+007   -1.10799E+007    1.00732E+007    8.21503E+006    1.77374E+007    7.28721E+006    7.29228E+005    4.11156E+004   -7.02538E+005
            7835    1.27898E+007    1.85337E+007    1.85337E+007    7.01559E+006    4.76980E+006    1.37639E+007   -1.01064E+007    1.23344E+007    7.03694E+006    1.85099E+007    4.77227E+006    4.97324E+005    1.17842E+004   -1.78853E+005
            7836    1.36765E+007    1.86932E+007    1.86932E+007    6.65232E+006    3.82348E+006    1.48697E+007   -9.72299E+006    1.29936E+007    6.65319E+006    1.86921E+007    3.82366E+006    1.03688E+005    7.32340E+003   -4.85677E+004
            7837    4.52707E+006    5.33759E+006    5.33759E+006    9.49899E+005    6.82949E+005    4.65464E+006   -2.32348E+006    4.50931E+006    8.14619E+005    5.32525E+006    8.30568E+005   -6.85263E+004    1.37022E+005   -2.23502E+005
            7838    5.30796E+006    6.66327E+006    6.66327E+006    1.49420E+006    1.22655E+006    5.43672E+006   -3.12801E+006    5.29274E+006    1.41779E+006    6.65451E+006    1.31171E+006   -7.08113E+004    1.24169E+005   -2.02595E+005
            7839    6.34182E+006    8.29616E+006    8.29616E+006    2.15779E+006    1.76881E+006    6.52736E+006   -4.07425E+006    6.31489E+006    2.13528E+006    8.29027E+006    1.79721E+006   -7.02072E+004    9.44340E+004   -1.80844E+005
            7840    7.73515E+006    1.03429E+007    1.03429E+007    3.01239E+006    2.25839E+006    8.08454E+006   -5.20457E+006    7.65181E+006    3.00864E+006    1.03400E+007    2.26509E+006   -6.36193E+004    5.79910E+004   -1.38842E+005
            7841    9.43837E+006    1.27336E+007    1.27336E+007    4.01340E+006    2.71213E+006    1.00215E+007   -6.48638E+006    9.23332E+006    4.01333E+006    1.27316E+007    2.71421E+006   -5.36531E+004    2.35324E+004   -1.29704E+005
            7842    4.77605E+006    5.48774E+006    5.48774E+006    8.71925E+005    5.66141E+005    4.92160E+006   -2.30860E+006    4.75396E+006    8.74170E+005    5.40378E+006    6.47856E+005   -2.32771E+005    8.41252E+004   -5.86857E+005
            7843    5.57710E+006    6.80652E+006    6.80652E+006    1.45363E+006    1.02944E+006    5.77708E+006   -3.09653E+006    5.54063E+006    1.46342E+006    6.73606E+006    1.09012E+006   -2.70014E+005    7.01829E+004   -5.66327E+005
            7844    6.57965E+006    8.40347E+006    8.40347E+006    2.15504E+006    1.53630E+006    6.86717E+006   -4.03160E+006    6.51372E+006    2.16944E+006    8.35455E+006    1.57082E+006   -3.04777E+005    4.25996E+004   -4.80026E+005
            7845    7.93335E+006    1.04557E+007    1.04557E+007    3.05092E+006    2.08259E+006    8.37306E+006   -5.19638E+006    7.79873E+006    3.06625E+006    1.04158E+007    2.10706E+006   -3.37045E+005    1.14225E+004   -4.51173E+005
            7846    9.48323E+006    1.27987E+007    1.27987E+007    4.09706E+006    2.69083E+006    1.01078E+007   -6.52885E+006    9.24429E+006    4.11130E+006    1.27675E+007    2.70773E+006   -3.59935E+005   -1.47765E+004   -4.05184E+005
            7847    5.16708E+006    5.63676E+006    5.63676E+006    9.67209E+005    8.56049E+004    5.55116E+006   -2.22986E+006    4.99365E+006    9.83652E+005    5.49166E+006    2.14261E+005   -3.28792E+005   -2.26779E+004   -8.14503E+005
            7848    6.02513E+006    6.88521E+006    6.88521E+006    1.49951E+006    3.78194E+005    6.50702E+006   -2.92097E+006    5.78334E+006    1.51840E+006    6.76673E+006    4.77786E+005   -3.75303E+005   -3.94413E+004   -7.71488E+005
            7849    7.13905E+006    8.59919E+006    8.59919E+006    2.25869E+006    8.66641E+005    7.73255E+006   -3.90817E+006    6.82360E+006    2.27846E+006    8.48347E+006    9.62590E+005   -4.15885E+005   -5.10181E+004   -8.24766E+005
            7850    8.23993E+006    1.05224E+007    1.05224E+007    3.18848E+006    1.60595E+006    8.91642E+006   -5.10560E+006    7.88707E+006    3.20676E+006    1.04163E+007    1.69376E+006   -4.34254E+005   -6.07646E+004   -8.45674E+005
            7851    9.56145E+006    1.28134E+007    1.28134E+007    4.30070E+006    2.46833E+006    1.03450E+007   -6.52746E+006    9.15384E+006    4.31668E+006    1.27202E+007    2.54555E+006   -4.33915E+005   -6.42398E+004   -8.57355E+005
            7852    5.68582E+006    5.60351E+006    5.60351E+006    9.51329E+005   -7.34627E+005    6.33814E+006   -1.94007E+006    5.07606E+006    9.59091E+005    5.53771E+006   -6.76592E+005   -3.74483E+005   -1.56117E+005   -4.85239E+005
            7853    7.09518E+006    7.24061E+006    7.24061E+006    1.50802E+006   -6.94670E+005    7.93528E+006   -2.68465E+006    6.25358E+006    1.52315E+006    7.14429E+006   -6.13476E+005   -4.51514E+005   -1.59301E+005   -7.02667E+005
            7854    8.17473E+006    8.95513E+006    8.95513E+006    2.25049E+006   -1.51503E+005    9.10663E+006   -3.68471E+006    7.31530E+006    2.26828E+006    8.80592E+006   -2.00857E+004   -5.15202E+005   -1.55718E+005   -1.00323E+006
            7855    9.24334E+006    1.09963E+007    1.09963E+007    3.24001E+006    7.68470E+005    1.02279E+007   -5.00161E+006    8.45067E+006    3.25982E+006    1.08058E+007    9.39181E+005   -5.70361E+005   -1.47932E+005   -1.23269E+006
            7856    1.01886E+007    1.32185E+007    1.32185E+007    4.42529E+006    2.05307E+006    1.11654E+007   -6.56562E+006    9.53708E+006    4.44653E+006    1.29932E+007    2.25716E+006   -6.14339E+005   -1.32131E+005   -1.42277E+006
            7857    1.14791E+007    1.34183E+007    1.34183E+007    4.42078E+006    4.90244E+005    1.29280E+007   -6.10976E+006    9.78353E+006    4.42780E+006    1.30038E+007    8.97697E+005   -7.22712E+005   -2.87449E+005   -2.13467E+006
            7858    1.07029E+007    1.11654E+007    1.11654E+007    3.11912E+006   -9.81464E+005    1.21469E+007   -4.43437E+006    8.65028E+006    3.12637E+006    1.09485E+007   -7.71763E+005   -6.34279E+005   -3.11893E+005   -1.43542E+006
            7859    9.54343E+006    9.14522E+006    9.14522E+006    2.15847E+006   -1.72827E+006    1.08735E+007   -3.19181E+006    7.42057E+006    2.16532E+006    9.05680E+006   -1.64669E+006   -5.44156E+005   -3.16788E+005   -7.28781E+005
            7860    8.29794E+006    7.50466E+006    7.50466E+006    1.51722E+006   -1.96739E+006    9.47205E+006   -2.35150E+006    6.30517E+006    1.52260E+006    7.46381E+006   -1.93192E+006   -4.63189E+005   -3.07121E+005   -2.40552E+005
            7861    6.90225E+006    6.04307E+006    6.04307E+006    1.06423E+006   -1.83611E+006    7.87917E+006   -1.75706E+006    5.24202E+006    1.06584E+006    6.00436E+006   -1.79901E+006   -3.81624E+005   -3.02301E+005    2.48647E+005
            7862    5.77380E+006    4.79336E+006    4.79336E+006    6.76171E+005   -1.80653E+006    6.59988E+006   -1.22100E+006    4.30076E+006    6.72954E+005    4.68331E+006   -1.69326E+006   -3.03812E+005   -3.11620E+005    7.29672E+005
            7863    4.66764E+006    3.88386E+006    3.88386E+006    5.56093E+005   -1.45172E+006    5.33558E+006   -9.96079E+005    3.47566E+006    5.51889E+005    3.56725E+006   -1.13090E+006   -2.23061E+005   -3.01475E+005    1.20645E+006
            7864    3.92086E+006    3.87050E+006    3.87050E+006    6.93276E+005   -5.11331E+005    4.38183E+006   -1.35082E+006    3.46635E+006    6.94362E+005    3.81139E+006   -4.53302E+005   -2.29623E+005   -1.68563E+005    4.16111E+005
            7865    4.08268E+006    4.35084E+006    4.35084E+006    8.76433E+005   -1.45830E+005    4.49667E+006   -1.69381E+006    3.77830E+006    8.92608E+005    4.32999E+006   -1.41159E+005   -2.66340E+005   -6.92332E+004    3.34363E+004
            7866    4.42168E+006    4.32508E+006    4.32508E+006    6.93491E+005   -5.98757E+005    4.92384E+006   -1.47327E+006    3.96224E+006    6.92986E+005    4.30058E+006   -5.73751E+005   -2.90064E+005   -1.66374E+005   -9.41473E+004
            7867    4.08421E+006    4.28445E+006    4.28445E+006    6.75193E+005   -1.49004E+005    4.43345E+006   -1.60355E+006    3.89045E+006    6.95821E+005    4.25127E+006   -1.36452E+005   -3.13500E+005   -6.04491E+004   -1.65301E+005
            7868    3.85171E+006    3.97771E+006    3.97771E+006    3.90869E+005   -9.31174E+004    4.07083E+006   -1.42515E+006    3.78239E+006    4.12058E+005    3.92834E+006   -6.49324E+004   -3.20323E+005   -3.48340E+004   -2.91677E+005
            7869    3.45535E+006    3.47915E+006    3.47915E+006    6.02422E+004   -1.15183E+004    3.49067E+006   -1.17596E+006    3.45367E+006    7.53835E+004    3.42542E+006    2.70729E+004   -2.84594E+005    3.29374E+003   -3.21198E+005
            7870    3.05914E+006    2.95248E+006    2.95248E+006    5.39382E+004   -2.45283E+005    3.19776E+006   -9.20377E+005    3.02596E+006   -2.31676E+005    2.92042E+006    7.23893E+004   -1.97939E+005    3.39953E+004   -2.36391E+005
            7871    2.81906E+006    2.61980E+006    2.61980E+006    9.40951E+004   -4.21453E+005    3.04125E+006   -7.64148E+005    2.70994E+006   -4.15100E+005    2.61522E+006    9.23211E+004   -7.13978E+004    5.08738E+004   -8.43818E+004
            7872    4.58415E+006    4.59181E+006    4.59181E+006    6.36679E+005   -4.32404E+005    5.02422E+006   -1.59870E+006    4.29000E+006    6.42048E+005    4.51176E+006   -3.57716E+005   -3.18935E+005   -1.05832E+005   -5.26836E+005
            7873    4.38464E+006    4.58466E+006    4.58466E+006    5.09771E+005   -5.49908E+004    4.63965E+006   -1.67981E+006    4.30166E+006    5.25347E+005    4.45181E+006    6.22878E+004   -2.89307E+005   -4.78684E+003   -7.12781E+005
            7874    4.03818E+006    4.32576E+006    4.32576E+006    3.68658E+005    2.11113E+005    4.11465E+006   -1.63518E+006    4.03126E+006    3.58876E+005    4.24433E+006    3.02324E+005   -1.97063E+005    7.96651E+004   -5.32813E+005
            7875    3.79471E+006    4.09611E+006    4.09611E+006    4.44086E+005    1.73234E+005    3.92288E+006   -1.57114E+006    3.77287E+006    2.40716E+005    4.08434E+006    3.88372E+005   -6.88854E+004    1.20104E+005   -1.95418E+005
            7876    5.04651E+006    6.24005E+006    6.24005E+006    1.31863E+006    1.07713E+006    5.16292E+006   -2.87860E+006    5.03348E+006    1.24955E+006    6.21670E+006    1.16955E+006    1.27150E+005   -1.18964E+005   -3.16225E+005
            7877    6.20649E+006    8.08386E+006    8.08386E+006    2.07718E+006    1.69520E+006    6.38866E+006   -3.95208E+006    6.17996E+006    2.06427E+006    8.07262E+006    1.71935E+006    1.47770E+005   -8.31904E+004   -2.17990E+005
            7878    7.78401E+006    1.03820E+007    1.03820E+007    3.04241E+006    2.21895E+006    8.16300E+006   -5.21444E+006    7.68510E+006    3.04388E+006    1.03690E+007    2.23042E+006    1.56420E+005   -4.52024E+004   -2.78668E+005
            7879    9.45538E+006    1.28240E+007    1.28240E+007    4.11042E+006    2.76991E+006    1.00541E+007   -6.56811E+006    9.23796E+006    4.11300E+006    1.28165E+007    2.77483E+006    1.51150E+005   -1.17486E+004   -2.21171E+005
            7880    5.69375E+006    6.51058E+006    6.51058E+006    1.32572E+006    4.17191E+005    6.09339E+006   -2.75117E+006    5.52714E+006    1.34494E+006    6.40703E+006    5.01523E+005    3.38845E+005    9.06790E+003   -6.99668E+005
            7881    7.11035E+006    8.63734E+006    8.63734E+006    2.24557E+006    9.78721E+005    7.65862E+006   -3.95388E+006    6.84950E+006    2.26658E+006    8.52377E+006    1.07128E+006    3.97777E+005    2.12792E+004   -8.20696E+005
            7882    8.23215E+006    1.06696E+007    1.06696E+007    3.23722E+006    1.82140E+006    8.84823E+006   -5.24275E+006    7.95128E+006    3.25719E+006    1.05601E+007    1.91092E+006    4.30930E+005    3.69528E+004   -8.62100E+005
            7883    9.60644E+006    1.30052E+007    1.30052E+007    4.34869E+006    2.67002E+006    1.03351E+007   -6.67462E+006    9.26781E+006    4.36849E+006    1.29179E+007    2.73745E+006    4.57460E+005    4.51652E+004   -8.06695E+005
            7884    1.09251E+007    1.33562E+007    1.33562E+007    4.46742E+006    1.15944E+006    1.21968E+007   -6.32770E+006    9.69855E+006    4.47683E+006    1.29940E+007    1.51231E+006    6.50237E+005    2.21160E+005   -1.94624E+006
            7885    1.00642E+007    1.11546E+007    1.11546E+007    3.22338E+006   -1.66949E+005    1.13215E+007   -4.73701E+006    8.63158E+006    3.23334E+006    1.09249E+007    5.27788E+004    5.89258E+005    2.36601E+005   -1.45360E+006
            7886    8.90679E+006    9.18339E+006    9.18339E+006    2.28756E+006   -8.72588E+005    1.00560E+007   -3.53279E+006    7.47974E+006    2.29858E+006    9.03475E+006   -7.34961E+005    5.22561E+005    2.24618E+005   -1.05634E+006
            7887    7.68297E+006    7.50793E+006    7.50793E+006    1.59709E+006   -1.17676E+006    8.68469E+006   -2.64275E+006    6.40145E+006    1.60748E+006    7.43812E+006   -1.11734E+006    4.57158E+005    2.21137E+005   -5.61508E+005
            7888    6.54498E+006    5.86979E+006    5.86979E+006    9.83861E+005   -1.56642E+006    7.43622E+006   -1.76241E+006    5.23792E+006    9.86607E+005    5.83927E+006   -1.53865E+006    3.85391E+005    2.65580E+005    7.03026E+003
            7889    5.63194E+006    4.65482E+006    4.65482E+006    6.23660E+005   -1.78016E+006    6.43498E+006   -1.16610E+006    4.22223E+006    6.20385E+005    4.54821E+006   -1.67028E+006    2.95434E+005    3.02032E+005    7.09687E+005
            7890    4.66790E+006    3.92115E+006    3.92115E+006    5.71007E+005   -1.41064E+006    5.33180E+006   -1.02717E+006    3.51548E+006    5.66208E+005    3.64546E+006   -1.13015E+006    2.29990E+005    2.99468E+005    1.12229E+006
            7891    3.72096E+006    3.29668E+006    3.29668E+006    5.72957E+005   -9.42947E+005    4.23963E+006   -9.75564E+005    2.89263E+006    5.67747E+005    2.81230E+006   -4.53351E+005    1.62600E+005    2.70213E+005    1.31335E+006
            7892    3.40510E+006    3.52389E+006    3.52389E+006    7.34159E+005   -2.70507E+005    3.79439E+006   -1.32918E+006    3.04387E+006    7.35609E+005    3.40072E+006   -1.48784E+005    1.82304E+005    1.49558E+005    6.28736E+005
            7893    3.84513E+006    4.20240E+006    4.20240E+006    9.69067E+005   -4.94504E+004    4.25185E+006   -1.70734E+006    3.52195E+006    9.80882E+005    4.17974E+006   -3.86037E+004    2.15002E+005    6.35664E+004    1.83488E+005
            7894    3.95980E+006    3.91810E+006    3.91810E+006    6.84650E+005   -4.98378E+005    4.41648E+006   -1.36812E+006    3.52810E+006    6.85438E+005    3.86703E+006   -4.48091E+005    2.38348E+005    1.69319E+005    3.69581E+005
            7895    4.22572E+006    4.47002E+006    4.47002E+006    8.60563E+005   -1.78214E+005    4.64824E+006   -1.71746E+006    3.92272E+006    8.78602E+005    4.44716E+006   -1.73389E+005    2.85721E+005    7.14057E+004    1.91008E+004
            7896    4.61680E+006    4.43350E+006    4.43350E+006    6.47673E+005   -7.09879E+005    5.14338E+006   -1.45710E+006    4.13065E+006    6.48035E+005    4.40399E+006   -6.80731E+005    3.00137E+005    1.63048E+005   -1.83757E+005
            7897    4.13874E+006    4.29495E+006    4.29495E+006    6.04466E+005   -1.79819E+005    4.47477E+006   -1.57320E+006    3.96635E+006    6.26251E+005    4.25211E+006   -1.58765E+005    3.29866E+005    5.68472E+004   -2.47368E+005
            7898    4.80407E+006    4.89357E+006    4.89357E+006    7.14827E+005   -3.55346E+005    5.24891E+006   -1.75102E+006    4.52407E+006    7.22345E+005    4.76885E+006   -2.38146E+005    3.33296E+005    8.76131E+004   -7.16348E+005
            7899    3.71531E+006    3.80349E+006    3.80349E+006    2.62745E+005   -6.47104E+004    3.86820E+006   -1.33384E+006    3.68263E+006    2.82796E+005    3.74376E+006   -2.50298E+004    3.14024E+005    2.01074E+004   -3.50288E+005
            7900    3.29800E+006    3.25334E+006    3.25334E+006    1.30939E+004   -9.95309E+004    3.35287E+006   -1.05563E+006    3.29367E+006   -8.30611E+004    3.20641E+006    4.35483E+004    2.33138E+005   -2.02084E+004   -3.12151E+005
            7901    2.92960E+006    2.81316E+006    2.81316E+006    1.45894E+005   -3.22375E+005    3.13553E+006   -8.78892E+005    2.84357E+006   -3.14248E+005    2.80343E+006    1.47491E+005    8.81412E+004   -5.50283E+004   -1.37346E+005
            7902    4.55886E+006    4.92143E+006    4.92143E+006    6.33754E+005    1.32773E+005    4.78865E+006   -1.89598E+006    4.49630E+006    6.49943E+005    4.79488E+006    2.43128E+005    2.66590E+005   -2.44543E+004   -7.15520E+005
            7903    4.13384E+006    4.66908E+006    4.66908E+006    6.56565E+005    4.23756E+005    4.24532E+006   -1.91647E+006    4.11905E+006    5.21064E+005    4.64598E+006    5.82357E+005    1.03643E+005   -1.21874E+005   -2.86352E+005
            7904    1.14938E+007    1.55225E+007    1.55225E+007    5.96309E+006    2.76960E+006    1.27529E+007   -8.08505E+006    1.04234E+007    5.97054E+006    1.49422E+007    3.34241E+006   -7.91132E+005   -2.33018E+005   -2.52261E+006
            7905    1.09591E+007    1.54564E+007    1.54564E+007    5.71876E+006    3.58866E+006    1.18677E+007   -8.25461E+006    1.04780E+007    5.74387E+006    1.52460E+007    3.77400E+006   -6.49680E+005   -1.07525E+005   -1.40382E+006
            7906    1.08406E+007    1.51469E+007    1.51469E+007    5.47326E+006    3.43006E+006    1.17169E+007   -8.01675E+006    1.03941E+007    5.48754E+006    1.50766E+007    3.48610E+006   -4.21476E+005   -5.87922E+004   -7.80693E+005
            7907    1.11462E+007    1.52712E+007    1.52712E+007    5.21215E+006    3.28837E+006    1.19829E+007   -7.92392E+006    1.07631E+007    5.22567E+006    1.52464E+007    3.29963E+006   -3.81127E+005   -2.94365E+004   -3.52589E+005
            7908    1.12690E+007    1.52621E+007    1.52621E+007    5.07845E+006    3.15533E+006    1.21068E+007   -7.83196E+006    1.08906E+007    5.07867E+006    1.52611E+007    3.15613E+006   -4.72207E+004   -3.59465E+002   -9.88630E+004
            7909    1.06694E+007    1.70395E+007    1.70395E+007    7.46911E+006    5.53549E+006    1.15040E+007   -1.00147E+007    1.02640E+007    7.48395E+006    1.65612E+007    5.99896E+006   -8.30416E+005   -1.52027E+005   -2.13055E+006
            7910    1.13899E+007    1.72960E+007    1.72960E+007    6.88378E+006    5.13152E+006    1.21645E+007   -9.77045E+006    1.10806E+007    6.91707E+006    1.71566E+007    5.23772E+006   -6.78919E+005   -7.16274E+004   -1.07539E+006
            7911    1.19122E+007    1.71879E+007    1.71879E+007    6.52275E+006    4.33265E+006    1.28553E+007   -9.34778E+006    1.14460E+007    6.53641E+006    1.71463E+007    4.36062E+006   -4.05677E+005   -4.12357E+004   -5.81029E+005
            7912    1.25723E+007    1.74103E+007    1.74103E+007    6.19779E+006    3.81832E+006    1.35920E+007   -9.14213E+006    1.20499E+007    6.21138E+006    1.73917E+007    3.82334E+006   -3.98093E+005   -2.78747E+004   -2.47274E+005
            7913    1.28607E+007    1.74346E+007    1.74346E+007    5.99448E+006    3.51445E+006    1.39201E+007   -8.98116E+006    1.23053E+007    5.99463E+006    1.74340E+007    3.51486E+006   -4.73028E+004   -1.01099E+004   -7.17668E+004
            7914    9.58960E+006    1.76560E+007    1.76560E+007    8.42177E+006    7.74663E+006    9.90933E+006   -1.12748E+007    9.53591E+006    8.47425E+006    1.75057E+007    7.84437E+006   -8.44671E+005   -5.19571E+004   -8.48226E+005
            7915    1.15628E+007    1.83374E+007    1.83374E+007    7.57864E+006    6.11073E+006    1.22267E+007   -1.06756E+007    1.13503E+007    7.62131E+006    1.82797E+007    6.12580E+006   -6.89963E+005   -2.56755E+004   -4.04763E+005
            7916    1.25308E+007    1.83662E+007    1.83662E+007    7.12561E+006    4.85544E+006    1.35107E+007   -1.01157E+007    1.20551E+007    7.13885E+006    1.83494E+007    4.85900E+006   -3.88426E+005   -1.40829E+004   -2.13494E+005
            7917    1.34069E+007    1.86677E+007    1.86677E+007    6.77924E+006    4.13601E+006    1.45317E+007   -9.86098E+006    1.28008E+007    6.79287E+006    1.86532E+007    4.13681E+006   -4.03701E+005   -1.24883E+004   -1.01489E+005
            7918    1.38113E+007    1.87322E+007    1.87322E+007    6.54487E+006    3.73045E+006    1.50017E+007   -9.66917E+006    1.31427E+007    6.54502E+006    1.87320E+007    3.73050E+006   -4.52437E+004   -5.78518E+003   -2.47600E+004
            7919    3.67821E+006    3.24039E+006    3.24039E+006    5.58824E+005   -9.52784E+005    4.19318E+006   -9.48812E+005    2.84149E+006    5.52851E+005    2.74339E+006   -4.49802E+005   -1.53908E+005    2.67543E+005   -1.32204E+006
            7920    3.28696E+006    3.40802E+006    3.40802E+006    7.22215E+005   -2.57377E+005    3.66539E+006   -1.29095E+006    2.93054E+006    7.22065E+005    3.27561E+006   -1.24821E+005   -1.64290E+005    1.45812E+005   -6.47814E+005
            7921    3.72328E+006    4.05589E+006    4.05589E+006    9.45580E+005   -6.97251E+004    4.12562E+006   -1.64392E+006    3.39024E+006    9.55375E+005    4.03529E+006   -5.89136E+004   -1.95218E+005    6.22093E+004   -1.81028E+005
            7922    2.66455E+006    2.57283E+006    2.57283E+006    5.48013E+005   -4.45805E+005    3.01863E+006   -8.91679E+005    2.18502E+006    5.37191E+005    2.01956E+006    1.18283E+005   -9.27298E+004    2.20530E+005   -1.14517E+006
            7923    2.67305E+006    2.92768E+006    2.92768E+006    7.06587E+005   -3.90108E+004    2.96669E+006   -1.19842E+006    2.42202E+006    7.01622E+005    2.80489E+006    8.87484E+004   -1.06308E+005    1.18459E+005   -5.71793E+005
            7924    3.22121E+006    3.55535E+006    3.55535E+006    8.88682E+005   -2.36188E+004    3.57897E+006   -1.47347E+006    2.90856E+006    8.92305E+005    3.54033E+006   -1.22266E+004   -1.22191E+005    5.11500E+004   -1.80840E+005
            7925    1.55971E+006    1.80771E+006    1.80771E+006    5.27356E+005    7.06210E+004    1.73709E+006   -8.01894E+005    1.39694E+006    4.85103E+005    1.50050E+006    4.20080E+005   -3.95636E+004    1.78372E+005   -6.40639E+005
            7926    2.15899E+006    2.48946E+006    2.48946E+006    6.58946E+005    1.08557E+005    2.38091E+006   -1.08566E+006    1.99176E+006    6.44540E+005    2.44619E+006    1.66232E+005   -4.69937E+004    1.00587E+005   -3.09711E+005
            7927    2.82010E+006    3.14052E+006    3.14052E+006    8.10957E+005    5.25045E+003    3.13527E+006   -1.31891E+006    2.54115E+006    8.10244E+005    3.13622E+006    1.02595E+004   -5.51326E+004    4.25858E+004   -9.57553E+004
            7928    8.74278E+005    1.29721E+006    1.29721E+006    6.35284E+005    3.06135E+005    9.91078E+005   -7.46211E+005    7.13429E+005    4.47306E+005    1.29607E+006    4.95258E+005    2.51103E+003    1.63097E+005    2.91266E+004
            7929    1.97664E+006    2.34409E+006    2.34409E+006    6.49384E+005    1.72704E+005    2.17139E+006   -1.05539E+006    1.84053E+006    6.29703E+005    2.34321E+006    1.93270E+005    4.65103E+003    9.50095E+004    4.30084E+004
            7930    2.70200E+006    3.00789E+006    3.00789E+006    7.79006E+005    2.71133E+003    3.00518E+006   -1.26320E+006    2.43148E+006    7.76973E+005    3.00782E+006    4.81219E+003    8.41145E+003    4.00232E+004    1.02368E+004
            7931    1.68935E+006    1.90689E+006    1.90689E+006    5.30034E+005    2.17642E+004    1.88513E+006   -8.19564E+005    1.50231E+006    4.96502E+005    1.55771E+006    4.04478E+005    4.75092E+004    1.81377E+005    7.10901E+005
            7932    2.25412E+006    2.57344E+006    2.57344E+006    6.69449E+005    8.44966E+004    2.48894E+006   -1.10913E+006    2.07279E+006    6.57458E+005    2.51560E+006    1.54321E+005    6.26495E+004    1.03349E+005    3.63551E+005
            7933    2.89633E+006    3.22715E+006    3.22715E+006    8.30881E+005    8.58028E+003    3.21857E+006   -1.35554E+006    2.61373E+006    8.31124E+005    3.22004E+006    1.54513E+004    7.21820E+004    4.36737E+004    1.24623E+005
            7934    2.74772E+006    2.65391E+006    2.65391E+006    5.65251E+005   -4.58771E+005    3.11268E+006   -9.20130E+005    2.25414E+006    5.54816E+005    2.10804E+006    9.75338E+004    9.94543E+004    2.25016E+005    1.15996E+006
            7935    2.82640E+006    3.06475E+006    3.06475E+006    7.25181E+005   -7.56563E+004    3.14041E+006   -1.23809E+006    2.55181E+006    7.21552E+005    2.92874E+006    6.39841E+004    1.17373E+005    1.23723E+005    6.18021E+005
            7936    3.36738E+006    3.69410E+006    3.69410E+006    9.05195E+005   -4.67846E+004    3.74088E+006   -1.51750E+006    3.04181E+006    9.10467E+005    3.67737E+006   -3.53262E+004    1.42357E+005    5.35684E+004    1.84969E+005
            7937    1.12605E+007    1.52481E+007    1.52481E+007    5.07160E+006    3.15075E+006    1.20974E+007   -7.82349E+006    1.08827E+007    5.07182E+006    1.52471E+007    3.15152E+006   -4.73029E+004    5.64746E+002    9.65817E+004
            7938    1.11473E+007    1.52713E+007    1.52713E+007    5.21246E+006    3.28642E+006    1.19849E+007   -7.92339E+006    1.07634E+007    5.22597E+006    1.52464E+007    3.29776E+006   -3.81126E+005    2.98694E+004    3.53751E+005
            7939    1.08483E+007    1.51603E+007    1.51603E+007    5.48073E+006    3.43467E+006    1.17256E+007   -8.02522E+006    1.04008E+007    5.49508E+006    1.50891E+007    3.49150E+006   -4.23147E+005    5.91149E+004    7.86461E+005
            7940    1.09608E+007    1.54683E+007    1.54683E+007    5.72995E+006    3.59815E+006    1.18701E+007   -8.26545E+006    1.04790E+007    5.75496E+006    1.52542E+007    3.78718E+006   -6.52124E+005    1.08602E+005    1.41747E+006
            7941    1.14921E+007    1.55328E+007    1.55328E+007    5.97301E+006    2.78264E+006    1.27502E+007   -8.09615E+006    1.04237E+007    5.98045E+006    1.49515E+007    3.35654E+006   -7.92331E+005    2.33137E+005    2.52438E+006
            7942    1.28613E+007    1.74330E+007    1.74330E+007    5.99248E+006    3.51216E+006    1.39208E+007   -8.97920E+006    1.23058E+007    5.99262E+006    1.74324E+007    3.51259E+006   -4.56056E+004    9.96275E+003    7.32752E+004
            7943    1.25740E+007    1.74094E+007    1.74094E+007    6.19518E+006    3.81568E+006    1.35937E+007   -9.14008E+006    1.20517E+007    6.20863E+006    1.73909E+007    3.82066E+006   -3.95988E+005    2.76435E+004    2.46285E+005
            7944    1.19138E+007    1.71860E+007    1.71860E+007    6.51962E+006    4.32874E+006    1.28572E+007   -9.34477E+006    1.14474E+007    6.53332E+006    1.71442E+007    4.35681E+006   -4.06424E+005    4.13173E+004    5.82111E+005
            7945    1.13787E+007    1.73021E+007    1.73021E+007    6.89733E+006    5.15144E+006    1.21507E+007   -9.78363E+006    1.10713E+007    6.93075E+006    1.71603E+007    5.25985E+006   -6.81611E+005    7.20013E+004    1.08570E+006
            7946    1.06660E+007    1.70410E+007    1.70410E+007    7.47568E+006    5.53951E+006    1.15015E+007   -1.00187E+007    1.02594E+007    7.49002E+006    1.65572E+007    6.00895E+006   -8.31820E+005    1.52967E+005    2.14332E+006
            7947    1.38067E+007    1.87283E+007    1.87283E+007    6.54392E+006    3.73221E+006    1.49961E+007   -9.66815E+006    1.31391E+007    6.54407E+006    1.87281E+007    3.73226E+006   -4.42804E+004    5.99197E+003    2.40551E+004
            7948    1.34118E+007    1.86677E+007    1.86677E+007    6.77642E+006    4.12999E+006    1.45377E+007   -9.85803E+006    1.28044E+007    6.78997E+006    1.86534E+007    4.13077E+006   -4.02553E+005    1.25122E+004    1.00381E+005
            7949    1.25312E+007    1.83690E+007    1.83690E+007    7.12709E+006    4.85847E+006    1.35106E+007   -1.01182E+007    1.20562E+007    7.14034E+006    1.83523E+007    4.86193E+006   -3.88577E+005    1.38454E+004    2.10511E+005
            7950    1.15477E+007    1.83259E+007    1.83259E+007    7.57793E+006    6.11743E+006    1.22085E+007   -1.06738E+007    1.13372E+007    7.62068E+006    1.82687E+007    6.13193E+006   -6.90015E+005    2.54025E+004    3.96381E+005
            7951    9.58454E+006    1.76368E+007    1.76368E+007    8.41071E+006    7.73013E+006    9.90669E+006   -1.12592E+007    9.52995E+006    8.46300E+006    1.74860E+007    7.82862E+006   -8.44493E+005    5.27229E+004    8.51224E+005
            7952    6.90083E+006    6.04317E+006    6.04317E+006    1.06531E+006   -1.83437E+006    7.87754E+006   -1.75804E+006    5.24101E+006    1.06686E+006    6.00478E+006   -1.79753E+006   -3.81809E+005    3.02375E+005   -2.43538E+005
            7953    8.30513E+006    7.50783E+006    7.50783E+006    1.51863E+006   -1.97309E+006    9.48092E+006   -2.35113E+006    6.30470E+006    1.52393E+006    7.46693E+006   -1.93748E+006   -4.63026E+005    3.07552E+005    2.42576E+005
            7954    9.55998E+006    9.16818E+006    9.16818E+006    2.16985E+006   -1.72428E+006    1.08925E+007   -3.20458E+006    7.43258E+006    2.17665E+006    9.07854E+006   -1.64144E+006   -5.45365E+005    3.17269E+005    7.37807E+005
            7955    1.07159E+007    1.11957E+007    1.11957E+007    3.13638E+006   -9.65085E+005    1.21608E+007   -4.45567E+006    8.66559E+006    3.14355E+006    1.09758E+007   -7.52313E+005   -6.35856E+005    3.12188E+005    1.44796E+006
            7956    1.14747E+007    1.34394E+007    1.34394E+007    4.43824E+006    5.18501E+005    1.29209E+007   -6.13205E+006    9.78888E+006    4.44525E+006    1.30218E+007    9.29156E+005   -7.23371E+005    2.86507E+005    2.14295E+006
            7957    1.01948E+007    1.32113E+007    1.32113E+007    4.41837E+006    2.03643E+006    1.11749E+007   -6.55538E+006    9.53813E+006    4.43961E+006    1.29859E+007    2.24059E+006   -6.14780E+005    1.32838E+005    1.42343E+006
            7958    9.55553E+006    1.27993E+007    1.27993E+007    4.29499E+006    2.45897E+006    1.03403E+007   -6.51775E+006    9.14596E+006    4.31097E+006    1.27051E+007    2.53718E+006   -4.35345E+005    6.54269E+004    8.62055E+005
            7959    9.48019E+006    1.27958E+007    1.27958E+007    4.09837E+006    2.69033E+006    1.01055E+007   -6.52816E+006    9.24054E+006    4.11278E+006    1.27642E+007    2.70751E+006   -3.62293E+005    1.53351E+004    4.08263E+005
            7960    9.43687E+006    1.27324E+007    1.27324E+007    4.01307E+006    2.71281E+006    1.00196E+007   -6.48609E+006    9.23211E+006    4.01301E+006    1.27303E+007    2.71494E+006   -5.51825E+004   -2.38919E+004    1.31077E+005
            7961    9.23035E+006    1.09614E+007    1.09614E+007    3.22154E+006    7.45561E+005    1.02158E+007   -4.97616E+006    8.43335E+006    3.24130E+006    1.07716E+007    9.15573E+005   -5.69621E+005    1.48463E+005    1.22907E+006
            7962    8.24003E+006    1.05036E+007    1.05036E+007    3.17638E+006    1.58333E+006    8.92025E+006   -5.08776E+006    7.88232E+006    3.19471E+006    1.03960E+007    1.67260E+006   -4.35173E+005    6.12213E+004    8.52964E+005
            7963    7.93408E+006    1.04523E+007    1.04523E+007    3.04928E+006    2.07689E+006    8.37545E+006   -5.19284E+006    7.79833E+006    3.06479E+006    1.04118E+007    2.10189E+006   -3.39199E+005   -1.03806E+004    4.55876E+005
            7964    7.73334E+006    1.03437E+007    1.03437E+007    3.01413E+006    2.26164E+006    8.08207E+006   -5.20649E+006    7.65032E+006    3.01040E+006    1.03407E+007    2.26836E+006   -6.47762E+004   -5.79331E+004    1.39296E+005
            7965    8.14868E+006    8.90601E+006    8.90601E+006    2.22783E+006   -1.73495E+005    9.07950E+006   -3.65345E+006    7.28652E+006    2.24554E+006    8.75862E+006   -4.38195E+004   -5.14378E+005    1.56790E+005    9.93516E+005
            7966    7.12537E+006    8.56247E+006    8.56247E+006    2.24070E+006    8.41182E+005    7.72129E+006   -3.88145E+006    6.80575E+006    2.26041E+006    8.44625E+006    9.37695E+005   -4.16272E+005    5.23426E+004    8.25930E+005
            7967    6.59919E+006    8.42503E+006    8.42503E+006    2.16372E+006    1.53321E+006    6.89181E+006   -4.04065E+006    6.53091E+006    2.17853E+006    8.37471E+006    1.56873E+006   -3.08051E+005   -4.15476E+004    4.88698E+005
            7968    6.36636E+006    8.33006E+006    8.33006E+006    2.17090E+006    1.77498E+006    6.55509E+006   -4.09198E+006    6.33858E+006    2.14920E+006    8.32372E+006    1.80302E+006   -7.18428E+004   -9.39799E+004    1.88468E+005
            7969    7.09014E+006    7.22491E+006    7.22491E+006    1.50180E+006   -7.06617E+005    7.93153E+006   -2.67336E+006    6.24297E+006    1.51693E+006    7.12898E+006   -6.25825E+005   -4.51235E+005    1.59779E+005    7.00204E+005
            7970    6.02133E+006    6.87704E+006    6.87704E+006    1.49659E+006    3.73097E+005    6.50395E+006   -2.91558E+006    5.77841E+006    1.51551E+006    6.75873E+006    4.72495E+005   -3.75737E+005    3.98187E+004    7.70324E+005
            7971    5.59090E+006    6.82208E+006    6.82208E+006    1.45925E+006    1.02808E+006    5.79400E+006   -3.10314E+006    5.55331E+006    1.46952E+006    6.75226E+006    1.08763E+006   -2.71773E+005   -6.88249E+004    5.63235E+005
            7972    5.32939E+006    6.70206E+006    6.70206E+006    1.51188E+006    1.24358E+006    5.45848E+006   -3.15251E+006    5.31417E+006    1.43679E+006    6.69386E+006    1.32687E+006   -7.17663E+004   -1.23687E+005    1.95241E+005
            7973    5.68463E+006    5.59836E+006    5.59836E+006    9.48200E+005   -7.38823E+005    6.33719E+006   -1.93591E+006    5.07387E+006    9.55899E+005    5.53297E+006   -6.81124E+005   -3.74464E+005    1.56671E+005    4.82545E+005
            7974    5.15991E+006    5.63750E+006    5.63750E+006    9.69013E+005    9.72326E+004    5.54027E+006   -2.23458E+006    4.99017E+006    9.85612E+005    5.49228E+006    2.25858E+005   -3.28328E+005    2.11228E+004    8.14192E+005
            7975    4.78879E+006    5.50364E+006    5.50364E+006    8.77230E+005    5.67498E+005    4.93614E+006   -2.31612E+006    4.76618E+006    8.79198E+005    5.42015E+006    6.49021E+005   -2.31776E+005   -8.46463E+004    5.86362E+005
            7976    4.54138E+006    5.36528E+006    5.36528E+006    9.63234E+005    6.96349E+005    4.66893E+006   -2.34162E+006    4.52368E+006    8.28896E+005    5.35208E+006    8.43888E+005   -6.95194E+004   -1.37188E+005    2.32035E+005
            7977    3.81277E+006    4.12314E+006    4.12314E+006    4.51618E+005    1.83302E+005    3.93984E+006   -1.58602E+006    3.79144E+006    2.52891E+005    4.11129E+006    3.93884E+005   -6.91614E+004   -1.20614E+005    1.96740E+005
            7978    2.82317E+006    2.62660E+006    2.62660E+006    9.50668E+004   -4.17880E+005    3.04448E+006   -7.67928E+005    2.71534E+006   -4.11417E+005    2.62199E+006    9.32077E+004   -7.18024E+004   -5.12434E+004    8.45879E+004
            7979    4.03647E+006    4.32741E+006    4.32741E+006    3.71220E+005    2.15175E+005    4.11223E+006   -1.63793E+006    4.02968E+006    3.60244E+005    4.24623E+006    3.07327E+005   -1.96421E+005   -8.04890E+004    5.31852E+005
            7980    3.06238E+006    2.95814E+006    2.95814E+006    5.52931E+004   -2.42080E+005    3.20022E+006   -9.23785E+005    3.02965E+006   -2.28334E+005    2.92576E+006    7.39293E+004   -1.98851E+005   -3.43425E+004    2.37855E+005
            7981    4.37709E+006    4.57838E+006    4.57838E+006    5.07298E+005   -5.11156E+004    4.62950E+006   -1.67819E+006    4.29585E+006    5.22858E+005    4.44519E+006    6.65112E+004   -2.88173E+005    3.92938E+003    7.13395E+005
            7982    3.45889E+006    3.48143E+006    3.48143E+006    6.05254E+004   -1.42495E+004    3.49568E+006   -1.17590E+006    3.45707E+006    7.57828E+004    3.42790E+006    2.40145E+004   -2.84699E+005   -2.78633E+003    3.20329E+005
            7983    4.58117E+006    4.58954E+006    4.58954E+006    6.36092E+005   -4.30997E+005    5.02053E+006   -1.59821E+006    4.28796E+006    6.41408E+005    4.50903E+006   -3.55807E+005   -3.18956E+005    1.05775E+005    5.28681E+005
            7984    3.84875E+006    3.97784E+006    3.97784E+006    3.92633E+005   -8.90822E+004    4.06693E+006   -1.42713E+006    3.78003E+006    4.13850E+005    3.92855E+006   -6.10019E+004   -3.20080E+005    3.45105E+004    2.91189E+005
            7985    4.08641E+006    4.28605E+006    4.28605E+006    6.76969E+005   -1.50919E+005    4.43697E+006   -1.60403E+006    3.89096E+006    6.97532E+005    4.25303E+006   -1.38464E+005   -3.12974E+005    6.05804E+004    1.64373E+005
            7986    4.07891E+006    4.34830E+006    4.34830E+006    8.79230E+005   -1.45164E+005    4.49346E+006   -1.69412E+006    3.77286E+006    8.95256E+005    4.32756E+006   -1.40453E+005   -2.64840E+005    6.92871E+004   -3.83374E+004
            7987    4.41852E+006    4.32043E+006    4.32043E+006    6.91945E+005   -6.00081E+005    4.92051E+006   -1.47076E+006    3.95887E+006    6.91454E+005    4.29610E+006   -5.75260E+005   -2.89608E+005    1.66415E+005    9.04409E+004
            7988    3.90923E+006    3.86294E+006    3.86294E+006    6.93661E+005   -5.05368E+005    4.36831E+006   -1.35041E+006    3.45773E+006    6.94802E+005    3.80314E+006   -4.46711E+005   -2.28663E+005    1.67812E+005   -4.19395E+005
            7989    4.68044E+006    3.89119E+006    3.89119E+006    5.55708E+005   -1.45927E+006    5.35047E+006   -9.95876E+005    3.48264E+006    5.51564E+005    3.57438E+006   -1.13831E+006   -2.23507E+005    3.01777E+005   -1.20861E+006
            7990    5.79401E+006    4.80270E+006    4.80270E+006    6.73604E+005   -1.82074E+006    6.62344E+006   -1.21852E+006    4.31129E+006    6.70421E+005    4.69294E+006   -1.70780E+006   -3.04338E+005    3.12032E+005   -7.29758E+005
            7991    7.59778E+006    7.41302E+006    7.41302E+006    1.49937E+006   -1.15609E+006    8.56912E+006   -2.58543E+006    6.42180E+006    1.52067E+006    7.32607E+006   -1.09045E+006    5.93827E+005   -2.69717E+005    5.06924E+005
            7992    8.82223E+006    9.06707E+006    9.06707E+006    2.14634E+006   -8.67043E+005    9.93411E+006   -3.44879E+006    7.52639E+006    2.17091E+006    8.89935E+006   -7.23889E+005    6.97896E+005   -2.75330E+005    1.00232E+006
            7993    9.97300E+006    1.10056E+007    1.10056E+007    3.02366E+006   -1.74114E+005    1.11797E+007   -4.61837E+006    8.70219E+006    3.05040E+006    1.07518E+007    5.29232E+004    8.09785E+005   -2.86303E+005    1.39842E+006
            7994    1.08494E+007    1.31643E+007    1.31643E+007    4.18428E+006    1.10933E+006    1.20550E+007   -6.15265E+006    9.79475E+006    4.21155E+006    1.27780E+007    1.46843E+006    9.11544E+005   -2.66549E+005    1.87946E+006
            7995    9.64718E+006    1.28467E+007    1.28467E+007    3.99151E+006    2.56615E+006    1.02806E+007   -6.46812E+006    9.40590E+006    4.02577E+006    1.27403E+007    2.63828E+006    6.34286E+005   -7.17656E+004    7.92879E+005
            7996    9.58105E+006    1.26679E+007    1.26679E+007    3.58973E+006    2.65289E+006    1.00151E+007   -6.30352E+006    9.47718E+006    3.59415E+006    1.26575E+007    2.65892E+006    2.62543E+005    5.93511E+004    1.67376E+005
            7997    8.29296E+006    1.05569E+007    1.05569E+007    2.91018E+006    1.74168E+006    8.81524E+006   -5.06959E+006    8.10464E+006    2.94734E+006    1.04314E+007    1.83002E+006    5.99856E+005   -4.56964E+004    8.29802E+005
            7998    7.90159E+006    1.02523E+007    1.02523E+007    2.62203E+006    2.10471E+006    8.14754E+006   -4.99300E+006    7.86335E+006    2.61058E+006    1.02384E+007    2.13005E+006    2.30908E+005    1.03064E+005    2.33784E+005
            7999    7.15646E+006    8.55531E+006    8.55531E+006    1.97089E+006    9.38871E+005    7.61644E+006   -3.82169E+006    6.98610E+006    2.01007E+006    8.43137E+006    1.02364E+006    5.46679E+005   -2.06844E+004    7.69582E+005
            8000    6.34251E+006    8.02364E+006    8.02364E+006    1.83732E+006    1.53570E+006    6.48794E+006   -3.79889E+006    6.32635E+006    1.73941E+006    8.01208E+006    1.64518E+006    1.96562E+005    1.49184E+005    1.81174E+005
            8001    5.72626E+006    6.46953E+006    6.46953E+006    1.13617E+006    4.18105E+005    6.05142E+006   -2.67460E+006    5.62363E+006    1.17274E+006    6.36177E+006    4.89302E+005    4.55185E+005    8.44970E+003    6.39985E+005
            8002    5.15670E+006    6.20806E+006    6.20806E+006    1.24442E+006    8.77866E+005    5.33019E+006   -2.77678E+006    5.12727E+006    1.02345E+006    6.18681E+006    1.12009E+006    1.59193E+005    1.87328E+005    2.82613E+005
            8003    4.20076E+006    4.65751E+006    4.65751E+006    6.62549E+005    2.77464E+005    4.38004E+006   -1.86584E+006    4.16077E+006    3.98130E+005    4.63652E+006    5.62871E+005    1.24349E+005    1.85200E+005    2.60926E+005
            8004    2.97694E+006    2.83711E+006    2.83711E+006    1.47008E+005   -3.61227E+005    3.19834E+006   -8.74297E+005    2.87689E+006   -3.45724E+005    2.82786E+006    1.40749E+005    1.00829E+005    8.21950E+004    1.25077E+005
            8005    4.57038E+006    4.88299E+006    4.88299E+006    5.13302E+005    1.35389E+005    4.74760E+006   -1.84389E+006    4.53502E+006    5.39205E+005    4.76541E+006    2.27061E+005    3.32052E+005    4.76226E+004    6.51484E+005
            8006    3.32221E+006    3.25497E+006    3.25497E+006    2.58775E+004   -1.53127E+005    3.40809E+006   -1.04257E+006    3.31133E+006   -1.31940E+005    3.20913E+006    5.05205E+004    2.60833E+005    3.51503E+004    2.84491E+005
            8007    3.71386E+006    3.79878E+006    3.79878E+006    1.86471E+005   -8.92373E+003    3.80770E+006   -1.32544E+006    3.70227E+006    2.11716E+005    3.73756E+006    2.70487E+004    3.54811E+005   -1.22496E+004    3.15093E+005
            8008    4.11143E+006    4.27906E+006    4.27906E+006    5.15372E+005   -1.08753E+005    4.38781E+006   -1.56189E+006    4.00277E+006    5.42475E+005    4.23033E+006   -8.71314E+004    3.79480E+005   -6.25124E+004    2.17200E+005
            8009    4.18827E+006    4.45237E+006    4.45237E+006    7.72122E+005   -1.05003E+005    4.55738E+006   -1.70650E+006    3.97367E+006    7.94803E+005    4.42234E+006   -9.76526E+004    3.29202E+005   -8.12850E+004   -3.54407E+004
            8010    3.80040E+006    4.18081E+006    4.18081E+006    8.84821E+005    2.37548E+004    4.15705E+006   -1.69646E+006    3.57089E+006    8.99948E+005    4.15251E+006    3.69230E+004    2.48332E+005   -7.13987E+004   -1.92948E+005
            8011    4.78497E+006    4.82801E+006    4.82801E+006    6.36220E+005   -3.85187E+005    5.21320E+006   -1.69302E+006    4.52984E+006    6.40117E+005    4.70768E+006   -2.68747E+005    4.13174E+005   -1.29948E+005    6.49409E+005
            8012    4.61019E+006    4.38180E+006    4.38180E+006    6.00662E+005   -7.53933E+005    5.13573E+006   -1.40951E+006    4.12552E+006    5.84454E+005    4.34364E+006   -6.99568E+005    3.63309E+005   -2.44330E+005    1.54575E+005
            8013    3.96805E+006    3.87008E+006    3.87008E+006    6.42584E+005   -5.60207E+005    4.43029E+006   -1.31749E+006    3.52149E+006    6.26488E+005    3.80704E+006   -4.81077E+005    2.90569E+005   -2.58218E+005   -3.77187E+005
            8014    3.41950E+006    3.48206E+006    3.48206E+006    6.95748E+005   -3.33961E+005    3.81602E+006   -1.28128E+006    3.04019E+006    6.80166E+005    3.35483E+006   -1.91143E+005    2.17960E+005   -2.36110E+005   -6.16370E+005
            8015    3.73756E+006    3.30192E+006    3.30192E+006    5.65352E+005   -9.56473E+005    4.25840E+006   -9.70268E+005    2.90667E+006    5.56635E+005    2.80643E+006   -4.52260E+005    1.82601E+005   -3.13327E+005   -1.31979E+006
            8016    4.68383E+006    3.93877E+006    3.93877E+006    5.75053E+005   -1.41084E+006    5.34961E+006   -1.03433E+006    3.53122E+006    5.70368E+005    3.64701E+006   -1.11440E+006    2.69786E+005   -3.44529E+005   -1.13669E+006
            8017    5.62074E+006    4.67485E+006    4.67485E+006    6.29806E+005   -1.74324E+006    6.41808E+006   -1.18714E+006    4.25243E+006    6.29390E+005    4.55073E+006   -1.61870E+006    3.51454E+005   -3.41979E+005   -7.35987E+005
            8018    6.48403E+006    5.83979E+006    5.83979E+006    9.53829E+005   -1.51626E+006    7.35605E+006   -1.75912E+006    5.25726E+006    9.64875E+005    5.79205E+006   -1.47957E+006    4.77820E+005   -3.01691E+005   -5.15406E+004
            8019    1.14098E+007    1.51944E+007    1.51944E+007    4.60520E+006    3.11112E+006    1.20833E+007   -7.63690E+006    1.11866E+007    4.61371E+006    1.51842E+007    3.11281E+006    3.04531E+005    2.32541E+004    1.31011E+005
            8020    1.09460E+007    1.51441E+007    1.51441E+007    5.13890E+006    3.45301E+006    1.16911E+007   -7.91200E+006    1.06480E+007    5.17258E+006    1.50602E+007    3.50319E+006    6.52170E+005   -7.85360E+004    6.97725E+005
            8021    1.11991E+007    1.52540E+007    1.52540E+007    5.53771E+006    3.00571E+006    1.22483E+007   -7.93247E+006    1.05258E+007    5.56825E+006    1.47897E+007    3.43947E+006    9.87026E+005   -2.15068E+005    2.09448E+006
            8022    1.29866E+007    1.73452E+007    1.73452E+007    5.47763E+006    3.47278E+006    1.38724E+007   -8.76521E+006    1.26314E+007    5.48748E+006    1.73349E+007    3.47327E+006    3.41670E+005    2.97602E+003    8.25074E+004
            8023    1.20414E+007    1.71047E+007    1.71047E+007    6.13312E+006    4.22210E+006    1.28826E+007   -9.15332E+006    1.16929E+007    6.16888E+006    1.70469E+007    4.24418E+006    6.59608E+005   -5.92963E+004    4.85389E+005
            8024    1.08865E+007    1.68508E+007    1.68508E+007    6.83760E+006    5.26266E+006    1.15881E+007   -9.65036E+006    1.06256E+007    6.88070E+006    1.64788E+007    5.59155E+006    1.02749E+006   -1.36078E+005    1.74483E+006
            8025    1.39161E+007    1.86095E+007    1.86095E+007    5.99381E+006    3.68240E+006    1.49271E+007   -9.42857E+006    1.34741E+007    6.00434E+006    1.85989E+007    3.68248E+006    3.64481E+005   -7.71545E+002    3.22992E+004
            8026    1.26749E+007    1.82328E+007    1.82328E+007    6.71003E+006    4.65654E+006    1.35763E+007   -9.86647E+006    1.22923E+007    6.74741E+006    1.81929E+007    4.65913E+006    6.59743E+005   -2.33268E+004    1.68889E+005
            8027    1.03363E+007    1.76490E+007    1.76490E+007    7.65134E+006    7.00434E+006    1.06446E+007   -1.07682E+007    1.02906E+007    7.73785E+006    1.74939E+007    7.07291E+006    1.04085E+006   -4.75773E+004    7.00712E+005
            8028    3.69701E+006    4.04940E+006    4.04940E+006    8.64937E+005   -5.00688E+003    4.05441E+006   -1.63644E+006    3.45528E+006    8.77465E+005    4.02374E+006    8.12240E+003   -2.28536E+005   -7.25301E+004    1.87467E+005
            8029    3.31199E+006    3.37150E+006    3.37150E+006    6.81289E+005   -3.27622E+005    3.69912E+006   -1.24172E+006    2.93519E+006    6.66484E+005    3.23293E+006   -1.74252E+005   -2.03099E+005   -2.28615E+005    6.42278E+005
            8030    3.68968E+006    3.24292E+006    3.24292E+006    5.48988E+005   -9.62512E+005    4.20543E+006   -9.43131E+005    2.85697E+006    5.40320E+005    2.73842E+006   -4.49351E+005   -1.77839E+005   -3.11134E+005    1.32186E+006
            8031    3.19501E+006    3.55289E+006    3.55289E+006    8.20716E+005    3.98246E+004    3.51306E+006   -1.47114E+006    2.96869E+006    8.25294E+005    3.53486E+006    5.32759E+004   -1.45213E+005   -5.98802E+004    1.86625E+005
            8032    2.68994E+006    2.89082E+006    2.89082E+006    6.76861E+005   -1.02842E+005    2.99366E+006   -1.15495E+006    2.41540E+006    6.54713E+005    2.76703E+006    4.30953E+004   -1.27469E+005   -1.87721E+005    5.63744E+005
            8033    2.68527E+006    2.56648E+006    2.56648E+006    5.24100E+005   -4.75153E+005    3.04164E+006   -8.71810E+005    2.20461E+006    5.07263E+005    2.00916E+006    9.90034E+004   -1.05436E+005   -2.59807E+005    1.14591E+006
            8034    2.79153E+006    3.13093E+006    3.13093E+006    7.50478E+005    5.84887E+004    3.07244E+006   -1.31330E+006    2.58779E+006    7.48943E+005    3.12588E+006    6.50777E+004   -6.58261E+004   -5.08438E+004    9.81676E+004
            8035    2.17365E+006    2.45666E+006    2.45666E+006    6.40098E+005    4.84338E+004    2.40823E+006   -1.04840E+006    1.97998E+006    6.04765E+005    2.41267E+006    1.27759E+005   -6.01706E+004   -1.55800E+005    3.06945E+005
            8036    1.58621E+006    1.80098E+006    1.80098E+006    5.10909E+005    2.99546E+004    1.77102E+006   -7.80614E+005    1.40758E+006    4.51457E+005    1.48879E+006    4.01597E+005   -4.83567E+004   -2.13337E+005    6.43492E+005
            8037    2.66982E+006    2.99274E+006    2.99274E+006    7.20242E+005    5.23889E+004    2.94035E+006   -1.25512E+006    2.47118E+006    7.16748E+005    2.99268E+006    5.59450E+004    8.19069E+003   -4.84130E+004   -9.70045E+003
            8038    1.98896E+006    2.30841E+006    2.30841E+006    6.33956E+005    1.09891E+005    2.19852E+006   -1.01742E+006    1.82367E+006    5.89647E+005    2.30751E+006    1.55100E+005    8.54618E+003   -1.46111E+005   -4.21203E+004
            8039    9.00384E+005    1.27594E+006    1.27594E+006    6.41931E+005    2.45340E+005    1.03060E+006   -7.21070E+005    6.55779E+005    4.08889E+005    1.27541E+006    4.78914E+005    3.82602E+003   -1.95368E+005   -1.88435E+004
            8040    2.85423E+006    3.20409E+006    3.20409E+006    7.65864E+005    6.45763E+004    3.13951E+006   -1.34484E+006    2.64979E+006    7.65516E+005    3.19602E+006    7.29916E+004    8.36996E+004   -5.18647E+004   -1.25731E+005
            8041    2.26683E+006    2.53887E+006    2.53887E+006    6.49843E+005    2.52061E+004    2.51366E+006   -1.07131E+006    2.05946E+006    6.16887E+005    2.48151E+006    1.15514E+005    7.28947E+004   -1.61326E+005   -3.56570E+005
            8042    1.68433E+006    1.87890E+006    1.87890E+006    5.14454E+005   -3.61061E+003    1.88251E+006   -7.96582E+005    1.48860E+006    4.62275E+005    1.53585E+006    3.91618E+005    5.14335E+004   -2.16033E+005   -6.96567E+005
            8043    3.32141E+006    3.66794E+006    3.66794E+006    8.28938E+005    1.53242E+004    3.65261E+006   -1.50407E+006    3.08502E+006    8.35191E+005    3.64819E+006    2.88241E+004    1.64011E+005   -6.27331E+004   -1.89523E+005
            8044    2.84610E+006    3.02926E+006    3.02926E+006    6.90580E+005   -1.39639E+005    3.16890E+006   -1.19340E+006    2.55158E+006    6.72542E+005    2.89299E+006    1.46734E+004    1.46387E+005   -1.93195E+005   -6.05565E+005
            8045    2.74818E+006    2.63230E+006    2.63230E+006    5.39324E+005   -4.79884E+005    3.11218E+006   -8.97246E+005    2.26015E+006    5.24042E+005    2.07962E+006    8.80711E+004    1.15236E+005   -2.64195E+005   -1.15689E+006
            8046    1.12021E+007    1.52605E+007    1.52605E+007    5.54145E+006    3.00894E+006    1.22515E+007   -7.93695E+006    1.05287E+007    5.57193E+006    1.47952E+007    3.44371E+006    9.87770E+005    2.15342E+005   -2.09701E+006
            8047    1.09551E+007    1.51598E+007    1.51598E+007    5.14506E+006    3.45960E+006    1.17002E+007   -7.92148E+006    1.06576E+007    5.17882E+006    1.50780E+007    3.50766E+006    6.50758E+005    7.75476E+004   -6.82530E+005
            8048    1.14353E+007    1.52294E+007    1.52294E+007    4.61901E+006    3.11755E+006    1.21119E+007   -7.65533E+006    1.12103E+007    4.62754E+006    1.52193E+007    3.11919E+006    3.04931E+005   -2.30039E+004   -1.28852E+005
            8049    1.08745E+007    1.68579E+007    1.68579E+007    6.84916E+006    5.28663E+006    1.15713E+007   -9.66457E+006    1.06176E+007    6.89221E+006    1.64865E+007    5.61501E+006    1.02827E+006    1.35551E+005   -1.74101E+006
            8050    1.20554E+007    1.71038E+007    1.71038E+007    6.12472E+006    4.20294E+006    1.29008E+007   -9.14381E+006    1.17033E+007    6.16033E+006    1.70463E+007    4.22476E+006    6.58311E+005    5.92990E+004   -4.82703E+005
            8051    1.29968E+007    1.73592E+007    1.73592E+007    5.48272E+006    3.47555E+006    1.38837E+007   -8.77250E+006    1.26411E+007    5.49255E+006    1.73489E+007    3.47605E+006    3.41545E+005   -2.84813E+003   -8.36378E+004
            8052    1.03266E+007    1.76504E+007    1.76504E+007    7.65680E+006    7.02022E+006    1.06302E+007   -1.07758E+007    1.02824E+007    7.74411E+006    1.74977E+007    7.08565E+006    1.04121E+006    4.67797E+004   -6.81309E+005
            8053    1.26816E+007    1.82275E+007    1.82275E+007    6.70266E+006    4.64159E+006    1.35859E+007   -9.85726E+006    1.22963E+007    6.73993E+006    1.81874E+007    4.64450E+006    6.59217E+005    2.41426E+004   -1.79653E+005
            8054    1.39141E+007    1.86082E+007    1.86082E+007    5.99345E+006    3.68381E+006    1.49244E+007   -9.42849E+006    1.34727E+007    6.00399E+006    1.85976E+007    3.68388E+006    3.64603E+005    1.34747E+003   -3.22546E+004
            8055    4.62124E+006    5.31553E+006    5.31553E+006    9.25781E+005    4.93215E+005    4.82232E+006   -2.24484E+006    4.57536E+006    6.32654E+005    5.30412E+006    7.97759E+005   -1.18142E+005    2.06055E+005   -1.89833E+005
            8056    5.44686E+006    6.63905E+006    6.63905E+006    1.39668E+006    1.00846E+006    5.63059E+006   -3.01473E+006    5.41561E+006    1.15479E+006    6.62946E+006    1.25995E+006   -1.46033E+005    1.91798E+005   -1.69942E+005
            8057    6.51185E+006    8.26416E+006    8.26416E+006    1.91197E+006    1.60361E+006    6.66055E+006   -3.92658E+006    6.49539E+006    1.79684E+006    8.25602E+006    1.72688E+006   -1.67005E+005    1.54293E+005   -1.54139E+005
            8058    7.91638E+006    1.02937E+007    1.02937E+007    2.62142E+006    2.15397E+006    8.13974E+006   -5.02304E+006    7.88523E+006    2.60173E+006    1.02874E+007    2.17997E+006   -1.84555E+005    1.06349E+005   -1.20676E+005
            8059    9.60598E+006    1.26525E+007    1.26525E+007    3.55030E+006    2.61164E+006    1.00409E+007   -6.27148E+006    9.50198E+006    3.55119E+006    1.26470E+007    2.61626E+006   -1.93418E+005    5.73934E+004   -1.17257E+005
            8060    4.80462E+006    5.43291E+006    5.43291E+006    7.59662E+005    5.06900E+005    4.92601E+006   -2.23316E+006    4.78963E+006    7.32705E+005    5.35235E+006    6.14419E+005   -2.74820E+005    1.28602E+005   -5.49738E+005
            8061    5.62662E+006    6.73036E+006    6.73036E+006    1.26580E+006    9.54599E+005    5.77576E+006   -2.98359E+006    5.60720E+006    1.25781E+006    6.66014E+006    1.03281E+006   -3.17737E+005    1.19014E+005   -5.36097E+005
            8062    6.64970E+006    8.30552E+006    8.30552E+006    1.88244E+006    1.45027E+006    6.85525E+006   -3.87941E+006    6.61800E+006    1.89115E+006    8.25479E+006    1.49229E+006   -3.51638E+005    9.25095E+004   -4.57815E+005
            8063    8.01034E+006    1.03234E+007    1.03234E+007    2.69067E+006    1.98252E+006    8.34090E+006   -4.99887E+006    7.93946E+006    2.70646E+006    1.02827E+007    2.00743E+006   -3.68422E+005    5.94332E+004   -4.33310E+005
            8064    9.57330E+006    1.26373E+007    1.26373E+007    3.64856E+006    2.57060E+006    1.00667E+007   -6.28547E+006    9.43531E+006    3.66348E+006    1.26071E+007    2.58589E+006   -3.66867E+005    2.67896E+004   -3.89788E+005
            8065    5.18218E+006    5.60402E+006    5.60402E+006    8.04534E+005    1.09330E+005    5.49469E+006   -2.17263E+006    5.07568E+006    8.36471E+005    5.46751E+006    2.13897E+005   -4.26373E+005   -3.85548E+003   -7.28521E+005
            8066    6.07973E+006    6.86658E+006    6.86658E+006    1.26845E+006    3.98897E+005    6.46769E+006   -2.84464E+006    5.93741E+006    1.30820E+006    6.74675E+006    4.78977E+005   -5.15284E+005   -2.32684E+004   -6.80608E+005
            8067    7.23898E+006    8.58992E+006    8.58992E+006    1.94738E+006    8.74305E+005    7.71562E+006   -3.80387E+006    7.05671E+006    1.99237E+006    8.46474E+006    9.54497E+005   -6.05215E+005   -4.17043E+004   -7.33154E+005
            8068    8.40260E+006    1.05378E+007    1.05378E+007    2.79832E+006    1.60060E+006    8.93719E+006   -4.97890E+006    8.20725E+006    2.84486E+006    1.04143E+007    1.67754E+006   -6.82027E+005   -6.43744E+004   -7.52901E+005
            8069    9.77692E+006    1.28472E+007    1.28472E+007    3.84647E+006    2.44529E+006    1.04019E+007   -6.37966E+006    9.54711E+006    3.89439E+006    1.27284E+007    2.51619E+006   -7.48148E+005   -8.04342E+004   -7.69324E+005
            8070    5.64828E+006    5.55494E+006    5.55494E+006    8.95243E+005   -7.26921E+005    6.28186E+006   -1.90775E+006    5.08323E+006    9.06404E+005    5.47834E+006   -6.61480E+005   -4.79358E+005   -2.04361E+005   -4.31761E+005
            8071    7.03753E+006    7.15027E+006    7.15027E+006    1.42207E+006   -7.05579E+005    7.85585E+006   -2.62225E+006    6.25006E+006    1.44571E+006    7.03523E+006   -6.14179E+005   -5.97042E+005   -2.19949E+005   -6.61464E+005
            8072    8.09420E+006    8.81483E+006    8.81483E+006    2.13937E+006   -1.88120E+005    9.00295E+006   -3.58869E+006    7.28230E+006    2.16911E+006    8.63939E+006   -4.24223E+004   -7.00334E+005   -2.21463E+005   -9.71744E+005
            8073    9.13244E+006    1.07808E+007    1.07808E+007    3.09600E+006    6.84682E+005    1.00961E+007   -4.85383E+006    8.37011E+006    3.12948E+006    1.05538E+007    8.78259E+005   -7.90888E+005   -2.19471E+005   -1.22187E+006
            8074    1.00304E+007    1.29065E+007    1.29065E+007    4.25165E+006    1.91353E+006    1.09929E+007   -6.35721E+006    9.38739E+006    4.28736E+006    1.26383E+007    2.14598E+006   -8.54364E+005   -2.01988E+005   -1.42478E+006
            8075    1.13870E+007    1.32538E+007    1.32538E+007    4.15442E+006    4.84335E+005    1.27695E+007   -5.96419E+006    9.91921E+006    4.17274E+006    1.28349E+007    8.84947E+005   -9.02601E+005   -3.19373E+005   -2.04878E+006
            8076    1.05850E+007    1.10192E+007    1.10192E+007    2.92573E+006   -9.59319E+005    1.19785E+007   -4.32854E+006    8.75040E+006    2.94326E+006    1.07899E+007   -7.47486E+005   -7.92128E+005   -3.55528E+005   -1.36988E+006
            8077    9.43397E+006    9.03698E+006    9.03698E+006    2.03014E+006   -1.68987E+006    1.07269E+007   -3.12575E+006    7.49504E+006    2.04650E+006    8.93187E+006   -1.60111E+006   -6.79658E+005   -3.65543E+005   -6.79383E+005
            8078    8.21150E+006    7.43360E+006    7.43360E+006    1.43408E+006   -1.92486E+006    9.35846E+006   -2.31427E+006    6.36503E+006    1.44661E+006    7.37567E+006   -1.87946E+006   -5.73765E+005   -3.58039E+005   -1.99632E+005
            8079    6.85490E+006    6.00951E+006    6.00951E+006    1.01938E+006   -1.80661E+006    7.81612E+006   -1.74076E+006    5.28327E+006    1.02541E+006    5.95214E+006   -1.75527E+006   -4.70791E+005   -3.56421E+005    2.82314E+005
            8080    5.75079E+006    4.79812E+006    4.79812E+006    6.80360E+005   -1.77236E+006    6.57048E+006   -1.23537E+006    4.31407E+006    6.79702E+005    4.66953E+006   -1.64311E+006   -3.64247E+005   -3.58090E+005    7.54339E+005
            8081    4.67539E+006    3.90281E+006    3.90281E+006    5.62394E+005   -1.44033E+006    5.34315E+006   -1.00829E+006    3.49427E+006    5.57670E+005    3.57121E+006   -1.10401E+006   -2.56827E+005   -3.43944E+005    1.21880E+006
            8082    3.93775E+006    3.82715E+006    3.82715E+006    6.54698E+005   -5.79986E+005    4.40714E+006   -1.30062E+006    3.46029E+006    6.37667E+005    3.75771E+006   -4.93516E+005   -2.77897E+005   -2.62150E+005    4.18109E+005
            8083    4.04636E+006    4.33617E+006    4.33617E+006    7.89296E+005   -7.12442E+004    4.40741E+006   -1.68474E+006    3.83228E+006    8.09703E+005    4.30845E+006   -6.39385E+004   -3.08074E+005   -7.94436E+004    5.23685E+004
            8084    4.43164E+006    4.28336E+006    4.28336E+006    6.46290E+005   -6.52592E+005    4.93595E+006   -1.42569E+006    3.96828E+006    6.30987E+005    4.24830E+006   -6.02229E+005   -3.56417E+005   -2.45364E+005   -6.07573E+004
            8085    4.06236E+006    4.27323E+006    4.27323E+006    5.91720E+005   -8.49824E+004    4.35821E+006   -1.59332E+006    3.93254E+006    6.16913E+005    4.23419E+006   -7.11386E+004   -3.57974E+005   -6.80937E+004   -1.38303E+005
            8086    3.85777E+006    3.96006E+006    3.96006E+006    3.16606E+005   -8.11859E+004    4.04125E+006   -1.39849E+006    3.81122E+006    3.41637E+005    3.90654E+006   -5.26928E+004   -3.62616E+005   -4.02422E+004   -2.66619E+005
            8087    3.48075E+006    3.47400E+006    3.47400E+006    1.56882E+004   -2.87703E+004    3.50277E+006   -1.15364E+006    3.48012E+006    2.40051E+004    3.41849E+006    1.84279E+004   -3.22564E+005    5.42318E+003   -2.95501E+005
            8088    3.09616E+006    2.97048E+006    2.97048E+006    6.08365E+004   -2.83429E+005    3.25390E+006   -9.15961E+005    3.05265E+006   -2.63861E+005    2.93869E+006    7.30536E+004   -2.22243E+005    5.29183E+004   -2.15075E+005
            8089    2.85932E+006    2.64755E+006    2.64755E+006    9.54052E+004   -4.42541E+005    3.09009E+006   -7.66804E+005    2.74198E+006   -4.30474E+005    2.64304E+006    8.78508E+004   -7.79018E+004    7.50423E+004   -7.87272E+004
            8090    4.56960E+006    4.55810E+006    4.55810E+006    5.72897E+005   -4.29472E+005    4.98757E+006   -1.56718E+006    4.31171E+006    5.75010E+005    4.47949E+006   -3.52968E+005   -3.82997E+005   -1.40779E+005   -4.66331E+005
            8091    4.37771E+006    4.54918E+006    4.54918E+006    4.14356E+005   -3.65222E+004    4.58570E+006   -1.64234E+006    4.32501E+006    4.40137E+005    4.42606E+006    6.08138E+004   -3.45941E+005    1.28287E+004   -6.48433E+005
            8092    4.05996E+006    4.29938E+006    4.29938E+006    3.30263E+005    1.54296E+005    4.14508E+006   -1.59465E+006    4.05136E+006    2.69913E+005    4.22411E+006    2.89916E+005   -2.33428E+005    1.16560E+005   -4.90607E+005
            8093    3.84698E+006    4.08325E+006    4.08325E+006    4.60190E+005    4.58795E+004    4.03737E+006   -1.52977E+006    3.79630E+006    1.44030E+005    4.07287E+006    3.72422E+005   -8.65624E+004    1.79010E+005   -1.73268E+005
            8094    5.15159E+006    6.20154E+006    6.20154E+006    1.24309E+006    8.76401E+005    5.32514E+006   -2.77368E+006    5.12211E+006    1.02110E+006    6.18012E+006    1.11981E+006    1.58968E+005   -1.87211E+005   -2.84013E+005
            8095    6.34767E+006    8.03475E+006    8.03475E+006    1.84257E+006    1.54225E+006    6.49250E+006   -3.80652E+006    6.33166E+006    1.74499E+006    8.02329E+006    1.65128E+006    1.96113E+005   -1.48537E+005   -1.79928E+005
            8096    7.94338E+006    1.03130E+007    1.03130E+007    2.64637E+006    2.11905E+006    8.19390E+006   -5.02613E+006    7.90385E+006    2.63554E+006    1.02993E+007    2.14357E+006    2.30794E+005   -1.02240E+005   -2.31596E+005
            8097    9.63271E+006    1.27402E+007    1.27402E+007    3.61878E+006    2.66695E+006    1.00733E+007   -6.34199E+006    9.52604E+006    3.62332E+006    1.27298E+007    2.67286E+006    2.63461E+005   -5.88902E+004   -1.67039E+005
            8098    5.72918E+006    6.47236E+006    6.47236E+006    1.13619E+006    4.17898E+005    6.05446E+006   -2.67548E+006    5.62654E+006    1.17273E+006    6.36487E+006    4.88847E+005    4.55153E+005   -8.34249E+003   -6.39016E+005
            8099    7.17244E+006    8.57728E+006    8.57728E+006    1.97863E+006    9.43527E+005    7.63376E+006   -3.83315E+006    7.00144E+006    2.01775E+006    8.45279E+006    1.02890E+006    5.47010E+005    2.06604E+004   -7.73320E+005
            8100    8.30390E+006    1.05889E+007    1.05889E+007    2.92790E+006    1.76470E+006    8.82417E+006   -5.09383E+006    8.11757E+006    2.96501E+006    1.04638E+007    1.85264E+006    6.00214E+005    4.57676E+004   -8.27930E+005
            8101    9.65903E+006    1.28793E+007    1.28793E+007    4.00990E+006    2.58820E+006    1.02911E+007   -6.49246E+006    9.41931E+006    4.04420E+006    1.27734E+007    2.65982E+006    6.34031E+005    7.10492E+004   -7.90858E+005
            8102    1.08486E+007    1.31556E+007    1.31556E+007    4.17922E+006    1.10036E+006    1.20552E+007   -6.14506E+006    9.79090E+006    4.20627E+006    1.27693E+007    1.45959E+006    9.10843E+005    2.67271E+005   -1.87959E+006
            8103    9.96650E+006    1.09950E+007    1.09950E+007    3.01766E+006   -1.77098E+005    1.11721E+007   -4.61187E+006    8.69734E+006    3.04431E+006    1.07427E+007    4.86431E+004    8.08999E+005    2.86548E+005   -1.39297E+006
            8104    8.81395E+006    9.06364E+006    9.06364E+006    2.14532E+006   -8.59912E+005    9.92355E+006   -3.44968E+006    7.52453E+006    2.16993E+006    8.89587E+006   -7.16751E+005    6.97503E+005    2.74461E+005   -1.00223E+006
            8105    7.60634E+006    7.42826E+006    7.42826E+006    1.50381E+006   -1.14931E+006    8.57757E+006   -2.59426E+006    6.43443E+006    1.52533E+006    7.34079E+006   -1.08335E+006    5.95079E+005    2.68947E+005   -5.10419E+005
            8106    6.49361E+006    5.84664E+006    5.84664E+006    9.55194E+005   -1.52070E+006    7.36734E+006   -1.76038E+006    5.26248E+006    9.66359E+005    5.79884E+006   -1.48407E+006    4.78356E+005    3.01805E+005    5.18412E+004
            8107    5.61614E+006    4.67338E+006    4.67338E+006    6.31624E+005   -1.73944E+006    6.41282E+006   -1.18852E+006    4.24900E+006    6.31202E+005    4.54864E+006   -1.61428E+006    3.51019E+005    3.41907E+005    7.38371E+005
            8108    4.67334E+006    3.93409E+006    3.93409E+006    5.76387E+005   -1.40323E+006    5.33733E+006   -1.03575E+006    3.52600E+006    5.71690E+005    3.64235E+006   -1.10680E+006    2.69426E+005    3.44070E+005    1.13531E+006
            8109    3.74112E+006    3.30696E+006    3.30696E+006    5.67102E+005   -9.55341E+005    4.26231E+006   -9.72909E+005    2.91055E+006    5.58430E+005    2.81340E+006   -4.53105E+005    1.83109E+005    3.13181E+005    1.31809E+006
            8110    3.42314E+006    3.48286E+006    3.48286E+006    6.94782E+005   -3.37674E+005    3.82053E+006   -1.27999E+006    3.04210E+006    6.79113E+005    3.35528E+006   -1.94427E+005    2.18005E+005    2.36695E+005    6.17674E+005
            8111    3.80354E+006    4.18378E+006    4.18378E+006    8.84692E+005    2.34841E+004    4.16030E+006   -1.69732E+006    3.57416E+006    8.99834E+005    4.15531E+006    3.68200E+004    2.49291E+005    7.23408E+004    1.93512E+005
            8112    3.97626E+006    3.87657E+006    3.87657E+006    6.44113E+005   -5.63494E+005    4.44006E+006   -1.31906E+006    3.52688E+006    6.28227E+005    3.81312E+006   -4.84160E+005    2.91312E+005    2.58639E+005    3.79280E+005
            8113    4.18882E+006    4.45018E+006    4.45018E+006    7.71319E+005   -1.08763E+005    4.55894E+006   -1.70424E+006    3.97274E+006    7.93816E+005    4.42018E+006   -1.01262E+005    3.28856E+005    8.22291E+004    3.63017E+004
            8114    4.62148E+006    4.38702E+006    4.38702E+006    6.00342E+005   -7.62679E+005    5.14970E+006   -1.40823E+006    4.13163E+006    5.84194E+005    4.34894E+006   -7.08450E+005    3.63922E+005    2.45415E+005   -1.52057E+005
            8115    4.11479E+006    4.28461E+006    4.28461E+006    5.20703E+005   -1.08565E+005    4.39318E+006   -1.56558E+006    4.00439E+006    5.47717E+005    4.23623E+006   -8.72026E+004    3.78970E+005    6.30525E+004   -2.14883E+005
            8116    4.78854E+006    4.83379E+006    4.83379E+006    6.38980E+005   -3.83357E+005    5.21715E+006   -1.69647E+006    4.53314E+006    6.42828E+005    4.71293E+006   -2.66342E+005    4.13712E+005    1.30130E+005   -6.51437E+005
            8117    3.71967E+006    3.80664E+006    3.80664E+006    1.91421E+005   -9.34919E+003    3.81599E+006   -1.32957E+006    3.70745E+006    2.16803E+005    3.74542E+006    2.64886E+004    3.55502E+005    1.28078E+004   -3.14855E+005
            8118    3.32549E+006    3.25895E+006    3.25895E+006    2.50448E+004   -1.51118E+005    3.41007E+006   -1.04429E+006    3.31497E+006   -1.29797E+005    3.21279E+006    4.98858E+004    2.62072E+005   -3.48854E+004   -2.85551E+005
            8119    2.97608E+006    2.83488E+006    2.83488E+006    1.45451E+005   -3.62471E+005    3.19735E+006   -8.72621E+005    2.87613E+006   -3.47075E+005    2.82543E+006    1.39507E+005    1.01903E+005   -8.17102E+004   -1.26485E+005
            8120    4.57172E+006    4.88427E+006    4.88427E+006    5.13442E+005    1.35174E+005    4.74910E+006   -1.84430E+006    4.53631E+006    5.39379E+005    4.76643E+006    2.27083E+005    3.32317E+005   -4.76303E+004   -6.52416E+005
            8121    4.19455E+006    4.64739E+006    4.64739E+006    6.58470E+005    2.73734E+005    4.37366E+006   -1.85987E+006    4.15457E+006    3.93664E+005    4.62637E+006    5.59564E+005    1.24336E+005   -1.84778E+005   -2.60956E+005
            8122    1.14749E+007    1.53670E+007    1.53670E+007    5.61814E+006    2.72119E+006    1.26458E+007   -7.90210E+006    1.06043E+007    5.63784E+006    1.47887E+007    3.27974E+006   -9.88089E+005   -2.46980E+005   -2.42789E+006
            8123    1.07337E+007    1.50328E+007    1.50328E+007    5.51462E+006    3.39873E+006    1.16341E+007   -7.98206E+006    1.02487E+007    5.55690E+006    1.47769E+007    3.61239E+006   -8.89560E+005   -1.66196E+005   -1.41874E+006
            8124    1.10957E+007    1.51950E+007    1.51950E+007    4.98502E+006    3.38686E+006    1.18081E+007   -7.85562E+006    1.08322E+007    5.03702E+006    1.50889E+007    3.44096E+006   -8.08876E+005   -8.59808E+004   -7.06870E+005
            8125    1.12549E+007    1.50895E+007    1.50895E+007    4.67910E+006    3.14704E+006    1.19424E+007   -7.63853E+006    1.10166E+007    4.69192E+006    1.50671E+007    3.15655E+006   -3.66417E+005   -9.43706E+002   -3.35169E+005
            8126    1.14119E+007    1.51431E+007    1.51431E+007    4.57189E+006    3.04435E+006    1.20987E+007   -7.58644E+006    1.11784E+007    4.57538E+006    1.51386E+007    3.04532E+006   -1.99551E+005    2.21744E+004   -9.10095E+004
            8127    1.07835E+007    1.69341E+007    1.69341E+007    7.05989E+006    5.42747E+006    1.15067E+007   -9.80716E+006    1.05001E+007    7.08484E+006    1.64493E+007    5.88735E+006   -1.03630E+006   -1.54165E+005   -2.05348E+006
            8128    1.10889E+007    1.67609E+007    1.67609E+007    6.64902E+006    4.90224E+006    1.18587E+007   -9.43739E+006    1.07729E+007    6.70448E+006    1.65816E+007    5.02612E+006   -8.95413E+005   -1.11472E+005   -1.09105E+006
            8129    1.21798E+007    1.72352E+007    1.72352E+007    6.02870E+006    4.27279E+006    1.29624E+007   -9.17891E+006    1.18900E+007    6.08882E+006    1.71472E+007    4.30069E+006   -8.61335E+005   -6.63719E+004   -5.32059E+005
            8130    1.27099E+007    1.72253E+007    1.72253E+007    5.59737E+006    3.65672E+006    1.35686E+007   -8.82647E+006    1.23700E+007    5.60946E+006    1.72091E+007    3.66086E+006   -3.77589E+005   -1.16959E+004   -2.31926E+005
            8131    1.29803E+007    1.72817E+007    1.72817E+007    5.45887E+006    3.39194E+006    1.38897E+007   -8.71083E+006    1.26021E+007    5.46236E+006    1.72779E+007    3.39226E+006   -2.03217E+005    1.08736E+003   -6.70640E+004
            8132    9.83838E+006    1.76052E+007    1.76052E+007    7.97152E+006    7.57407E+006    1.00311E+007   -1.10502E+007    9.82029E+006    8.03139E+006    1.74221E+007    7.69722E+006   -1.05630E+006   -5.03514E+004   -8.17125E+005
            8133    1.12218E+007    1.77458E+007    1.77458E+007    7.31403E+006    5.87322E+006    1.18726E+007   -1.03110E+007    1.10108E+007    7.38749E+006    1.76548E+007    5.89076E+006   -8.92842E+005   -3.67801E+004   -4.11235E+005
            8134    1.28060E+007    1.84141E+007    1.84141E+007    6.62928E+006    4.78664E+006    1.36275E+007   -9.94335E+006    1.25025E+007    6.69423E+006    1.83455E+007    4.79032E+006   -8.78625E+005   -2.70764E+004   -1.95639E+005
            8135    1.35614E+007    1.84795E+007    1.84795E+007    6.14097E+006    3.95976E+006    1.45198E+007   -9.52675E+006    1.31580E+007    6.15233E+006    1.84675E+007    3.96041E+006   -3.74934E+005   -6.85419E+003   -9.41545E+004
            8136    1.39195E+007    1.85617E+007    1.85617E+007    5.99457E+006    3.60040E+006    1.49613E+007   -9.38555E+006    1.34445E+007    5.99791E+006    1.85583E+007    3.60044E+006   -2.04956E+005   -2.53543E+003   -2.39939E+004
            8137    3.69593E+006    3.24441E+006    3.24441E+006    5.47332E+005   -9.68433E+005    4.21284E+006   -9.41103E+005    2.85947E+006    5.38708E+005    2.73811E+006   -4.53508E+005   -1.78023E+005    3.11707E+005   -1.32529E+006
            8138    3.30411E+006    3.36778E+006    3.36778E+006    6.82799E+005   -3.22124E+005    3.68990E+006   -1.24282E+006    2.92951E+006    6.67915E+005    3.23011E+006   -1.69575E+005   -2.02082E+005    2.27700E+005   -6.39545E+005
            8139    3.68484E+006    4.03857E+006    4.03857E+006    8.64734E+005   -2.54845E+003    4.04112E+006   -1.63359E+006    3.44378E+006    8.77095E+005    4.01300E+006    1.06622E+004   -2.26575E+005    7.20138E+004   -1.88688E+005
            8140    2.67959E+006    2.56355E+006    2.56355E+006    5.24836E+005   -4.71489E+005    3.03504E+006   -8.72298E+005    2.20086E+006    5.07940E+005    2.00571E+006    1.03242E+005   -1.05068E+005    2.59594E+005   -1.14480E+006
            8141    2.68703E+006    2.88801E+006    2.88801E+006    6.76775E+005   -1.02539E+005    2.99054E+006   -1.15408E+006    2.41243E+006    6.54544E+005    2.76518E+006    4.25174E+004   -1.26963E+005    1.87467E+005   -5.61306E+005
            8142    3.18444E+006    3.54165E+006    3.54165E+006    8.18667E+005    4.01344E+004    3.50152E+006   -1.46682E+006    2.95874E+006    8.23070E+005    3.52397E+006    5.34141E+004   -1.43431E+005    5.96914E+004   -1.84660E+005
            8143    1.57519E+006    1.79144E+006    1.79144E+006    5.09869E+005    3.28821E+004    1.75856E+006   -7.78063E+005    1.39831E+006    4.49496E+005    1.48098E+006    4.03708E+005   -4.77969E+004    2.13184E+005   -6.38940E+005
            8144    2.17206E+006    2.45430E+006    2.45430E+006    6.39667E+005    4.75837E+004    2.40671E+006   -1.04718E+006    1.97793E+006    6.04067E+005    2.41057E+006    1.26912E+005   -5.97689E+004    1.56193E+005   -3.05968E+005
            8145    2.78783E+006    3.12673E+006    3.12673E+006    7.49645E+005    5.82694E+004    3.06846E+006   -1.31155E+006    2.58417E+006    7.48030E+005    3.12183E+006    6.47782E+004   -6.44269E+004    5.07736E+004   -9.67941E+004
            8146    9.00797E+005    1.27683E+006    1.27683E+006    6.42404E+005    2.45776E+005    1.03105E+006   -7.21669E+005    6.56316E+005    4.09510E+005    1.27560E+006    4.79894E+005    4.49969E+003    1.95561E+005    2.90479E+004
            8147    1.98931E+006    2.30933E+006    2.30933E+006    6.34532E+005    1.10454E+005    2.19888E+006   -1.01811E+006    1.82404E+006    5.90209E+005    2.30840E+006    1.55709E+005    8.88510E+003    1.46151E+005    4.28266E+004
            8148    2.67116E+006    2.99448E+006    2.99448E+006    7.20750E+005    5.26962E+004    2.94178E+006   -1.25597E+006    2.47250E+006    7.17260E+005    2.99440E+006    5.62648E+004    9.42681E+003    4.84711E+004    1.05852E+004
            8149    1.70355E+006    1.89070E+006    1.89070E+006    5.12616E+005   -1.39566E+004    1.90466E+006   -7.96454E+005    1.50340E+006    4.62071E+005    1.53917E+006    3.88119E+005    5.22530E+004    2.16827E+005    7.08888E+005
            8150    2.26676E+006    2.53756E+006    2.53756E+006    6.48880E+005    2.38615E+004    2.51369E+006   -1.07010E+006    2.05911E+006    6.15783E+005    2.48004E+006    1.14472E+005    7.31258E+004    1.61751E+005    3.56985E+005
            8151    2.86331E+006    3.21308E+006    3.21308E+006    7.67297E+005    6.34931E+004    3.14958E+006   -1.34796E+006    2.65804E+006    7.67098E+005    3.20487E+006    7.19022E+004    8.52812E+004    5.16902E+004    1.26428E+005
            8152    2.76296E+006    2.64345E+006    2.64345E+006    5.40545E+005   -4.85808E+005    3.12926E+006   -8.99396E+005    2.27043E+006    5.25326E+005    2.09240E+006    8.04642E+004    1.16176E+005    2.64887E+005    1.15934E+006
            8153    2.84032E+006    3.02430E+006    3.02430E+006    6.89676E+005   -1.37898E+005    3.16220E+006   -1.19203E+006    2.54714E+006    6.71519E+005    2.88651E+006    1.80508E+004    1.46104E+005    1.93491E+005    6.08397E+005
            8154    3.33128E+006    3.67922E+006    3.67922E+006    8.31326E+005    1.59446E+004    3.66327E+006   -1.50883E+006    3.09459E+006    8.37754E+005    3.65938E+006    2.93593E+004    1.65732E+005    6.28031E+004    1.89020E+005
            8155    1.14032E+007    1.51289E+007    1.51289E+007    4.56501E+006    3.03986E+006    1.20890E+007   -7.57793E+006    1.11703E+007    4.56850E+006    1.51245E+007    3.04079E+006   -1.99144E+005   -2.17947E+004    8.92278E+004
            8156    1.12571E+007    1.50908E+007    1.50908E+007    4.67947E+006    3.14539E+006    1.19455E+007   -7.63857E+006    1.10182E+007    4.69244E+006    1.50683E+007    3.15494E+006   -3.68649E+005    1.06549E+003    3.35880E+005
            8157    1.11004E+007    1.52061E+007    1.52061E+007    4.99466E+006    3.39111E+006    1.18150E+007   -7.86395E+006    1.08352E+007    5.04677E+006    1.50988E+007    3.44622E+006   -8.11416E+005    8.71371E+004    7.13248E+005
            8158    1.07347E+007    1.50438E+007    1.50438E+007    5.52585E+006    3.40805E+006    1.16358E+007   -7.99258E+006    1.02488E+007    5.56796E+006    1.47844E+007    3.62533E+006   -8.90935E+005    1.66485E+005    1.43156E+006
            8159    1.14744E+007    1.53787E+007    1.53787E+007    5.62729E+006    2.73484E+006    1.26438E+007   -7.91360E+006    1.06066E+007    5.64698E+006    1.47998E+007    3.29405E+006   -9.88314E+005    2.46573E+005    2.42918E+006
            8160    1.29805E+007    1.72802E+007    1.72802E+007    5.45762E+006    3.38985E+006    1.38903E+007   -8.70921E+006    1.26020E+007    5.46107E+006    1.72764E+007    3.39019E+006   -2.01933E+005   -1.23845E+003    6.85905E+004
            8161    1.27114E+007    1.72238E+007    1.72238E+007    5.59428E+006    3.65371E+006    1.35701E+007   -8.82393E+006    1.23715E+007    5.60613E+006    1.72079E+007    3.65781E+006   -3.73767E+005    1.12986E+004    2.31149E+005
            8162    1.21782E+007    1.72295E+007    1.72295E+007    6.02582E+006    4.26797E+006    1.29616E+007   -9.17444E+006    1.18877E+007    6.08545E+006    1.71419E+007    4.29598E+006   -8.58126E+005    6.65928E+004    5.33217E+005
            8163    1.10806E+007    1.67692E+007    1.67692E+007    6.66085E+006    4.92197E+006    1.18472E+007   -9.45067E+006    1.07672E+007    6.71629E+006    1.65874E+007    5.04832E+006   -8.97523E+005    1.11602E+005    1.10146E+006
            8164    1.07823E+007    1.69373E+007    1.69373E+007    7.06395E+006    5.43205E+006    1.15053E+007   -9.81111E+006    1.04991E+007    7.08827E+006    1.64477E+007    5.89738E+006   -1.03764E+006    1.54496E+005    2.06515E+006
            8165    1.39149E+007    1.85577E+007    1.85577E+007    5.99359E+006    3.60207E+006    1.49557E+007   -9.38446E+006    1.34408E+007    5.99691E+006    1.85544E+007    3.60211E+006   -2.04441E+005    2.77375E+003    2.31281E+004
            8166    1.35659E+007    1.84795E+007    1.84795E+007    6.13841E+006    3.95401E+006    1.45255E+007   -9.52398E+006    1.31614E+007    6.14968E+006    1.84676E+007    3.95464E+006   -3.73474E+005    6.79387E+003    9.32507E+004
            8167    1.28054E+007    1.84159E+007    1.84159E+007    6.63118E+006    4.78927E+006    1.36266E+007   -9.94545E+006    1.25022E+007    6.69606E+006    1.83475E+007    4.79283E+006   -8.77980E+005    2.66306E+004    1.92480E+005
            8168    1.12079E+007    1.77353E+007    1.77353E+007    7.31342E+006    5.87940E+006    1.18559E+007   -1.03094E+007    1.09987E+007    7.38691E+006    1.76448E+007    5.89637E+006   -8.92194E+005    3.65459E+004    4.03477E+005
            8169    9.83423E+006    1.75883E+007    1.75883E+007    7.96118E+006    7.55934E+006    1.00290E+007   -1.10363E+007    9.81574E+006    8.02130E+006    1.74048E+007    7.68273E+006   -1.05629E+006    5.07548E+004    8.19570E+005
            8170    6.85369E+006    6.00975E+006    6.00975E+006    1.02040E+006   -1.80496E+006    7.81472E+006   -1.74173E+006    5.28249E+006    1.02639E+006    5.95271E+006   -1.75391E+006   -4.71050E+005    3.56346E+005   -2.77522E+005
            8171    8.21799E+006    7.43719E+006    7.43719E+006    1.43606E+006   -1.92932E+006    9.36651E+006   -2.31464E+006    6.36489E+006    1.44848E+006    7.37926E+006   -1.88381E+006   -5.73502E+005    3.58479E+005    2.01404E+005
            8172    9.45042E+006    9.05987E+006    9.05987E+006    2.04100E+006   -1.68573E+006    1.07456E+007   -3.13838E+006    7.50781E+006    2.05742E+006    8.95362E+006   -1.59591E+006   -6.81034E+005    3.65522E+005    6.87927E+005
            8173    1.05978E+007    1.10495E+007    1.10495E+007    2.94110E+006   -9.42170E+005    1.19916E+007   -4.34947E+006    8.76810E+006    2.95874E+006    1.08173E+007   -7.27609E+005   -7.94561E+005    3.55095E+005    1.38146E+006
            8174    1.13835E+007    1.32746E+007    1.32746E+007    4.17068E+006    5.11505E+005    1.27631E+007   -5.98559E+006    9.92482E+006    4.18910E+006    1.28524E+007    9.15270E+005   -9.03703E+005    3.17975E+005    2.05727E+006
            8175    1.00362E+007    1.28992E+007    1.28992E+007    4.24550E+006    1.89705E+006    1.10022E+007   -6.34726E+006    9.38764E+006    4.28105E+006    1.26311E+007    2.12966E+006   -8.54343E+005    2.03214E+005    1.42552E+006
            8176    9.77020E+006    1.28333E+007    1.28333E+007    3.84239E+006    2.43622E+006    1.03971E+007   -6.37064E+006    9.53855E+006    3.89042E+006    1.27132E+007    2.50833E+006   -7.51654E+005    8.25985E+004    7.73846E+005
            8177    9.57099E+006    1.26355E+007    1.26355E+007    3.64940E+006    2.57096E+006    1.00645E+007   -6.28528E+006    9.43284E+006    3.66472E+006    1.26047E+007    2.58639E+006   -3.71437E+005   -2.54285E+004    3.92067E+005
            8178    9.60419E+006    1.26510E+007    1.26510E+007    3.55035E+006    2.61210E+006    1.00389E+007   -6.27115E+006    9.50026E+006    3.55121E+006    1.26454E+007    2.61682E+006   -1.94200E+005   -5.79844E+004    1.18605E+005
            8179    9.11954E+006    1.07466E+007    1.07466E+007    3.07737E+006    6.62755E+005    1.00839E+007   -4.82891E+006    8.35375E+006    3.11086E+006    1.05205E+007    8.55389E+005   -7.89105E+005    2.19390E+005    1.21813E+006
            8180    8.40103E+006    1.05192E+007    1.05192E+007    2.78797E+006    1.57936E+006    8.93987E+006   -4.96219E+006    8.20201E+006    2.83461E+006    1.03943E+007    1.65767E+006   -6.83775E+005    6.54241E+004    7.59537E+005
            8181    8.01095E+006    1.03202E+007    1.03202E+007    2.68913E+006    1.97701E+006    8.34323E+006   -4.99546E+006    7.93927E+006    2.70528E+006    1.02788E+007    2.00227E+006   -3.70562E+005   -5.85918E+004    4.38022E+005
            8182    7.91433E+006    1.02941E+007    1.02941E+007    2.62289E+006    2.15724E+006    8.13687E+006   -5.02475E+006    7.88342E+006    2.60326E+006    1.02877E+007    2.18326E+006   -1.86204E+005   -1.06202E+005    1.20971E+005
            8183    8.06853E+006    8.76574E+006    8.76574E+006    2.11895E+006   -2.11529E+005    8.97727E+006   -3.55772E+006    7.25133E+006    2.14845E+006    8.59210E+006   -6.73949E+004   -6.98141E+005    2.22757E+005    9.62875E+005
            8184    7.22380E+006    8.55390E+006    8.55390E+006    1.93170E+006    8.50408E+005    7.70349E+006   -3.77867E+006    7.03827E+006    1.97651E+006    8.42830E+006    9.31192E+005   -6.05788E+005    4.40524E+004    7.33502E+005
            8185    6.66860E+006    8.32648E+006    8.32648E+006    1.89007E+006    1.44770E+006    6.87877E+006   -3.88808E+006    6.63547E+006    1.89998E+006    8.27435E+006    1.48993E+006   -3.55382E+005   -9.14278E+004    4.66124E+005
            8186    6.53605E+006    8.29757E+006    8.29757E+006    1.92112E+006    1.61283E+006    6.68474E+006   -3.94384E+006    6.51966E+006    1.81009E+006    8.28897E+006    1.73246E+006   -1.69439E+005   -1.53529E+005    1.61438E+005
            8187    7.03146E+006    7.13437E+006    7.13437E+006    1.41723E+006   -7.16910E+005    7.85128E+006   -2.61156E+006    6.23788E+006    1.44080E+006    7.01974E+006   -6.25848E+005   -5.96185E+005    2.20650E+005    6.59214E+005
            8188    6.07620E+006    6.85860E+006    6.85860E+006    1.26544E+006    3.93551E+005    6.46504E+006   -2.83920E+006    5.93301E+006    1.30535E+006    6.73885E+006    4.73392E+005   -5.16151E+005    2.35954E+004    6.79169E+005
            8189    5.64050E+006    6.74615E+006    6.74615E+006    1.26933E+006    9.55119E+005    5.79103E+006   -2.99020E+006    5.62075E+006    1.26328E+006    6.67644E+006    1.03089E+006   -3.20195E+005   -1.16887E+005    5.33020E+005
            8190    5.46902E+006    6.67737E+006    6.67737E+006    1.41229E+006    1.02500E+006    5.65237E+006   -3.03822E+006    5.43804E+006    1.17202E+006    6.66824E+006    1.27438E+006   -1.46615E+005   -1.91428E+005    1.62698E+005
            8191    5.64727E+006    5.54994E+006    5.54994E+006    8.92188E+005   -7.31249E+005    6.28118E+006   -1.90362E+006    5.08115E+006    9.03218E+005    5.47373E+006   -6.66077E+005   -4.79048E+005    2.05002E+005    4.29104E+005
            8192    5.17527E+006    5.60440E+006    5.60440E+006    8.06498E+005    1.20241E+005    5.48416E+006   -2.17705E+006    5.07139E+006    8.38645E+005    5.46780E+006    2.24695E+005   -4.25623E+005    1.83732E+003    7.28440E+005
            8193    4.81746E+006    5.44862E+006    5.44862E+006    7.64350E+005    5.08193E+005    4.94043E+006   -2.24039E+006    4.80210E+006    7.36797E+005    5.36851E+006    6.15859E+005   -2.73514E+005   -1.29471E+005    5.49450E+005
            8194    4.63608E+006    5.34293E+006    5.34293E+006    9.38076E+005    5.05881E+005    4.83705E+006   -2.26229E+006    4.59043E+006    6.45468E+005    5.33074E+006    8.10672E+005   -1.19321E+005   -2.06230E+005    1.98230E+005
            8195    3.86530E+006    4.10967E+006    4.10967E+006    4.67372E+005    5.45008E+004    4.05517E+006   -1.54385E+006    3.81522E+006    1.54659E+005    4.09921E+006    3.77668E+005   -8.69616E+004   -1.79888E+005    1.74398E+005
            8196    2.86353E+006    2.65412E+006    2.65412E+006    9.64880E+004   -4.39552E+005    3.09367E+006   -7.70352E+005    2.74723E+006   -4.27279E+005    2.64957E+006    8.87609E+004   -7.84179E+004   -7.55677E+004    7.89348E+004
            8197    4.05867E+006    4.30096E+006    4.30096E+006    3.34059E+005    1.56373E+005    4.14459E+006   -1.59713E+006    4.04990E+006    2.70943E+005    4.22594E+006    2.94512E+005   -2.32598E+005   -1.17550E+005    4.89784E+005
            8198    3.09937E+006    2.97601E+006    2.97601E+006    6.24389E+004   -2.80618E+005    3.25662E+006   -9.19276E+005    3.05621E+006   -2.60809E+005    2.94390E+006    7.47376E+004   -2.23368E+005   -5.34294E+004    2.16351E+005
            8199    4.37062E+006    4.54302E+006    4.54302E+006    4.11815E+005   -3.30000E+004    4.57602E+006   -1.64061E+006    4.31926E+006    4.37534E+005    4.41961E+006    6.46937E+004   -3.44555E+005   -1.38115E+004    6.49363E+005
            8200    3.48401E+006    3.47641E+006    3.47641E+006    1.53345E+004   -3.00859E+004    3.50649E+006   -1.15389E+006    3.48334E+006    2.44452E+004    3.42110E+006    1.61117E+004   -3.22704E+005   -4.88329E+003    2.94490E+005
            8201    4.56672E+006    4.55591E+006    4.55591E+006    5.72211E+005   -4.28014E+005    4.98393E+006   -1.56670E+006    4.30980E+006    5.74241E+005    4.47691E+006   -3.51041E+005   -3.83044E+005    1.40660E+005    4.68105E+005
            8202    3.85481E+006    3.96006E+006    3.96006E+006    3.18290E+005   -7.72868E+004    4.03734E+006   -1.40035E+006    3.80874E+006    3.43394E+005    3.90662E+006   -4.89498E+004   -3.62362E+005    3.98092E+004    2.66068E+005
            8203    4.06441E+006    4.27464E+006    4.27464E+006    5.93518E+005   -8.71151E+004    4.36176E+006   -1.59368E+006    3.93312E+006    6.18641E+005    4.23576E+006   -7.33541E+004   -3.57410E+005    6.82717E+004    1.37594E+005
            8204    4.04221E+006    4.33351E+006    4.33351E+006    7.92144E+005   -7.03320E+004    4.40384E+006   -1.68511E+006    3.82689E+006    8.12377E+005    4.30592E+006   -6.29751E+004   -3.06404E+005    7.94745E+004   -5.69171E+004
            8205    4.42841E+006    4.27884E+006    4.27884E+006    6.44854E+005   -6.53665E+005    4.93250E+006   -1.42334E+006    3.96493E+006    6.29541E+005    4.24391E+006   -6.03423E+005   -3.55867E+005    2.45516E+005    5.71357E+004
            8206    3.92620E+006    3.81935E+006    3.81935E+006    6.54891E+005   -5.74404E+005    4.39375E+006   -1.29995E+006    3.45165E+006    6.37839E+005    3.74930E+006   -4.87303E+005   -2.76646E+005    2.61537E+005   -4.21203E+005
            8207    4.68793E+006    3.90995E+006    3.90995E+006    5.61948E+005   -1.44778E+006    5.35773E+006   -1.00804E+006    3.50116E+006    5.57287E+005    3.57813E+006   -1.11130E+006   -2.57458E+005    3.44493E+005   -1.22088E+006
            8208    5.77039E+006    4.80701E+006    4.80701E+006    6.77718E+005   -1.78633E+006    6.59334E+006   -1.23280E+006    4.32432E+006    6.77075E+005    4.67873E+006   -1.65741E+006   -3.65100E+005    3.58864E+005   -7.54173E+005
            8209    7.53797E+006    7.33805E+006    7.33805E+006    1.39387E+006   -1.14049E+006    8.47854E+006   -2.53047E+006    6.46969E+006    1.42241E+006    7.22427E+006   -1.05526E+006    7.49027E+005   -3.53028E+005    4.42879E+005
            8210    8.73433E+006    8.95000E+006    8.95000E+006    2.01120E+006   -8.58037E+005    9.80804E+006   -3.36772E+006    7.55948E+006    2.04641E+006    8.74903E+006   -6.92268E+005    9.09727E+005   -3.72296E+005    9.32416E+005
            8211    9.87592E+006    1.08349E+007    1.08349E+007    2.84912E+006   -2.08118E+005    1.10430E+007   -4.49197E+006    8.71181E+006    2.88410E+006    1.05330E+007    5.88374E+004    1.09603E+006   -4.15651E+005    1.33094E+006
            8212    1.07567E+007    1.29457E+007    1.29457E+007    3.98478E+006    1.01656E+006    1.19292E+007   -5.98236E+006    9.76973E+006    4.02046E+006    1.24935E+007    1.43316E+006    1.29325E+006   -4.12802E+005    1.80467E+006
            8213    9.91345E+006    1.27396E+007    1.27396E+007    3.27487E+006    2.43135E+006    1.03083E+007   -6.14861E+006    9.83223E+006    3.36015E+006    1.25995E+007    2.48619E+006    9.40648E+005   -2.04690E+004    6.87220E+005
            8214    9.75589E+006    1.24691E+007    1.24691E+007    3.00212E+006    2.44793E+006    1.00212E+007   -5.97305E+006    9.72038E+006    2.98910E+006    1.24586E+007    2.47145E+006    2.40231E+005    1.06423E+005    2.07364E+005
            8215    8.45571E+006    1.04360E+007    1.04360E+007    2.36141E+006    1.64486E+006    8.79118E+006   -4.81411E+006    8.38700E+006    2.44470E+006    1.02852E+007    1.71241E+006    8.45202E+005    7.90233E+003    7.31332E+005
            8216    8.10917E+006    1.01264E+007    1.01264E+007    2.19072E+006    1.85426E+006    8.27216E+006   -4.72380E+006    8.09344E+006    2.09345E+006    1.01094E+007    1.96856E+006    2.62050E+005    1.64807E+005    2.57506E+005
            8217    7.23076E+006    8.44111E+006    8.44111E+006    1.59143E+006    8.81614E+005    7.55950E+006   -3.63805E+006    7.15175E+006    1.66833E+006    8.30108E+006    9.44746E+005    7.32399E+005    2.67058E+004    6.72362E+005
            8218    6.54170E+006    7.94235E+006    7.94235E+006    1.64520E+006    1.18083E+006    6.76152E+006   -3.58946E+006    6.50447E+006    1.32757E+006    7.92686E+006    1.51395E+006    2.52001E+005    2.19182E+005    1.86115E+005
            8219    5.75669E+006    6.37684E+006    6.37684E+006    8.89498E+005    3.84126E+005    5.99272E+006   -2.55016E+006    5.70646E+006    9.49450E+005    6.26503E+006    4.35983E+005    5.70884E+005    3.98750E+004    5.50319E+005
            8220    5.29508E+006    6.14414E+006    6.14414E+006    1.16613E+006    5.80651E+005    5.56349E+006   -2.63031E+006    5.22151E+006    7.35786E+005    6.12121E+006    1.03392E+006    2.10345E+005    2.64674E+005    2.63861E+005
            8221    4.26216E+006    4.60483E+006    4.60483E+006    6.53480E+005    8.82746E+004    4.51656E+006   -1.78220E+006    4.17660E+006    2.43529E+005    4.58513E+006    5.17925E+005    1.56159E+005    2.58214E+005    2.30435E+005
            8222    2.97048E+006    2.82931E+006    2.82931E+006    1.55912E+005   -3.68426E+005    3.19774E+006   -8.72266E+005    2.86358E+006   -3.38762E+005    2.82189E+006    1.33666E+005    9.60456E+004    1.18737E+005    1.06528E+005
            8223    4.55410E+006    4.81476E+006    4.81476E+006    3.95476E+005    1.36869E+005    4.67789E+006   -1.78237E+006    4.53753E+006    4.26297E+005    4.70758E+006    2.13230E+005    3.87303E+005    8.33838E+004    5.72124E+005
            8224    3.32326E+006    3.23091E+006    3.23091E+006    1.65412E+004   -1.91477E+005    3.42239E+006   -1.01866E+006    3.30857E+006   -1.67572E+005    3.19134E+006    3.22092E+004    2.61194E+005    4.67350E+004    2.46121E+005
            8225    3.73738E+006    3.73621E+006    3.73621E+006    1.09327E+005   -1.02653E+005    3.83886E+006   -1.24763E+006    3.72382E+006    1.26122E+005    3.67791E+006   -6.11527E+004    3.67241E+005   -3.43351E+004    2.85451E+005
            8226    4.14168E+006    4.19678E+006    4.19678E+006    4.03772E+005   -2.22274E+005    4.41906E+006   -1.45943E+006    4.03316E+006    4.20394E+005    4.14550E+006   -1.87616E+005    4.01962E+005   -1.04576E+005    2.04070E+005
            8227    4.21700E+006    4.36197E+006    4.36197E+006    6.39521E+005   -2.17815E+005    4.57979E+006   -1.59456E+006    4.01383E+006    6.54673E+005    4.32712E+006   -1.98116E+005    3.56884E+005   -1.30838E+005   -3.49281E+004
            8228    3.83262E+006    4.09353E+006    4.09353E+006    7.51936E+005   -9.00918E+004    4.18362E+006   -1.58512E+006    3.61561E+006    7.62548E+005    4.06247E+006   -6.96488E+004    2.73817E+005   -1.14838E+005   -1.79097E+005
            8229    4.73691E+006    4.80298E+006    4.80298E+006    5.55575E+005   -3.05353E+005    5.10833E+006   -1.68440E+006    4.55588E+006    5.69651E+005    4.69364E+006   -2.10089E+005    4.63384E+005   -1.16116E+005    5.54620E+005
            8230    4.57922E+006    4.38420E+006    4.38420E+006    5.59235E+005   -6.90007E+005    5.07420E+006   -1.41781E+006    4.16924E+006    5.39871E+005    4.34243E+006   -6.28875E+005    3.98639E+005   -2.62439E+005    7.35468E+004
            8231    3.97776E+006    3.88947E+006    3.88947E+006    6.02944E+005   -5.32577E+005    4.42205E+006   -1.31995E+006    3.58501E+006    5.70452E+005    3.81549E+006   -4.26106E+005    3.04355E+005   -2.97272E+005   -4.17251E+005
            8232    3.44334E+006    3.49441E+006    3.49441E+006    6.36503E+005   -3.28463E+005    3.82288E+006   -1.26748E+006    3.11668E+006    6.02728E+005    3.35461E+006   -1.54884E+005    2.35952E+005   -2.81331E+005   -6.37822E+005
            8233    3.80236E+006    3.32469E+006    3.32469E+006    5.77652E+005   -1.01502E+006    4.33971E+006   -9.62443E+005    2.89510E+006    5.54182E+005    2.80834E+006   -4.75193E+005    2.25713E+005   -4.26723E+005   -1.32886E+006
            8234    4.73485E+006    3.97331E+006    3.97331E+006    5.86651E+005   -1.43710E+006    5.41041E+006   -1.04095E+006    3.54543E+006    5.67747E+005    3.65442E+006   -1.09931E+006    3.25470E+005   -4.59491E+005   -1.15691E+006
            8235    5.62624E+006    4.67017E+006    4.67017E+006    6.15743E+005   -1.75315E+006    6.42333E+006   -1.17759E+006    4.26604E+006    6.03645E+005    4.51613E+006   -1.58701E+006    4.34421E+005   -4.62832E+005   -7.67769E+005
            8236    6.46655E+006    5.80189E+006    5.80189E+006    8.82076E+005   -1.52247E+006    7.32436E+006   -1.72050E+006    5.31108E+006    8.87815E+005    5.72463E+006   -1.45095E+006    6.03002E+005   -4.15189E+005   -1.02556E+005
            8237    1.15157E+007    1.49010E+007    1.49010E+007    3.94432E+006    2.89779E+006    1.20032E+007   -7.24771E+006    1.14080E+007    3.94570E+006    1.48945E+007    2.90295E+006    2.07213E+005    5.48465E+004    1.76357E+005
            8238    1.13465E+007    1.50855E+007    1.50855E+007    4.25486E+006    3.28519E+006    1.18003E+007   -7.54183E+006    1.12528E+007    4.34279E+006    1.49592E+007    3.32348E+006    1.01528E+006   -3.29369E+004    5.99830E+005
            8239    1.11287E+007    1.49869E+007    1.49869E+007    5.30688E+006    2.82778E+006    1.21591E+007   -7.70719E+006    1.04800E+007    5.35035E+006    1.44257E+007    3.34548E+006    1.47687E+006   -3.58670E+005    2.02815E+006
            8240    1.30201E+007    1.69617E+007    1.69617E+007    4.77438E+006    3.24404E+006    1.37177E+007   -8.32671E+006    1.28154E+007    4.77650E+006    1.69583E+007    3.24531E+006    1.70627E+005    2.17521E+004    1.17117E+005
            8241    1.25689E+007    1.71020E+007    1.71020E+007    5.12164E+006    4.01735E+006    1.30846E+007   -8.74699E+006    1.24591E+007    5.21300E+006    1.69937E+007    4.03430E+006    1.06691E+006   -3.38749E+004    4.08249E+005
            8242    1.08559E+007    1.65606E+007    1.65606E+007    6.57950E+006    5.00238E+006    1.15582E+007   -9.38082E+006    1.05936E+007    6.65548E+006    1.60522E+007    5.43483E+006    1.60959E+006   -2.46583E+005    1.69689E+006
            8243    1.39050E+007    1.81714E+007    1.81714E+007    5.27006E+006    3.44344E+006    1.47280E+007   -8.96165E+006    1.36311E+007    5.27176E+006    1.81696E+007    3.44359E+006    1.48507E+005    4.56789E+003    4.63347E+004
            8244    1.32847E+007    1.82737E+007    1.82737E+007    5.62578E+006    4.43269E+006    1.38410E+007   -9.44404E+006    1.31633E+007    5.72071E+006    1.81769E+007    4.43452E+006    1.09398E+006   -1.00704E+004    1.41283E+005
            8245    1.03356E+007    1.73523E+007    1.73523E+007    7.30683E+006    6.74922E+006    1.06031E+007   -1.04695E+007    1.03017E+007    7.50757E+006    1.70241E+007    6.87666E+006    1.67646E+006   -8.77588E+004    6.83731E+005
            8246    3.72619E+006    3.96793E+006    3.96793E+006    7.38223E+005   -1.08887E+005    4.07681E+006   -1.53242E+006    3.49956E+006    7.46672E+005    3.93927E+006   -8.86795E+004   -2.54890E+005   -1.13608E+005    1.76476E+005
            8247    3.33320E+006    3.38086E+006    3.38086E+006    6.25742E+005   -3.24194E+005    3.70505E+006   -1.22747E+006    3.00528E+006    5.89031E+005    3.23246E+006   -1.39083E+005   -2.15096E+005   -2.79309E+005    6.56968E+005
            8248    3.75531E+006    3.26898E+006    3.26898E+006    5.67272E+005   -1.01920E+006    4.28819E+006   -9.39018E+005    2.83964E+006    5.42355E+005    2.74512E+006   -4.70421E+005   -2.15959E+005   -4.24785E+005    1.33070E+006
            8249    3.22213E+006    3.48345E+006    3.48345E+006    7.11768E+005   -5.19212E+004    3.53537E+006   -1.38110E+006    3.00823E+006    7.13046E+005    3.46439E+006   -3.41429E+004   -1.64056E+005   -9.06982E+004    1.75828E+005
            8250    2.71019E+006    2.88699E+006    2.88699E+006    6.12129E+005   -1.11586E+005    2.99858E+006   -1.12918E+006    2.47843E+006    5.63169E+005    2.75665E+006    6.77130E+004   -1.40817E+005   -2.38549E+005    5.69003E+005
            8251    2.74483E+006    2.57182E+006    2.57182E+006    5.45302E+005   -5.51896E+005    3.12371E+006   -8.55074E+005    2.16166E+006    5.06181E+005    2.00476E+006    5.42843E+004   -1.29695E+005   -3.67637E+005    1.14761E+006
            8252    2.81430E+006    3.07480E+006    3.07480E+006    6.58962E+005   -1.54311E+004    3.09023E+006   -1.23944E+006    2.62309E+006    6.53884E+005    3.06940E+006   -4.95425E+003   -7.59918E+004   -7.35953E+004    9.40041E+004
            8253    2.18847E+006    2.44055E+006    2.44055E+006    5.86578E+005    2.64525E+004    2.41410E+006   -1.01786E+006    2.01753E+006    5.10610E+005    2.39525E+006    1.47722E+005   -6.39511E+004   -2.06760E+005    3.06286E+005
            8254    1.64818E+006    1.79454E+006    1.79454E+006    5.56240E+005   -7.61929E+004    1.87073E+006   -7.58194E+005    1.33092E+006    4.45970E+005    1.47737E+006    3.51246E+005   -5.69550E+004   -3.12755E+005    6.43651E+005
            8255    2.69101E+006    2.94080E+006    2.94080E+006    6.33792E+005   -1.54314E+004    2.95623E+006   -1.18639E+006    2.50555E+006    6.26607E+005    2.94072E+006   -8.16910E+003    1.07692E+004   -6.81926E+004   -8.70651E+003
            8256    2.00173E+006    2.28755E+006    2.28755E+006    5.88984E+005    8.06683E+004    2.20688E+006   -9.85734E+005    1.84796E+006    4.95857E+005    2.28667E+006    1.74679E+005    6.06610E+003   -1.96842E+005   -4.18097E+004
            8257    9.85932E+005    1.26253E+006    1.26253E+006    7.08906E+005    1.24211E+005    1.13831E+006   -6.98548E+005   -3.56466E+005    4.04826E+005    1.26197E+006    4.28843E+005    3.79251E+003   -2.92287E+005   -1.85305E+004
            8258    2.87917E+006    3.14644E+006    3.14644E+006    6.70267E+005   -1.28529E+004    3.15929E+006   -1.26795E+006    2.68761E+006    6.66435E+005    3.13811E+006   -6.94754E+002    9.53476E+004   -7.58778E+004   -1.18139E+005
            8259    2.28470E+006    2.52517E+006    2.52517E+006    5.90120E+005    4.72574E+003    2.52044E+006   -1.04000E+006    2.10582E+006    5.20704E+005    2.46448E+006    1.34827E+005    8.33127E+004   -2.11743E+005   -3.59303E+005
            8260    1.74327E+006    1.87194E+006    1.87194E+006    5.52708E+005   -1.04372E+005    1.97631E+006   -7.73427E+005    1.42164E+006    4.55555E+005    1.52376E+006    3.40961E+005    6.59765E+004   -3.15780E+005   -6.95259E+005
            8261    3.34761E+006    3.59548E+006    3.59548E+006    7.13999E+005   -7.66890E+004    3.67217E+006   -1.41093E+006    3.12699E+006    7.17107E+005    3.57411E+006   -5.84192E+004    1.86383E+005   -9.57622E+004   -1.78142E+005
            8262    2.86555E+006    3.02656E+006    3.02656E+006    6.28386E+005   -1.46858E+005    3.17341E+006   -1.16936E+006    2.61356E+006    5.83197E+005    2.88516E+006    3.97322E+004    1.53388E+005   -2.46076E+005   -6.09301E+005
            8263    2.80920E+006    2.64111E+006    2.64111E+006    5.61957E+005   -5.54718E+005    3.19583E+006   -8.82784E+005    2.22043E+006    5.23965E+005    2.07849E+006    4.58976E+004    1.38261E+005   -3.72021E+005   -1.15914E+006
            8264    1.11318E+007    1.49925E+007    1.49925E+007    5.30948E+006    2.83002E+006    1.21624E+007   -7.71065E+006    1.04831E+007    5.35304E+006    1.44303E+007    3.34863E+006    1.47773E+006    3.58462E+005   -2.03066E+006
            8265    1.13578E+007    1.51017E+007    1.51017E+007    4.25852E+006    3.29122E+006    1.18105E+007   -7.55049E+006    1.12646E+007    4.34647E+006    1.49775E+007    3.32749E+006    1.01321E+006    3.15121E+004   -5.84980E+005
            8266    1.15403E+007    1.49346E+007    1.49346E+007    3.95712E+006    2.90384E+006    1.20308E+007   -7.26520E+006    1.14314E+007    3.95853E+006    1.49282E+007    2.90888E+006    2.06651E+005   -5.44026E+004   -1.74284E+005
            8267    1.08438E+007    1.65665E+007    1.65665E+007    6.58956E+006    5.02558E+006    1.15409E+007   -9.39388E+006    1.05856E+007    6.66590E+006    1.60585E+007    5.45723E+006    1.61033E+006    2.44510E+005   -1.69270E+006
            8268    1.25835E+007    1.71018E+007    1.71018E+007    5.11233E+006    3.99837E+006    1.31034E+007   -8.73749E+006    1.24718E+007    5.20328E+006    1.69941E+007    4.01512E+006    1.06474E+006    3.40049E+004   -4.06373E+005
            8269    1.30298E+007    1.69750E+007    1.69750E+007    4.77938E+006    3.24660E+006    1.37284E+007   -8.33365E+006    1.28246E+007    4.78147E+006    1.69716E+007    3.24787E+006    1.69423E+005   -2.14456E+004   -1.17795E+005
            8270    1.03258E+007    1.73531E+007    1.73531E+007    7.30972E+006    6.76627E+006    1.05868E+007   -1.04764E+007    1.02936E+007    7.51333E+006    1.70270E+007    6.88877E+006    1.67684E+006    8.53412E+004   -6.64328E+005
            8271    1.32913E+007    1.82687E+007    1.82687E+007    5.61803E+006    4.41809E+006    1.38506E+007   -9.43493E+006    1.31686E+007    5.71265E+006    1.81719E+007    4.42026E+006    1.09295E+006    1.21514E+004   -1.52335E+005
            8272    1.39026E+007    1.81698E+007    1.81698E+007    5.27001E+006    3.44483E+006    1.47250E+007   -8.96156E+006    1.36291E+007    5.27170E+006    1.81680E+007    3.44498E+006    1.47753E+005   -4.07636E+003   -4.52499E+004
            8273    4.69038E+006    5.23114E+006    5.23114E+006    8.93597E+005    2.53636E+005    4.97750E+006   -2.12612E+006    4.59062E+006    4.31792E+005    5.22161E+006    7.24971E+005   -9.34763E+004    2.89727E+005   -1.80376E+005
            8274    5.58360E+006    6.54456E+006    6.54456E+006    1.31029E+006    6.67303E+005    5.87726E+006   -2.84072E+006    5.49938E+006    8.35828E+005    6.53708E+006    1.14925E+006   -1.20544E+005    2.84879E+005   -1.56974E+005
            8275    6.71659E+006    8.16309E+006    8.16309E+006    1.73591E+006    1.19037E+006    6.97273E+006   -3.69646E+006    6.66647E+006    1.34767E+006    8.15665E+006    1.58505E+006   -1.49975E+005    2.48719E+005   -1.38273E+005
            8276    8.17147E+006    1.01770E+007    1.01770E+007    2.20029E+006    1.82381E+006    8.35320E+006   -4.73370E+006    8.15192E+006    2.01792E+006    1.01720E+007    2.01115E+006   -1.69938E+005    1.90456E+005   -1.04340E+005
            8277    9.88668E+006    1.25095E+007    1.25095E+007    2.87282E+006    2.39049E+006    1.01190E+007   -5.92427E+006    9.86016E+006    2.84376E+006    1.25050E+007    2.42410E+006   -1.81851E+005    1.22880E+005   -1.04139E+005
            8278    4.88471E+006    5.38891E+006    5.38891E+006    6.57354E+005    3.64241E+005    5.02467E+006   -2.13683E+006    4.86486E+006    5.17911E+005    5.31474E+006    5.77853E+005   -3.64004E+005    1.81068E+005   -4.61489E+005
            8279    5.77399E+006    6.69093E+006    6.69093E+006    1.05162E+006    7.91080E+005    5.89985E+006   -2.84454E+006    5.76074E+006    9.50728E+005    6.61595E+006    9.66948E+005   -4.66147E+005    1.67377E+005   -4.47181E+005
            8280    6.85099E+006    8.25955E+006    8.25955E+006    1.51917E+006    1.30307E+006    6.95649E+006   -3.69393E+006    6.84331E+006    1.49366E+006    8.19121E+006    1.39692E+006   -5.58085E+005    1.33730E+005   -3.80184E+005
            8281    8.24104E+006    1.02553E+007    1.02553E+007    2.18073E+006    1.85733E+006    8.39798E+006   -4.76445E+006    8.22674E+006    2.21998E+006    1.01873E+007    1.88609E+006   -6.38818E+005    9.01771E+004   -3.72598E+005
            8282    9.79672E+006    1.25214E+007    1.25214E+007    3.05072E+006    2.42827E+006    1.00931E+007   -6.00012E+006    9.75208E+006    3.09992E+006    1.24592E+007    2.44123E+006   -6.85838E+005    4.75186E+004   -3.47817E+005
            8283    5.14899E+006    5.50292E+006    5.50292E+006    6.72302E+005    8.57869E+004    5.41713E+006   -2.08700E+006    5.07302E+006    7.16895E+005    5.36814E+006    1.75979E+005   -4.99245E+005   -1.89412E+002   -6.63782E+005
            8284    6.05756E+006    6.72378E+006    6.72378E+006    1.07356E+006    3.27926E+005    6.39586E+006   -2.70842E+006    5.95300E+006    1.13261E+006    6.59289E+006    3.99772E+005   -6.16572E+005   -1.49960E+004   -6.32367E+005
            8285    7.21385E+006    8.38427E+006    8.38427E+006    1.66793E+006    7.59046E+005    7.62522E+006   -3.60375E+006    7.08331E+006    1.73714E+006    8.24097E+006    8.33137E+005   -7.25365E+005   -2.22032E+004   -6.98365E+005
            8286    8.36555E+006    1.02454E+007    1.02454E+007    2.41190E+006    1.43375E+006    8.81162E+006   -4.69701E+006    8.23543E+006    2.48363E+006    1.01019E+007    1.50548E+006   -7.99981E+005   -2.96350E+004   -7.33221E+005
            8287    9.73832E+006    1.24713E+007    1.24713E+007    3.32996E+006    2.22952E+006    1.02418E+007   -6.01027E+006    9.59695E+006    3.39886E+006    1.23364E+007    2.29553E+006   -8.47972E+005   -3.84010E+004   -7.56084E+005
            8288    5.63912E+006    5.53203E+006    5.53203E+006    7.64650E+005   -6.92721E+005    6.22475E+006   -1.86799E+006    5.18945E+006    7.84076E+005    5.44709E+006   -6.27202E+005   -5.74575E+005   -2.27769E+005   -3.35400E+005
            8289    7.02982E+006    7.11894E+006    7.11894E+006    1.21100E+006   -6.55877E+005    7.77482E+006   -2.55802E+006    6.43572E+006    1.25415E+006    6.98950E+006   -5.69581E+005   -7.45823E+005   -2.41481E+005   -5.46107E+005
            8290    8.13320E+006    8.78526E+006    8.78526E+006    1.81782E+006   -1.51901E+005    8.93716E+006   -3.48373E+006    7.56813E+006    1.87442E+006    8.59035E+006   -1.35921E+004   -9.10793E+005   -2.43764E+005   -8.43403E+005
            8291    9.25346E+006    1.07751E+007    1.07751E+007    2.64969E+006    7.03320E+005    1.00718E+007   -4.70939E+006    8.77500E+006    2.71505E+006    1.05226E+007    8.90523E+005   -1.07878E+006   -2.49991E+005   -1.06712E+006
            8292    1.02880E+007    1.29644E+007    1.29644E+007    3.68057E+006    1.90375E+006    1.10606E+007   -6.18290E+006    9.93392E+006    3.75461E+006    1.26576E+007    2.13645E+006   -1.24398E+006   -2.37079E+005   -1.25724E+006
            8293    1.12309E+007    1.29551E+007    1.29551E+007    4.05262E+006    3.37328E+005    1.26178E+007   -5.78170E+006    9.69635E+006    4.08069E+006    1.24289E+007    8.35524E+005   -1.39497E+006   -5.34468E+005   -2.01034E+006
            8294    1.04425E+007    1.08160E+007    1.08160E+007    2.85726E+006   -1.00812E+006    1.18241E+007   -4.22171E+006    8.59637E+006    2.88305E+006    1.05109E+007   -7.28863E+005   -1.15811E+006   -5.53861E+005   -1.33169E+006
            8295    9.31800E+006    8.91019E+006    8.91019E+006    1.98614E+006   -1.68404E+006    1.05942E+007   -3.07076E+006    7.40807E+006    2.00871E+006    8.75019E+006   -1.54662E+006   -9.41670E+005   -5.34662E+005   -6.45795E+005
            8296    8.13000E+006    7.36527E+006    7.36527E+006    1.41915E+006   -1.89903E+006    9.26430E+006   -2.29513E+006    6.31196E+006    1.43517E+006    7.26578E+006   -1.81556E+006   -7.63983E+005   -4.99726E+005   -1.63071E+005
            8297    6.81120E+006    5.97952E+006    5.97952E+006    1.01272E+006   -1.78503E+006    7.76456E+006   -1.73574E+006    5.26369E+006    1.01464E+006    5.88940E+006   -1.69682E+006   -5.96669E+005   -4.79371E+005    3.17274E+005
            8298    5.76182E+006    4.80024E+006    4.80024E+006    6.68733E+005   -1.78176E+006    6.58200E+006   -1.22907E+006    4.33272E+006    6.56585E+005    4.64109E+006   -1.61046E+006   -4.51119E+005   -4.81764E+005    7.83781E+005
            8299    4.72304E+006    3.92702E+006    3.92702E+006    5.72923E+005   -1.47423E+006    5.40125E+006   -1.00857E+006    3.49292E+006    5.54615E+005    3.56855E+006   -1.09744E+006   -3.15397E+005   -4.64934E+005    1.23396E+006
            8300    3.95141E+006    3.85031E+006    3.85031E+006    6.08146E+005   -5.51036E+005    4.40135E+006   -1.30247E+006    3.53744E+006    5.77280E+005    3.76690E+006   -4.36755E+005   -2.98685E+005   -3.00079E+005    4.61706E+005
            8301    4.07959E+006    4.24748E+006    4.24748E+006    6.58333E+005   -1.89359E+005    4.43684E+006   -1.57215E+006    3.87394E+006    6.71692E+005    4.21519E+006   -1.70422E+005   -3.35791E+005   -1.27683E+005    4.60572E+004
            8302    4.41216E+006    4.29208E+006    4.29208E+006    6.07371E+005   -5.97301E+005    4.88938E+006   -1.43405E+006    4.01644E+006    5.84470E+005    4.25091E+006   -5.33235E+005   -3.89251E+005   -2.72207E+005    9.34344E+003
            8303    4.09719E+006    4.19762E+006    4.19762E+006    4.74467E+005   -1.91909E+005    4.38953E+006   -1.49339E+006    3.97252E+006    4.90188E+005    4.15540E+006   -1.65405E+005   -3.81665E+005   -1.11034E+005   -1.24550E+005
            8304    3.86976E+006    3.92120E+006    3.92120E+006    2.30249E+005   -1.05479E+005    4.02668E+006   -1.34866E+006    3.83679E+006    2.47225E+005    3.87076E+006   -7.20086E+004   -3.74971E+005   -5.94177E+004   -2.26546E+005
            8305    3.48174E+006    3.45748E+006    3.45748E+006    1.06374E+004   -5.81451E+004    3.51562E+006   -1.13666E+006    3.48021E+006   -2.80719E+004    3.40870E+006    2.93395E+004   -3.20024E+005    1.76127E+004   -2.56218E+005
            8306    3.08734E+006    2.95819E+006    2.95819E+006    6.04409E+004   -2.89003E+005    3.24719E+006   -9.09875E+005    3.04237E+006   -2.63591E+005    2.93041E+006    6.28077E+004   -2.14301E+005    7.44227E+004   -1.92870E+005
            8307    2.84506E+006    2.64624E+006    2.64624E+006    9.89061E+004   -4.23996E+005    3.07024E+006   -7.73718E+005    2.73379E+006   -4.01932E+005    2.64233E+006    8.07570E+004   -7.69896E+004    1.02369E+005   -6.84651E+004
            8308    4.54535E+006    4.52111E+006    4.52111E+006    5.01243E+005   -4.11267E+005    4.93238E+006   -1.53703E+006    4.33201E+006    5.03066E+005    4.44596E+006   -3.37935E+005   -4.32040E+005   -1.57113E+005   -3.90089E+005
            8309    4.35653E+006    4.49200E+006    4.49200E+006    3.14717E+005   -2.40084E+004    4.51600E+006   -1.59424E+006    4.32675E+006    3.47992E+005    4.38107E+006    5.36450E+004   -3.90017E+005    1.73141E+004   -5.72315E+005
            8310    4.07234E+006    4.24782E+006    4.24782E+006    3.30868E+005    3.60969E+004    4.21172E+006   -1.53826E+006    4.04824E+006    1.60397E+005    4.18302E+006    2.71367E+005   -2.58413E+005    1.70465E+005   -4.27813E+005
            8311    3.86502E+006    4.02727E+006    4.02727E+006    4.69789E+005   -8.52709E+004    4.11254E+006   -1.47060E+006    3.77379E+006    5.53724E+004    4.01811E+006    3.38303E+005   -8.32825E+004    2.44059E+005   -1.59891E+005
            8312    5.28976E+006    6.13770E+006    6.13770E+006    1.16515E+006    5.79472E+005    5.55823E+006   -2.62744E+006    5.21607E+006    7.33965E+005    6.11463E+006    1.03373E+006    2.09955E+005   -2.64424E+005   -2.65277E+005
            8313    6.54742E+006    7.95342E+006    7.95342E+006    1.65036E+006    1.18632E+006    6.76710E+006   -3.59670E+006    6.51027E+006    1.33229E+006    7.93806E+006    1.51975E+006    2.51658E+005   -2.18671E+005   -1.84656E+005
            8314    8.15072E+006    1.01861E+007    1.01861E+007    2.20955E+006    1.87164E+006    8.31442E+006   -4.75575E+006    8.13494E+006    2.11619E+006    1.01693E+007    1.98179E+006    2.61876E+005   -1.63530E+005   -2.55453E+005
            8315    9.80588E+006    1.25392E+007    1.25392E+007    3.02907E+006    2.46211E+006    1.00771E+007   -6.01011E+006    9.76890E+006    3.01663E+006    1.25288E+007    2.48495E+006    2.39538E+005   -1.05912E+005   -2.07313E+005
            8316    5.75985E+006    6.37961E+006    6.37961E+006    8.89158E+005    3.83678E+005    5.99593E+006   -2.55082E+006    5.70963E+006    9.49087E+005    6.26801E+006    4.35354E+005    5.70933E+005   -3.98239E+004   -5.49527E+005
            8317    7.24653E+006    8.46214E+006    8.46214E+006    1.59788E+006    8.85900E+005    7.57624E+006   -3.64864E+006    7.16721E+006    1.67473E+006    8.32156E+006    9.49631E+005    7.33144E+005   -2.66734E+004   -6.76226E+005
            8318    8.46878E+006    1.04672E+007    1.04672E+007    2.37558E+006    1.66596E+006    8.80126E+006   -4.83626E+006    8.40150E+006    2.45893E+006    1.03167E+007    1.73317E+006    8.46211E+005   -8.15591E+003   -7.29853E+005
            8319    9.92833E+006    1.27732E+007    1.27732E+007    3.29001E+006    2.45267E+006    1.03205E+007   -6.17194E+006    9.84842E+006    3.37540E+006    1.26335E+007    2.50692E+006    9.40754E+005    1.91990E+004   -6.85088E+005
            8320    1.07559E+007    1.29373E+007    1.29373E+007    3.97961E+006    1.00801E+006    1.19293E+007   -5.97497E+006    9.76636E+006    4.01506E+006    1.24851E+007    1.42475E+006    1.29268E+006    4.13498E+005   -1.80475E+006
            8321    9.86956E+006    1.08251E+007    1.08251E+007    2.84287E+006   -2.10259E+005    1.10354E+007   -4.48590E+006    8.70801E+006    2.87772E+006    1.05248E+007    5.52144E+004    1.09463E+006    4.15616E+005   -1.32511E+006
            8322    8.72689E+006    8.94741E+006    8.94741E+006    2.00967E+006   -8.50706E+005    9.79812E+006   -3.36879E+006    7.55892E+006    2.04502E+006    8.74649E+006   -6.85129E+005    9.09118E+005    3.70820E+005   -9.32217E+005
            8323    7.54653E+006    7.35280E+006    7.35280E+006    1.39720E+006   -1.13393E+006    8.48673E+006   -2.53869E+006    6.48286E+006    1.42616E+006    7.23846E+006   -1.04855E+006    7.50736E+005    3.51876E+005   -4.46114E+005
            8324    6.47608E+006    5.80891E+006    5.80891E+006    8.83517E+005   -1.52667E+006    7.33558E+006   -1.72192E+006    5.31653E+006    8.89486E+005    5.73152E+006   -1.45525E+006    6.03852E+005    4.15418E+005    1.02791E+005
            8325    5.62196E+006    4.66861E+006    4.66861E+006    6.17396E+005   -1.74986E+006    6.41847E+006   -1.17871E+006    4.26256E+006    6.05285E+005    4.51390E+006   -1.58304E+006    4.34053E+005    4.62937E+005    7.70058E+005
            8326    4.72495E+006    3.96873E+006    3.96873E+006    5.87992E+005   -1.43015E+006    5.39888E+006   -1.04219E+006    3.54009E+006    5.68965E+005    3.64979E+006   -1.09218E+006    3.25155E+005    4.59388E+005    1.15560E+006
            8327    3.80580E+006    3.32943E+006    3.32943E+006    5.79158E+005   -1.01406E+006    4.34348E+006   -9.64844E+005    2.89900E+006    5.55657E+005    2.81501E+006   -4.76138E+005    2.26353E+005    4.26828E+005    1.32707E+006
            8328    3.44698E+006    3.49545E+006    3.49545E+006    6.35703E+005   -3.31942E+005    3.82739E+006   -1.26640E+006    3.11876E+006    6.01850E+005    3.35523E+006   -1.57867E+005    2.36131E+005    2.82002E+005    6.39222E+005
            8329    3.83586E+006    4.09664E+006    4.09664E+006    7.51966E+005   -9.04014E+004    4.18704E+006   -1.58607E+006    3.61887E+006    7.62469E+005    4.06538E+006   -6.96501E+004    2.74773E+005    1.15960E+005    1.79750E+005
            8330    3.98618E+006    3.89665E+006    3.89665E+006    6.04726E+005   -5.35365E+005    4.43202E+006   -1.32200E+006    3.59097E+006    5.72527E+005    3.82216E+006   -4.28673E+005    3.05260E+005    2.97778E+005    4.19551E+005
            8331    4.21752E+006    4.35956E+006    4.35956E+006    6.38947E+005   -2.22005E+005    4.58157E+006   -1.59217E+006    4.01260E+006    6.53820E+005    4.32475E+006   -2.02062E+005    3.56520E+005    1.31920E+005    3.57997E+004
            8332    4.58994E+006    4.38956E+006    4.38956E+006    5.59057E+005   -6.97913E+005    5.08747E+006   -1.41690E+006    4.17561E+006    5.39790E+005    4.34774E+006   -6.36833E+005    3.99385E+005    2.63572E+005   -7.09889E+004
            8333    4.14524E+006    4.20212E+006    4.20212E+006    4.08668E+005   -2.22507E+005    4.42463E+006   -1.46276E+006    4.03500E+006    4.25254E+005    4.15112E+006   -1.88088E+005    4.01642E+005    1.05266E+005   -2.01951E+005
            8334    4.74046E+006    4.80877E+006    4.80877E+006    5.58169E+005   -3.03375E+005    5.11214E+006   -1.68785E+006    4.55930E+006    5.72281E+005    4.69893E+006   -2.07650E+005    4.64123E+005    1.16135E+005   -5.56536E+005
            8335    3.74335E+006    3.74381E+006    3.74381E+006    1.13626E+005   -1.03269E+005    3.84708E+006   -1.25139E+006    3.72917E+006    1.30531E+005    3.68546E+006   -6.18216E+004    3.68122E+005    3.51750E+004   -2.85244E+005
            8336    3.32664E+006    3.23484E+006    3.23484E+006    1.57346E+004   -1.89801E+005    3.42464E+006   -1.02026E+006    3.31231E+006   -1.65834E+005    3.19494E+006    3.16648E+004    2.62494E+005   -4.62696E+004   -2.47196E+005
            8337    2.96945E+006    2.82726E+006    2.82726E+006    1.54386E+005   -3.69141E+005    3.19640E+006   -8.70835E+005    2.86285E+006   -3.39737E+005    2.81967E+006    1.32573E+005    9.70974E+004   -1.18055E+005   -1.07800E+005
            8338    4.55518E+006    4.81588E+006    4.81588E+006    3.95758E+005    1.36683E+005    4.67919E+006   -1.78277E+006    4.53856E+006    4.26660E+005    4.70847E+006    2.13184E+005    3.87479E+005   -8.32869E+004   -5.72980E+005
            8339    4.25545E+006    4.59481E+006    4.59481E+006    6.49743E+005    8.53116E+004    4.50950E+006   -1.77662E+006    4.16999E+006    2.39905E+005    4.57509E+006    5.14877E+005    1.56223E+005   -2.57635E+005   -2.30353E+005
            8340    1.13234E+007    1.49775E+007    1.49775E+007    5.48784E+006    2.44297E+006    1.25346E+007   -7.63611E+006    1.03406E+007    5.51886E+006    1.42492E+007    3.14027E+006   -1.61129E+006   -4.52261E+005   -2.39272E+006
            8341    1.11771E+007    1.51892E+007    1.51892E+007    4.82790E+006    3.34444E+006    1.18448E+007   -7.78719E+006    1.09524E+007    4.91855E+006    1.48702E+007    3.57286E+006   -1.39678E+006   -2.08187E+005   -1.25275E+006
            8342    1.10784E+007    1.47549E+007    1.47549E+007    4.32570E+006    3.12511E+006    1.16298E+007   -7.40189E+006    1.09306E+007    4.39142E+006    1.46397E+007    3.17456E+006   -8.76724E+005   -4.37772E+004   -6.92851E+005
            8343    1.14402E+007    1.49075E+007    1.49075E+007    4.02341E+006    2.98242E+006    1.19251E+007   -7.30444E+006    1.13329E+007    4.07062E+006    1.48521E+007    2.99062E+006   -7.15417E+005    1.29052E+004   -3.11367E+005
            8344    1.16884E+007    1.49587E+007    1.49587E+007    3.76969E+006    2.82793E+006    1.21308E+007   -7.18544E+006    1.16026E+007    3.76855E+006    1.49549E+007    2.83283E+006   -1.88834E+005    6.50251E+004   -8.27440E+004
            8345    1.06328E+007    1.64678E+007    1.64678E+007    6.89279E+006    5.02481E+006    1.14430E+007   -9.46181E+006    1.02538E+007    6.94899E+006    1.57788E+007    5.65761E+006   -1.76799E+006   -3.04722E+005   -2.03012E+006
            8346    1.17380E+007    1.70422E+007    1.70422E+007    5.87260E+006    4.80837E+006    1.22339E+007   -9.24106E+006    1.16287E+007    6.00553E+006    1.67575E+007    4.96019E+006   -1.52416E+006   -1.47982E+005   -9.67637E+005
            8347    1.22135E+007    1.67666E+007    1.67666E+007    5.23793E+006    3.96768E+006    1.27990E+007   -8.65742E+006    1.20635E+007    5.30393E+006    1.66753E+007    3.99306E+006   -9.00261E+005   -3.78763E+004   -5.16881E+005
            8348    1.28429E+007    1.69714E+007    1.69714E+007    4.90423E+006    3.47281E+006    1.34986E+007   -8.44949E+006    1.26615E+007    4.94847E+006    1.69234E+007    3.47663E+006   -7.31062E+005   -4.80140E+003   -2.20584E+005
            8349    1.32344E+007    1.70533E+007    1.70533E+007    4.58991E+006    3.16351E+006    1.38898E+007   -8.26891E+006    1.30598E+007    4.59266E+006    1.70499E+007    3.16415E+006   -1.96975E+005    2.37736E+004   -6.22471E+004
            8350    9.68566E+006    1.71099E+007    1.71099E+007    7.71139E+006    7.16065E+006    9.94928E+006   -1.06607E+007    9.65034E+006    7.89102E+006    1.66763E+007    7.41468E+006   -1.84555E+006   -1.05449E+005   -8.09998E+005
            8351    1.19964E+007    1.80957E+007    1.80957E+007    6.45505E+006    5.77265E+006    1.23231E+007   -1.01078E+007    1.19527E+007    6.65822E+006    1.78662E+007    5.79897E+006   -1.58295E+006   -5.40045E+004   -3.65350E+005
            8352    1.28724E+007    1.79318E+007    1.79318E+007    5.76512E+006    4.45405E+006    1.34777E+007   -9.38365E+006    1.27208E+007    5.83072E+006    1.78630E+007    4.45723E+006   -8.94687E+005   -1.32022E+004   -1.89598E+005
            8353    1.36663E+007    1.81884E+007    1.81884E+007    5.43067E+006    3.76595E+006    1.44224E+007   -9.12833E+006    1.34353E+007    5.47250E+006    1.81459E+007    3.76661E+006   -7.29925E+005   -6.17958E+003   -9.20167E+004
            8354    1.41533E+007    1.83017E+007    1.83017E+007    5.09386E+006    3.36212E+006    1.49395E+007   -8.91921E+006    1.39120E+007    5.09673E+006    1.82987E+007    3.36216E+006   -1.95238E+005    3.94790E+003   -2.14334E+004
            8355    3.76141E+006    3.27056E+006    3.27056E+006    5.65598E+005   -1.02481E+006    4.29537E+006   -9.37116E+005    2.84226E+006    5.40818E+005    2.74487E+006   -4.74343E+005   -2.15932E+005    4.25013E+005   -1.33423E+006
            8356    3.32483E+006    3.37640E+006    3.37640E+006    6.26808E+005   -3.18811E+005    3.69521E+006   -1.22813E+006    2.99918E+006    5.90029E+005    3.22909E+006   -1.34723E+005   -2.13829E+005    2.78051E+005   -6.53921E+005
            8357    3.71428E+006    3.95703E+006    3.95703E+006    7.38111E+005   -1.06974E+005    4.06400E+006   -1.52939E+006    3.48799E+006    7.46389E+005    3.92851E+006   -8.67361E+004   -2.52845E+005    1.13150E+005   -1.77522E+005
            8358    2.73927E+006    2.56903E+006    2.56903E+006    5.45893E+005   -5.48193E+005    3.11722E+006   -8.55575E+005    2.15844E+006    5.06790E+005    2.00152E+006    5.84175E+004   -1.29456E+005    3.67252E+005   -1.14648E+006
            8359    2.70728E+006    2.88439E+006    2.88439E+006    6.12022E+005   -1.10998E+005    2.99539E+006   -1.12847E+006    2.47572E+006    5.62922E+005    2.75503E+006    6.74627E+004   -1.40159E+005    2.38207E+005   -5.66661E+005
            8360    3.21157E+006    3.47231E+006    3.47231E+006    7.10190E+005   -5.16785E+004    3.52399E+006   -1.37694E+006    2.99796E+006    7.11274E+005    3.45364E+006   -3.40833E+004   -1.62152E+005    9.03978E+004   -1.73793E+005
            8361    1.63712E+006    1.78467E+006    1.78467E+006    5.55553E+005   -7.37236E+004    1.85839E+006   -7.55499E+005    1.32069E+006    4.44172E+005    1.46926E+006    3.53064E+005   -5.66670E+004    3.12745E+005   -6.38906E+005
            8362    2.18699E+006    2.43824E+006    2.43824E+006    5.86350E+005    2.54219E+004    2.41282E+006   -1.01667E+006    2.01539E+006    5.09927E+005    2.39315E+006    1.46940E+005   -6.32910E+004    2.07227E+005   -3.05623E+005
            8363    2.81075E+006    3.07066E+006    3.07066E+006    6.58268E+005   -1.58604E+004    3.08652E+006   -1.23769E+006    2.61944E+006    6.53081E+005    3.06546E+006   -5.47508E+003   -7.44396E+004    7.35426E+004   -9.22573E+004
            8364    9.86511E+005    1.26363E+006    1.26363E+006    7.09299E+005    1.24638E+005    1.13899E+006   -6.99188E+005   -3.53739E+005    4.05474E+005    1.26235E+006    4.29736E+005    4.22138E+003    2.92463E+005    2.88938E+004
            8365    2.00214E+006    2.28861E+006    2.28861E+006    5.89617E+005    8.13122E+004    2.20730E+006   -9.86514E+005    1.84842E+006    4.96402E+005    2.28771E+006    1.75433E+005    6.77262E+003    1.96934E+005    4.21625E+004
            8366    2.69239E+006    2.94246E+006    2.94246E+006    6.34216E+005   -1.52526E+004    2.95771E+006   -1.18714E+006    2.50689E+006    6.27038E+005    2.94236E+006   -7.97595E+003    1.19695E+004    6.82448E+004    9.96068E+003
            8367    1.76256E+006    1.88389E+006    1.88389E+006    5.50323E+005   -1.14364E+005    1.99826E+006   -7.73284E+005    1.43699E+006    4.55402E+005    1.52714E+006    3.37307E+005    6.64026E+004    3.16794E+005    7.07855E+005
            8368    2.28451E+006    2.52384E+006    2.52384E+006    5.89329E+005    3.44120E+003    2.52040E+006   -1.03887E+006    2.10530E+006    5.19632E+005    2.46308E+006    1.33900E+005    8.36916E+004    2.12277E+005    3.59344E+005
            8369    2.88816E+006    3.15539E+006    3.15539E+006    6.71448E+005   -1.37591E+004    3.16915E+006   -1.27103E+006    2.69603E+006    6.67816E+005    3.14686E+006   -1.59884E+003    9.70672E+004    7.57382E+004    1.19331E+005
            8370    2.82422E+006    2.65255E+006    2.65255E+006    5.63301E+005   -5.60589E+005    3.21314E+006   -8.85089E+005    2.23070E+006    5.25331E+005    2.09132E+006    3.86173E+004    1.39173E+005    3.72869E+005    1.16184E+006
            8371    2.85975E+006    3.02155E+006    3.02155E+006    6.27989E+005   -1.45338E+005    3.16689E+006   -1.16807E+006    2.60851E+006    5.82487E+005    2.87862E+006    4.30957E+004    1.53213E+005    2.46654E+005    6.11979E+005
            8372    3.35730E+006    3.60653E+006    3.60653E+006    7.15853E+005   -7.58604E+004    3.68239E+006   -1.41551E+006    3.13678E+006    7.19159E+005    3.58501E+006   -5.76449E+004    1.88213E+005    9.58815E+004    1.77797E+005
            8373    1.16798E+007    1.49450E+007    1.49450E+007    3.76343E+006    2.82374E+006    1.21213E+007   -7.17740E+006    1.15943E+007    3.76236E+006    1.49413E+007    2.82856E+006   -1.88853E+005   -6.45405E+004    8.04451E+004
            8374    1.14407E+007    1.49070E+007    1.49070E+007    4.02361E+006    2.98041E+006    1.19266E+007   -7.30367E+006    1.13330E+007    4.07084E+006    1.48515E+007    2.98867E+006   -7.15630E+005   -1.22717E+004    3.12470E+005
            8375    1.10856E+007    1.47683E+007    1.47683E+007    4.33379E+006    3.12989E+006    1.16384E+007   -7.41066E+006    1.09371E+007    4.39987E+006    1.46518E+007    3.18027E+006   -8.80965E+005    4.51771E+004    6.98121E+005
            8376    1.11771E+007    1.51999E+007    1.51999E+007    4.84324E+006    3.35206E+006    1.18478E+007   -7.79840E+006    1.09500E+007    4.93312E+006    1.48765E+007    3.58557E+006   -1.40189E+006    2.10641E+005    1.26659E+006
            8377    1.13214E+007    1.49868E+007    1.49868E+007    5.49872E+006    2.45461E+006    1.25322E+007   -7.64672E+006    1.03388E+007    5.52977E+006    1.42568E+007    3.15362E+006   -1.61373E+006    4.52553E+005    2.39469E+006
            8378    1.32353E+007    1.70519E+007    1.70519E+007    4.58761E+006    3.16120E+006    1.38907E+007   -8.26691E+006    1.30607E+007    4.59026E+006    1.70486E+007    3.16187E+006   -1.94158E+005   -2.41346E+004    6.37297E+004
            8379    1.28450E+007    1.69708E+007    1.69708E+007    4.90156E+006    3.47005E+006    1.35008E+007   -8.44748E+006    1.26637E+007    4.94529E+006    1.69233E+007    3.47383E+006   -7.26909E+005    4.24265E+003    2.19937E+005
            8380    1.22148E+007    1.67654E+007    1.67654E+007    5.23629E+006    3.96448E+006    1.28009E+007   -8.65540E+006    1.20645E+007    5.30238E+006    1.66739E+007    3.98996E+006   -9.00938E+005    3.78976E+004    5.17932E+005
            8381    1.17239E+007    1.70455E+007    1.70455E+007    5.88978E+006    4.82584E+006    1.22196E+007   -9.25370E+006    1.16146E+007    6.02244E+006    1.67574E+007    4.98126E+006   -1.52928E+006    1.49213E+005    9.77626E+005
            8382    1.06277E+007    1.64674E+007    1.64674E+007    6.90309E+006    5.02634E+006    1.14410E+007   -9.46560E+006    1.02449E+007    6.95761E+006    1.57723E+007    5.66686E+006   -1.77033E+006    3.06409E+005    2.04293E+006
            8383    1.41493E+007    1.82982E+007    1.82982E+007    5.09293E+006    3.36378E+006    1.49344E+007   -8.91831E+006    1.39086E+007    5.09576E+006    1.82953E+007    3.36382E+006   -1.93801E+005   -3.67829E+003    2.07881E+004
            8384    1.36706E+007    1.81881E+007    1.81881E+007    5.42746E+006    3.76033E+006    1.44278E+007   -9.12529E+006    1.34391E+007    5.46901E+006    1.81459E+007    3.76098E+006   -7.27674E+005    6.26799E+003    9.09552E+004
            8385    1.28730E+007    1.79345E+007    1.79345E+007    5.76608E+006    4.45704E+006    1.34775E+007   -9.38588E+006    1.27219E+007    5.83174E+006    1.78658E+007    4.46012E+006   -8.94992E+005    1.26036E+004    1.86769E+005
            8386    1.19813E+007    1.80845E+007    1.80845E+007    6.45548E+006    5.77960E+006    1.23049E+007   -1.01065E+007    1.19383E+007    6.65930E+006    1.78551E+007    5.80519E+006   -1.58339E+006    5.35683E+004    3.57403E+005
            8387    9.67860E+006    1.70900E+007    1.70900E+007    7.70155E+006    7.14516E+006    9.94479E+006   -1.06456E+007    9.64252E+006    7.88143E+006    1.66558E+007    7.39947E+006   -1.84454E+006    1.06739E+005    8.13234E+005
            8388    6.80926E+006    5.97890E+006    5.97890E+006    1.01411E+006   -1.78357E+006    7.76247E+006   -1.73648E+006    5.26121E+006    1.01575E+006    5.88920E+006   -1.69552E+006   -5.96810E+005    4.79742E+005   -3.12107E+005
            8389    8.13623E+006    7.36743E+006    7.36743E+006    1.42155E+006   -1.90497E+006    9.27240E+006   -2.29467E+006    6.30891E+006    1.43721E+006    7.26799E+006   -1.82119E+006   -7.63604E+005    5.00938E+005    1.65356E+005
            8390    9.33326E+006    8.93148E+006    8.93148E+006    1.99848E+006   -1.68064E+006    1.06121E+007   -3.08311E+006    7.41649E+006    2.02095E+006    8.77004E+006   -1.54167E+006   -9.44216E+005    5.35983E+005    6.54828E+005
            8391    1.04553E+007    1.08445E+007    1.08445E+007    2.87422E+006   -9.93730E+005    1.18382E+007   -4.24165E+006    8.60937E+006    2.89985E+006    1.05361E+007   -7.10970E+005   -1.16165E+006    5.54524E+005    1.34418E+006
            8392    1.12273E+007    1.29756E+007    1.29756E+007    4.06920E+006    3.64021E+005    1.26116E+007   -5.80295E+006    9.70147E+006    4.09739E+006    1.24459E+007    8.65547E+005   -1.39725E+006    5.32829E+005    2.01826E+006
            8393    1.02919E+007    1.29568E+007    1.29568E+007    3.67569E+006    1.88820E+006    1.10686E+007   -6.17356E+006    9.93366E+006    3.74959E+006    1.26500E+007    2.12113E+006   -1.24426E+006    2.38756E+005    1.25775E+006
            8394    9.73099E+006    1.24574E+007    1.24574E+007    3.32638E+006    2.22088E+006    1.02365E+007   -6.00156E+006    9.58819E+006    3.39527E+006    1.23213E+007    2.28810E+006   -8.50808E+005    4.11223E+004    7.60057E+005
            8395    9.79230E+006    1.25178E+007    1.25178E+007    3.05277E+006    2.42807E+006    1.00897E+007   -5.99953E+006    9.74731E+006    3.10273E+006    1.24548E+007    2.44111E+006   -6.90051E+005   -4.65089E+004    3.50309E+005
            8396    9.88453E+006    1.25079E+007    1.25079E+007    2.87348E+006    2.39085E+006    1.01170E+007   -5.92406E+006    9.85796E+006    2.84412E+006    1.25032E+007    2.42489E+006   -1.84359E+005   -1.23647E+005    1.05363E+005
            8397    9.23890E+006    1.07408E+007    1.07408E+007    2.63441E+006    6.81625E+005    1.00592E+007   -4.68562E+006    8.75632E+006    2.69975E+006    1.04891E+007    8.68011E+005   -1.07631E+006    2.50355E+005    1.06407E+006
            8398    8.36301E+006    1.02270E+007    1.02270E+007    2.40326E+006    1.41292E+006    8.81409E+006   -4.68106E+006    8.22954E+006    2.47505E+006    1.00822E+007    1.48596E+006   -8.00880E+005    3.05573E+004    7.39875E+005
            8399    8.24013E+006    1.02514E+007    1.02514E+007    2.17905E+006    1.85320E+006    8.39822E+006   -4.76122E+006    8.22561E+006    2.21992E+006    1.01825E+007    1.88126E+006   -6.42063E+005   -8.81706E+004    3.76791E+005
            8400    8.16916E+006    1.01773E+007    1.01773E+007    2.20258E+006    1.82667E+006    8.35063E+006   -4.73552E+006    8.14967E+006    2.02002E+006    1.01722E+007    2.01431E+006   -1.72169E+005   -1.90210E+005    1.04500E+005
            8401    8.10601E+006    8.73837E+006    8.73837E+006    1.80028E+006   -1.71685E+005    8.91006E+006   -3.45566E+006    7.53746E+006    1.85636E+006    8.54530E+006   -3.46911E+004   -9.08216E+005    2.45981E+005    8.33518E+005
            8402    7.19752E+006    8.34838E+006    8.34838E+006    1.65454E+006    7.35473E+005    7.61291E+006   -3.57946E+006    7.06369E+006    1.72344E+006    8.20474E+006    8.10212E+005   -7.24867E+005    2.46256E+004    6.99037E+005
            8403    6.86808E+006    8.27998E+006    8.27998E+006    1.52196E+006    1.30689E+006    6.97309E+006   -3.70294E+006    6.86050E+006    1.50361E+006    8.20993E+006    1.39528E+006   -5.63744E+005   -1.31853E+005    3.88155E+005
            8404    6.74151E+006    8.19617E+006    8.19617E+006    1.74157E+006    1.20037E+006    6.99580E+006   -3.71270E+006    6.69238E+006    1.35862E+006    8.18928E+006    1.59020E+006   -1.53438E+005   -2.47960E+005    1.45137E+005
            8405    7.02312E+006    7.10367E+006    7.10367E+006    1.20762E+006   -6.66348E+005    7.77002E+006   -2.54831E+006    6.42353E+006    1.25076E+006    6.97463E+006   -5.80454E+005   -7.44882E+005    2.42238E+005    5.43407E+005
            8406    6.05309E+006    6.71599E+006    6.71599E+006    1.07217E+006    3.23320E+005    6.39267E+006   -2.70383E+006    5.94754E+006    1.13126E+006    6.58518E+006    3.95042E+005   -6.16895E+005    1.56839E+004    6.31116E+005
            8407    5.78788E+006    6.70608E+006    6.70608E+006    1.04992E+006    7.94917E+005    5.91116E+006   -2.85030E+006    5.77522E+006    9.55398E+005    6.63134E+006    9.64172E+005   -4.69421E+005   -1.64653E+005    4.43657E+005
            8408    5.60760E+006    6.58318E+006    6.58318E+006    1.32421E+006    6.82226E+005    5.90096E+006   -2.86320E+006    5.52401E+006    8.50448E+005    6.57606E+006    1.16310E+006   -1.22547E+005   -2.84252E+005    1.49863E+005
            8409    5.63795E+006    5.52714E+006    5.52714E+006    7.62358E+005   -6.97020E+005    6.22416E+006   -1.86416E+006    5.18685E+006    7.81546E+005    5.44247E+006   -6.31539E+005   -5.74363E+005    2.28816E+005    3.32908E+005
            8410    5.14337E+006    5.50413E+006    5.50413E+006    6.72860E+005    9.71176E+004    5.40701E+006   -2.09137E+006    5.07011E+006    7.17878E+005    5.36924E+006    1.86986E+005   -4.98933E+005   -2.45276E+003    6.63569E+005
            8411    4.89896E+006    5.40465E+006    5.40465E+006    6.60338E+005    3.64456E+005    5.04019E+006   -2.14315E+006    4.87879E+006    5.20252E+005    5.33092E+006    5.78272E+005   -3.62811E+005   -1.82377E+005    4.61284E+005
            8412    4.70679E+006    5.25826E+006    5.25826E+006    9.04821E+005    2.63813E+005    4.99445E+006   -2.14230E+006    4.60706E+006    4.41886E+005    5.24799E+006    7.37011E+005   -9.54771E+004   -2.90216E+005    1.88407E+005
            8413    3.88408E+006    4.05308E+006    4.05308E+006    4.76516E+005   -7.87419E+004    4.13182E+006   -1.48362E+006    3.79324E+006    6.38319E+004    4.04388E+006    3.43148E+005   -8.38797E+004   -2.45237E+005    1.60672E+005
            8414    2.84950E+006    2.65250E+006    2.65250E+006    1.00200E+005   -4.21975E+005    3.07447E+006   -7.76907E+005    2.73873E+006   -3.99528E+005    2.64855E+006    8.16964E+004   -7.74251E+004   -1.03175E+005    6.86623E+004
            8415    4.07163E+006    4.24937E+006    4.24937E+006    3.35707E+005    3.63077E+004    4.21306E+006   -1.54046E+006    4.04675E+006    1.60509E+005    4.18486E+006    2.76017E+005   -2.57539E+005   -1.72057E+005    4.26798E+005
            8416    3.09088E+006    2.96360E+006    2.96360E+006    6.17391E+004   -2.86756E+005    3.25036E+006   -9.12862E+005    3.04621E+006   -2.60948E+005    2.93551E+006    6.40237E+004   -2.15590E+005   -7.51135E+004    1.94069E+005
            8417    4.34973E+006    4.48591E+006    4.48591E+006    3.11642E+005   -2.02671E+004    4.50618E+006   -1.59243E+006    4.32110E+006    3.44912E+005    4.37486E+006    5.75105E+004   -3.88322E+005   -1.88976E+004    5.73116E+005
            8418    3.48491E+006    3.45951E+006    3.45951E+006    8.02551E+003   -5.78962E+004    3.51741E+006   -1.13655E+006    3.48351E+006   -2.76262E+004    3.41087E+006    2.63916E+004   -3.20243E+005   -1.67836E+004    2.55373E+005
            8419    4.54245E+006    4.51883E+006    4.51883E+006    5.00617E+005   -4.09914E+005    4.92874E+006   -1.53651E+006    4.32992E+006    5.02322E+005    4.44335E+006   -3.36143E+005   -4.32197E+005    1.57047E+005    3.91694E+005
            8420    3.86692E+006    3.92132E+006    3.92132E+006    2.31851E+005   -1.01475E+005    4.02279E+006   -1.35057E+006    3.83440E+006    2.49007E+005    3.87095E+006   -6.82619E+004   -3.74612E+005    5.87267E+004    2.26171E+005
            8421    4.09886E+006    4.19894E+006    4.19894E+006    4.76068E+005   -1.93470E+005    4.39241E+006   -1.49385E+006    3.97303E+006    4.91780E+005    4.15684E+006   -1.67081E+005   -3.81271E+005    1.11257E+005    1.23712E+005
            8422    4.07552E+006    4.24466E+006    4.24466E+006    6.61292E+005   -1.88902E+005    4.43356E+006   -1.57235E+006    3.86838E+006    6.74500E+005    4.21253E+006   -1.69980E+005   -3.33992E+005    1.27817E+005   -5.04892E+004
            8423    4.40924E+006    4.28746E+006    4.28746E+006    6.05774E+005   -5.98924E+005    4.88638E+006   -1.43144E+006    4.01320E+006    5.82790E+005    4.24635E+006   -5.34835E+005   -3.88541E+005    2.72492E+005   -1.26799E+004
            8424    3.93980E+006    3.84232E+006    3.84232E+006    6.08021E+005   -5.45485E+005    4.38780E+006   -1.30162E+006    3.52881E+006    5.77156E+005    3.75833E+006   -4.30631E+005   -2.97394E+005    2.99268E+005   -4.64246E+005
            8425    4.73518E+006    3.93431E+006    3.93431E+006    5.72693E+005   -1.48102E+006    5.41533E+006   -1.00866E+006    3.49986E+006    5.54498E+005    3.57574E+006   -1.10426E+006   -3.16002E+005    4.65361E+005   -1.23583E+006
            8426    5.78082E+006    4.80936E+006    4.80936E+006    6.66530E+005   -1.79477E+006    6.60414E+006   -1.22704E+006    4.34294E+006    6.54371E+005    4.65057E+006   -1.62382E+006   -4.51816E+005    4.82563E+005   -7.83806E+005
            8427    7.48291E+006    7.24071E+006    7.24071E+006    1.22422E+006   -1.13833E+006    8.37904E+006   -2.44220E+006    6.56158E+006    1.27167E+006    7.09523E+006   -1.04031E+006    8.94129E+005   -3.94498E+005    3.67753E+005
            8428    8.66504E+006    8.76883E+006    8.76883E+006    1.71973E+006   -9.05166E+005    9.67399E+006   -3.19446E+006    7.69123E+006    1.77990E+006    8.52924E+006   -7.25750E+005    1.10299E+006   -4.11816E+005    8.52655E+005
            8429    9.80852E+006    1.05704E+007    1.05704E+007    2.42457E+006   -3.17354E+005    1.08877E+007   -4.22586E+006    8.88298E+006    2.49084E+006    1.02177E+007   -3.10222E+004    1.35186E+006   -4.53995E+005    1.23221E+006
            8430    1.07267E+007    1.25951E+007    1.25951E+007    3.38727E+006    8.16644E+005    1.17785E+007   -5.59967E+006    9.99782E+006    3.45274E+006    1.20790E+007    1.26731E+006    1.61977E+006   -4.46027E+005    1.68863E+006
            8431    9.78837E+006    1.22163E+007    1.22163E+007    2.78226E+006    2.10841E+006    1.01079E+007   -5.70232E+006    9.73598E+006    2.91672E+006    1.20003E+007    2.18999E+006    1.25354E+006   -5.78814E+004    6.94727E+005
            8432    1.03784E+007    1.23925E+007    1.23925E+007    2.27302E+006    1.77309E+006    1.06194E+007   -5.47952E+006    1.03513E+007    1.91801E+006    1.23474E+007    2.17317E+006    6.78862E+005    2.07025E+005    9.14098E+004
            8433    8.42257E+006    1.00880E+007    1.00880E+007    1.96024E+006    1.39876E+006    8.68926E+006   -4.48234E+006    8.38030E+006    2.07892E+006    9.88237E+006    1.48573E+006    1.09292E+006   -3.44103E+004    7.01900E+005
            8434    8.57066E+006    1.00138E+007    1.00138E+007    1.82797E+006    1.10425E+006    8.90957E+006   -4.31535E+006    8.50150E+006    1.26475E+006    9.97557E+006    1.70572E+006    5.56309E+005    2.82953E+005    1.36516E+005
            8435    7.24431E+006    8.22637E+006    8.22637E+006    1.27020E+006    7.24755E+005    7.50162E+006   -3.40711E+006    7.19789E+006    1.37701E+006    8.05440E+006    7.89920E+005    9.06489E+005   -4.54804E+003    6.22447E+005
            8436    6.84015E+006    7.80396E+006    7.80396E+006    1.44561E+006    5.66932E+005    7.23703E+006   -3.27217E+006    6.71142E+006    7.42487E+005    7.77755E+006    1.29647E+006    4.20004E+005    3.36272E+005    7.64422E+004
            8437    5.77577E+006    6.25718E+006    6.25718E+006    6.59639E+005    3.18305E+005    5.93887E+006   -2.41171E+006    5.75302E+006    7.36413E+005    6.13703E+006    3.61682E+005    6.70204E+005    1.61410E+004    4.76255E+005
            8438    5.42216E+006    5.98220E+006    5.98220E+006    1.05213E+006    1.74918E+005    5.80729E+006   -2.40308E+006    5.25896E+006    3.75417E+005    5.96174E+006    8.72094E+005    2.71423E+005    3.68650E+005    1.75203E+005
            8439    4.24693E+006    4.45505E+006    4.45505E+006    6.21729E+005   -1.10324E+005    4.56537E+006   -1.65548E+006    4.10136E+006    9.90924E+004    4.44021E+006    4.27146E+005    1.43212E+005    3.35385E+005    1.90273E+005
            8440    2.86702E+006    2.75301E+006    2.75301E+006    1.44329E+005   -3.16506E+005    3.06952E+006   -8.60278E+005    2.78185E+006   -2.67444E+005    2.74699E+006    1.01293E+005    7.35801E+004    1.42452E+005    1.02359E+005
            8441    4.54823E+006    4.72560E+006    4.72560E+006    2.44381E+005    1.13215E+005    4.61239E+006   -1.69440E+006    4.54397E+006    2.60164E+005    4.63326E+006    1.89773E+005    4.10938E+005    9.54568E+004    4.88407E+005
            8442    3.24812E+006    3.17510E+006    3.17510E+006    6.50833E+004   -1.95435E+005    3.37054E+006   -1.01492E+006    3.22449E+006   -1.62938E+005    3.14821E+006    5.94765E+004    1.97572E+005    8.34597E+004    2.12581E+005
            8443    3.68465E+006    3.73612E+006    3.73612E+006    9.18974E+004    1.23306E+004    3.72379E+006   -1.28012E+006    3.68272E+006    3.97242E+004    3.70059E+006    1.00030E+005    2.97755E+005    5.30055E+002    2.04809E+005
            8444    4.12457E+006    4.20929E+006    4.20929E+006    2.65113E+005   -7.46603E+004    4.28395E+006   -1.46658E+006    4.09291E+006    2.47122E+005    4.17421E+006   -2.15868E+004    3.57938E+005   -1.10604E+005    1.17754E+005
            8445    4.22809E+006    4.36580E+006    4.36580E+006    4.42116E+005   -1.12047E+005    4.47785E+006   -1.56529E+006    4.14521E+006    4.21511E+005    4.33480E+006   -6.04360E+004    3.35754E+005   -1.65860E+005   -8.94108E+004
            8446    3.86225E+006    4.08893E+006    4.08893E+006    5.30361E+005   -1.83163E+004    4.10725E+006   -1.53366E+006    3.77307E+006    5.05979E+005    4.05463E+006    4.03650E+004    2.77486E+005   -1.69377E+005   -2.14381E+005
            8447    4.72903E+006    4.72320E+006    4.72320E+006    4.60403E+005   -3.63720E+005    5.08692E+006   -1.60663E+006    4.56325E+006    4.50725E+005    4.61710E+006   -2.47938E+005    5.29876E+005   -1.82550E+005    4.70370E+005
            8448    4.59875E+006    4.35928E+006    4.35928E+006    5.46877E+005   -7.48129E+005    5.10741E+006   -1.38601E+006    4.15789E+006    4.86258E+005    4.30981E+006   -6.38040E+005    4.37256E+005   -3.61291E+005    1.79487E+004
            8449    4.05247E+006    3.90388E+006    3.90388E+006    6.12014E+005   -6.22191E+005    4.52607E+006   -1.29790E+006    3.59164E+006    5.42600E+005    3.81341E+006   -4.62301E+005    3.39515E+005   -3.94441E+005   -4.52811E+005
            8450    3.52659E+006    3.50406E+006    3.50406E+006    6.67964E+005   -4.44659E+005    3.94872E+006   -1.24245E+006    3.09309E+006    5.92843E+005    3.35905E+006   -2.24532E+005    2.52608E+005   -3.81369E+005   -6.39806E+005
            8451    3.87325E+006    3.41327E+006    3.41327E+006    5.56771E+005   -9.95306E+005    4.40858E+006   -9.91578E+005    3.04537E+006    5.24567E+005    2.87018E+006   -4.20016E+005    2.26885E+005   -4.46620E+005   -1.37106E+006
            8452    4.77364E+006    4.04951E+006    4.04951E+006    5.70070E+005   -1.39261E+006    5.44212E+006   -1.07566E+006    3.68649E+006    5.47539E+005    3.70233E+006   -1.02290E+006    3.44928E+005   -4.85341E+005   -1.20424E+006
            8453    5.63186E+006    4.73975E+006    4.73975E+006    6.08188E+005   -1.67523E+006    6.41498E+006   -1.22423E+006    4.39290E+006    5.94155E+005    4.56314E+006   -1.48459E+006    4.64678E+005   -4.90614E+005   -8.21268E+005
            8454    6.42594E+006    5.79642E+006    5.79642E+006    8.34317E+005   -1.46227E+006    7.25869E+006   -1.72282E+006    5.37896E+006    8.46914E+005    5.69685E+006   -1.37529E+006    6.74854E+005   -4.47550E+005   -1.71125E+005
            8455    1.22571E+007    1.48548E+007    1.48548E+007    2.72342E+006    2.47579E+006    1.23790E+007   -6.68467E+006    1.22514E+007    2.66764E+006    1.48029E+007    2.58343E+006    7.90053E+005    1.28118E+005    8.00389E+004
            8456    1.10793E+007    1.43382E+007    1.43382E+007    3.66667E+006    2.89179E+006    1.14464E+007   -6.96555E+006    1.10181E+007    3.81495E+006    1.41268E+007    2.95490E+006    1.36807E+006   -6.95539E+004    6.26888E+005
            8457    1.12120E+007    1.45951E+007    1.45951E+007    4.54447E+006    2.50255E+006    1.20926E+007   -7.21405E+006    1.07817E+007    4.60311E+006    1.39563E+007    3.08275E+006    1.87052E+006   -3.83247E+005    1.89358E+006
            8458    1.38292E+007    1.69290E+007    1.69290E+007    3.30385E+006    2.90437E+006    1.40246E+007   -7.71240E+006    1.38162E+007    3.35084E+006    1.68733E+007    2.91306E+006    8.67540E+005    6.10176E+004    5.36111E+004
            8459    1.21647E+007    1.61569E+007    1.61569E+007    4.44366E+006    3.58599E+006    1.25709E+007   -8.06217E+006    1.20964E+007    4.61013E+006    1.59625E+007    3.61388E+006    1.43803E+006   -4.97481E+004    4.43786E+005
            8460    1.11309E+007    1.61763E+007    1.61763E+007    5.69700E+006    4.49193E+006    1.16844E+007   -8.78841E+006    1.09827E+007    5.73564E+006    1.55560E+007    5.07363E+006    2.06661E+006   -2.56701E+005    1.58198E+006
            8461    1.47391E+007    1.81404E+007    1.81404E+007    3.71691E+006    3.10478E+006    1.50356E+007   -8.32070E+006    1.47104E+007    3.77343E+006    1.80834E+007    3.10527E+006    9.04697E+005    1.80973E+004    2.37413E+004
            8462    1.27906E+007    1.72020E+007    1.72020E+007    4.89319E+006    3.97872E+006    1.32233E+007   -8.69132E+006    1.27168E+007    5.06815E+006    1.70237E+007    3.98214E+006    1.46389E+006   -2.06977E+004    1.55220E+005
            8463    1.08036E+007    1.70149E+007    1.70149E+007    6.51222E+006    5.93369E+006    1.10812E+007   -9.82027E+006    1.07686E+007    6.48535E+006    1.65301E+007    6.44533E+006    2.17390E+006   -9.32786E+004    6.35710E+005
            8464    3.75549E+006    3.95941E+006    3.95941E+006    5.25126E+005   -5.07639E+004    4.01018E+006   -1.47792E+006    3.65417E+006    4.99017E+005    3.92771E+006    7.04491E+003   -2.61189E+005   -1.72154E+005    2.04421E+005
            8465    3.42339E+006    3.39242E+006    3.39242E+006    6.49060E+005   -4.44035E+005    3.83645E+006   -1.19915E+006    2.99122E+006    5.77168E+005    3.23684E+006   -2.16563E+005   -2.38266E+005   -3.72705E+005    6.62741E+005
            8466    3.82163E+006    3.34886E+006    3.34886E+006    5.38212E+005   -1.00266E+006    4.35152E+006   -9.61469E+005    2.99234E+006    5.06233E+005    2.79801E+006   -4.19830E+005   -2.21369E+005   -4.44103E+005    1.37041E+006
            8467    3.25250E+006    3.46392E+006    3.46392E+006    5.12356E+005   -2.30732E+004    3.48699E+006   -1.31773E+006    3.15105E+006    4.79020E+005    3.44169E+006    3.24876E+004   -1.79953E+005   -1.59302E+005    1.87724E+005
            8468    2.79596E+006    2.88503E+006    2.88503E+006    6.44986E+005   -2.48459E+005    3.13349E+006   -1.09385E+006    2.44239E+006    5.58341E+005    2.75692E+006   -3.37027E+004   -1.50421E+005   -3.24045E+005    5.62314E+005
            8469    2.81233E+006    2.62919E+006    2.62919E+006    5.00800E+005   -5.59073E+005    3.18827E+006   -8.56973E+005    2.29367E+006    4.51251E+005    2.03994E+006    7.97316E+004   -1.32348E+005   -3.85058E+005    1.17752E+006
            8470    2.84155E+006    3.04523E+006    3.04523E+006    4.83065E+005   -1.09300E+004    3.05616E+006   -1.17245E+006    2.74243E+006    4.43140E+005    3.03904E+006    3.51809E+004   -8.64948E+004   -1.42297E+005    9.49632E+004
            8471    2.27619E+006    2.43324E+006    2.43324E+006    6.15325E+005   -1.19625E+005    2.55287E+006   -9.76315E+005    1.98161E+006    5.02680E+005    2.38856E+006    3.77037E+004   -7.17842E+004   -2.82062E+005    3.04023E+005
            8472    1.69622E+006    1.81720E+006    1.81720E+006    5.19459E+005   -1.02131E+005    1.91933E+006   -7.44843E+005    1.40332E+006    3.85300E+005    1.48854E+006    3.60691E+005   -6.01391E+004   -3.29489E+005    6.57204E+005
            8473    2.71528E+006    2.90761E+006    2.90761E+006    4.68749E+005   -1.82008E+004    2.92581E+006   -1.11939E+006    2.61433E+006    4.26210E+005    2.90753E+006    2.44235E+004    1.11323E+004   -1.37613E+005   -9.41572E+003
            8474    2.08900E+006    2.27803E+006    2.27803E+006    6.16291E+005   -6.70689E+004    2.34510E+006   -9.42416E+005    1.81064E+006    4.86625E+005    2.27712E+006    6.35021E+004    1.04347E+004   -2.68303E+005   -4.12832E+004
            8475    1.03357E+006    1.26734E+006    1.26734E+006    6.97633E+005    7.42795E+004    1.19306E+006   -6.79750E+005   -4.41214E+005    3.39205E+005    1.26676E+006    4.33285E+005    3.53303E+003   -3.08317E+005   -1.91362E+004
            8476    2.90772E+006    3.11767E+006    3.11767E+006    4.88176E+005   -5.16109E+003    3.12283E+006   -1.20023E+006    2.81124E+006    4.49591E+005    3.10764E+006    4.34536E+004    1.10673E+005   -1.44807E+005   -1.23140E+005
            8477    2.36982E+006    2.51773E+006    2.51773E+006    6.22582E+005   -1.39328E+005    2.65706E+006   -1.00033E+006    2.06603E+006    5.14581E+005    2.45935E+006    2.70542E+004    8.82685E+004   -2.89774E+005   -3.52521E+005
            8478    1.79442E+006    1.89724E+006    1.89724E+006    5.16998E+005   -1.31222E+005    2.02846E+006   -7.61004E+005    1.49472E+006    3.95138E+005    1.53697E+006    3.50910E+005    6.41973E+004   -3.33485E+005   -7.11271E+005
            8479    3.38011E+006    3.57811E+006    3.57811E+006    5.06696E+005   -4.32424E+004    3.62136E+006   -1.34719E+006    3.27719E+006    4.75398E+005    3.55366E+006    1.25149E+004    2.00540E+005   -1.62706E+005   -1.91716E+005
            8480    2.95522E+006    3.02926E+006    3.02926E+006    6.50600E+005   -2.78983E+005    3.30824E+006   -1.13363E+006    2.59434E+006    5.70961E+005    2.88754E+006   -5.76236E+004    1.71806E+005   -3.30974E+005   -6.05063E+005
            8481    2.87743E+006    2.69771E+006    2.69771E+006    5.15985E+005   -5.63332E+005    3.26104E+006   -8.83453E+005    2.35262E+006    4.67717E+005    2.11276E+006    6.98810E+004    1.41518E+005   -3.90032E+005   -1.18943E+006
            8482    1.12149E+007    1.46015E+007    1.46015E+007    4.54949E+006    2.50511E+006    1.20964E+007   -7.21871E+006    1.07836E+007    4.60751E+006    1.39613E+007    3.08729E+006    1.87280E+006    3.84486E+005   -1.89583E+006
            8483    1.10898E+007    1.43535E+007    1.43535E+007    3.66928E+006    2.89845E+006    1.14551E+007   -6.97375E+006    1.10293E+007    3.81844E+006    1.41442E+007    2.95858E+006    1.36658E+006    6.75085E+004   -6.12797E+005
            8484    1.22843E+007    1.48893E+007    1.48893E+007    2.72987E+006    2.48393E+006    1.24054E+007   -6.70104E+006    1.22787E+007    2.67642E+006    1.48374E+007    2.58928E+006    7.91477E+005   -1.26940E+005   -7.81641E+004
            8485    1.11217E+007    1.61843E+007    1.61843E+007    5.71059E+006    4.51177E+006    1.16726E+007   -8.80223E+006    1.09750E+007    5.74788E+006    1.55632E+007    5.09565E+006    2.06975E+006    2.55704E+005   -1.57881E+006
            8486    1.21777E+007    1.61558E+007    1.61558E+007    4.43452E+006    3.56797E+006    1.25879E+007   -8.05277E+006    1.21081E+007    4.60046E+006    1.59625E+007    3.59535E+006    1.43528E+006    4.95887E+004   -4.40989E+005
            8487    1.38406E+007    1.69435E+007    1.69435E+007    3.30756E+006    2.90694E+006    1.40365E+007   -7.71931E+006    1.38275E+007    3.35467E+006    1.68879E+007    2.91542E+006    8.67212E+005   -6.04626E+004   -5.49096E+004
            8488    1.07963E+007    1.70177E+007    1.70177E+007    6.52082E+006    5.94498E+006    1.10727E+007   -9.82783E+006    1.07617E+007    6.49211E+006    1.65339E+007    6.45743E+006    2.17564E+006    9.13287E+004   -6.18331E+005
            8489    1.27961E+007    1.71966E+007    1.71966E+007    4.88667E+006    3.96429E+006    1.32323E+007   -8.68252E+006    1.27209E+007    5.06100E+006    1.70184E+007    3.96814E+006    1.46223E+006    2.21491E+004   -1.64773E+005
            8490    1.47382E+007    1.81397E+007    1.81397E+007    3.71596E+006    3.10616E+006    1.50336E+007   -8.32062E+006    1.47097E+007    3.77258E+006    1.80827E+007    3.10660E+006    9.05144E+005   -1.71721E+004   -2.41148E+004
            8491    4.70597E+006    5.06892E+006    5.06892E+006    8.10969E+005    1.61619E+004    5.05276E+006   -1.96535E+006    4.55127E+006    2.33204E+005    5.05917E+006    6.03676E+005   -1.40867E+005    3.56664E+005   -1.47912E+005
            8492    5.67759E+006    6.35044E+006    6.35044E+006    1.16654E+006    2.82801E+005    6.06764E+006   -2.59993E+006    5.51966E+006    4.93029E+005    6.34107E+006    9.65681E+005   -1.85052E+005    3.76886E+005   -1.25507E+005
            8493    6.89865E+006    7.93890E+006    7.93890E+006    1.52199E+006    6.42799E+005    7.29610E+006   -3.36790E+006    6.77089E+006    8.29651E+005    7.92940E+006    1.34464E+006   -2.29557E+005    3.57999E+005   -1.05745E+005
            8494    8.45464E+006    9.93185E+006    9.93185E+006    1.87867E+006    1.12607E+006    8.80578E+006   -4.31220E+006    8.37878E+006    1.29315E+006    9.92182E+006    1.72161E+006   -2.81849E+005    3.08968E+005   -7.24108E+004
            8495    1.02643E+007    1.22462E+007    1.22462E+007    2.24539E+006    1.73716E+006    1.05090E+007   -5.40958E+006    1.02360E+007    1.89464E+006    1.22353E+007    2.09879E+006   -3.25539E+005    2.32981E+005   -7.33822E+004
            8496    4.87382E+006    5.20967E+006    5.20967E+006    5.88094E+005    1.17713E+005    5.09196E+006   -1.97183E+006    4.82235E+006    3.03866E+005    5.14890E+006    4.62709E+005   -3.17401E+005    2.53408E+005   -4.20010E+005
            8497    5.84077E+006    6.48804E+006    6.48804E+006    9.13753E+005    4.13026E+005    6.07501E+006   -2.60494E+006    5.79218E+006    5.86942E+005    6.42649E+006    8.01382E+005   -4.38221E+005    2.55357E+005   -3.86751E+005
            8498    7.02406E+006    8.04301E+006    8.04301E+006    1.27083E+006    7.91618E+005    7.25139E+006   -3.36849E+006    6.98714E+006    9.48084E+005    7.98124E+006    1.17613E+006   -5.75955E+005    2.26764E+005   -3.02538E+005
            8499    8.52014E+006    1.00187E+007    1.00187E+007    1.68761E+006    1.32130E+006    8.69738E+006   -4.34253E+006    8.50239E+006    1.46860E+006    9.94809E+006    1.61091E+006   -7.15741E+005    1.80565E+005   -2.84512E+005
            8500    1.01912E+007    1.22718E+007    1.22718E+007    2.18836E+006    1.97623E+006    1.02956E+007   -5.47881E+006    1.01862E+007    2.12697E+006    1.21946E+007    2.11487E+006   -8.42556E+005    1.25125E+005   -2.61585E+005
            8501    5.21764E+006    5.47678E+006    5.47678E+006    4.10018E+005    1.20334E+005    5.35645E+006   -2.00238E+006    5.19950E+006    4.68262E+005    5.35484E+006    1.84037E+005   -5.93594E+005    2.21279E+003   -5.22314E+005
            8502    6.21078E+006    6.71791E+006    6.71791E+006    7.20122E+005    3.14081E+005    6.40383E+006   -2.58404E+006    6.18081E+006    8.01568E+005    6.57176E+006    3.78791E+005   -8.09390E+005   -4.14274E+004   -4.79555E+005
            8503    7.44134E+006    8.37831E+006    8.37831E+006    1.21452E+006    6.87443E+005    7.69087E+006   -3.42676E+006    7.39917E+006    1.32215E+006    8.18585E+006    7.72279E+005   -1.04490E+006   -7.22534E+004   -5.46386E+005
            8504    8.67389E+006    1.02312E+007    1.02312E+007    1.85914E+006    1.28415E+006    8.94708E+006   -4.45817E+006    8.63086E+006    1.98167E+006    9.99628E+006    1.39657E+006   -1.27579E+006   -1.05021E+005   -5.92908E+005
            8505    1.00741E+007    1.24039E+007    1.24039E+007    2.67082E+006    2.02036E+006    1.03835E+007   -5.69836E+006    1.00267E+007    2.82207E+006    1.21351E+007    2.13795E+006   -1.48804E+006   -1.17564E+005   -6.40780E+005
            8506    5.60242E+006    5.45184E+006    5.45184E+006    7.12792E+005   -7.31235E+005    6.18308E+006   -1.81113E+006    5.15821E+006    7.18540E+005    5.34740E+006   -6.32536E+005   -6.71787E+005   -3.12799E+005   -2.79327E+005
            8507    6.96152E+006    6.94762E+006    6.94762E+006    1.12929E+006   -7.64987E+005    7.71260E+006   -2.43731E+006    6.34169E+006    1.17744E+006    6.77766E+006   -6.43184E+005   -9.00297E+005   -3.33100E+005   -5.24491E+005
            8508    8.00083E+006    8.46641E+006    8.46641E+006    1.67529E+006   -3.53520E+005    8.81993E+006   -3.26273E+006    7.38810E+006    1.74772E+006    8.20911E+006   -1.68653E+005   -1.11517E+006   -3.35738E+005   -8.44535E+005
            8509    9.03130E+006    1.02630E+007    1.02630E+007    2.42021E+006    3.89097E+005    9.87390E+006   -4.35743E+006    8.49431E+006    2.51858E+006    9.91974E+006    6.33988E+005   -1.32972E+006   -3.21355E+005   -1.10651E+006
            8510    9.93504E+006    1.21977E+007    1.21977E+007    3.32118E+006    1.46574E+006    1.07320E+007   -5.66154E+006    9.53347E+006    3.43545E+006    1.17835E+007    1.76563E+006   -1.51257E+006   -2.89339E+005   -1.31298E+006
            8511    1.11768E+007    1.27344E+007    1.27344E+007    3.53130E+006    2.97153E+005    1.24372E+007   -5.52095E+006    1.00403E+007    3.56442E+006    1.21991E+007    7.99334E+005   -1.59919E+006   -5.64240E+005   -1.84524E+006
            8512    1.03339E+007    1.06308E+007    1.06308E+007    2.49423E+006   -9.96360E+005    1.16272E+007   -4.04290E+006    8.85392E+006    2.52904E+006    1.03105E+007   -7.10846E+005   -1.30308E+006   -5.84631E+005   -1.21262E+006
            8513    9.21730E+006    8.79223E+006    8.79223E+006    1.75805E+006   -1.64214E+006    1.04344E+007   -2.96938E+006    7.60079E+006    1.78921E+006    8.61321E+006   -1.49429E+006   -1.04868E+006   -5.67320E+005   -5.59488E+005
            8514    8.05335E+006    7.31139E+006    7.31139E+006    1.27835E+006   -1.83362E+006    9.14501E+006   -2.25204E+006    6.47694E+006    1.30086E+006    7.19352E+006   -1.73826E+006   -8.41544E+005   -5.28297E+005   -9.40846E+004
            8515    6.78142E+006    5.98850E+006    5.98850E+006    9.48414E+005   -1.72151E+006    7.71002E+006   -1.73847E+006    5.39286E+006    9.53322E+005    5.87594E+006   -1.61386E+006   -6.58362E+005   -5.14687E+005    3.79817E+005
            8516    5.76092E+006    4.85773E+006    4.85773E+006    6.55891E+005   -1.70935E+006    6.56708E+006   -1.26809E+006    4.45355E+006    6.41430E+005    4.67484E+006   -1.51200E+006   -4.83986E+005   -5.13609E+005    8.37212E+005
            8517    4.76968E+006    4.01659E+006    4.01659E+006    5.54830E+005   -1.42400E+006    5.44059E+006   -1.04914E+006    3.65866E+006    5.32546E+005    3.63009E+006   -1.01521E+006   -3.30139E+005   -4.86139E+005    1.28183E+006
            8518    4.02072E+006    3.85809E+006    3.85809E+006    6.32246E+005   -6.46472E+005    4.50456E+006   -1.28129E+006    3.51760E+006    5.62468E+005    3.76159E+006   -4.80194E+005   -3.26992E+005   -4.01923E+005    4.84288E+005
            8519    4.09866E+006    4.25592E+006    4.25592E+006    4.58934E+005   -8.92558E+004    4.34517E+006   -1.54186E+006    4.01494E+006    4.35213E+005    4.22510E+006   -3.47156E+004   -3.24708E+005   -1.69128E+005    1.03123E+005
            8520    4.45359E+006    4.27813E+006    4.27813E+006    5.87546E+005   -6.68633E+005    4.94676E+006   -1.39901E+006    4.02513E+006    5.29969E+005    4.22447E+006   -5.57397E+005   -4.38727E+005   -3.63419E+005    6.26496E+004
            8521    4.09140E+006    4.20935E+006    4.20935E+006    3.22941E+005   -6.00957E+004    4.26945E+006   -1.49073E+006    4.05076E+006    3.05361E+005    4.17853E+006   -1.16945E+004   -3.44782E+005   -1.22899E+005   -5.04098E+004
            8522    3.85736E+006    3.88969E+006    3.88969E+006    1.26601E+005   -5.54883E+004    3.94518E+006   -1.32027E+006    3.84767E+006    1.29140E+005    3.85602E+006   -2.43632E+004   -3.12508E+005   -4.65298E+004   -1.77402E+005
            8523    3.43500E+006    3.39597E+006    3.39597E+006   -1.12826E+003   -7.57246E+004    3.47169E+006   -1.10637E+006    3.43318E+006   -5.29353E+004    3.36154E+006    1.05109E+004   -2.55092E+005    3.34277E+004   -2.27040E+005
            8524    3.00096E+006    2.89921E+006    2.89921E+006    7.17840E+004   -2.49449E+005    3.14866E+006   -9.07181E+005    2.96191E+006   -2.15858E+005    2.87914E+006    5.82575E+004   -1.67605E+005    9.48898E+004   -1.71956E+005
            8525    2.73041E+006    2.58034E+006    2.58034E+006    9.95461E+004   -3.45098E+005    2.92544E+006   -7.78264E+005    2.64711E+006   -3.08485E+005    2.57749E+006    6.57839E+004   -5.56251E+004    1.21884E+005   -6.44804E+004
            8526    4.53578E+006    4.49615E+006    4.49615E+006    4.20077E+005   -3.90140E+005    4.88629E+006   -1.50869E+006    4.36850E+006    3.98785E+005    4.42667E+006   -2.99368E+005   -4.70160E+005   -2.03351E+005   -2.95960E+005
            8527    4.33523E+006    4.41806E+006    4.41806E+006    1.67558E+005    2.79623E+003    4.41527E+006   -1.52947E+006    4.32818E+006    2.02339E+005    4.32922E+006    5.68616E+004   -3.83071E+005    5.31711E+004   -4.80587E+005
            8528    4.01911E+006    4.12149E+006    4.12149E+006    3.18432E+005   -8.34705E+004    4.20496E+006   -1.45215E+006    3.97352E+006    7.25222E+004    4.06760E+006    2.16330E+005   -2.27619E+005    2.15751E+005   -3.87883E+005
            8529    3.80950E+006    3.89747E+006    3.89747E+006    4.51905E+005   -1.93507E+005    4.09098E+006   -1.38529E+006    3.68347E+006   -1.40457E+004    3.88961E+006    2.80305E+005   -8.55521E+004    2.91600E+005   -1.40366E+005
            8530    5.41662E+006    5.97590E+006    5.97590E+006    1.05142E+006    1.74202E+005    5.80170E+006   -2.40051E+006    5.25324E+006    3.74115E+005    5.95531E+006    8.72092E+005    2.71294E+005   -3.68320E+005   -1.76610E+005
            8531    6.84729E+006    7.81535E+006    7.81535E+006    1.44999E+006    5.71022E+005    7.24433E+006   -3.27879E+006    6.71861E+006    7.45675E+005    7.78901E+006    1.30167E+006    4.19774E+005   -3.35555E+005   -7.59414E+004
            8532    8.61605E+006    1.00736E+007    1.00736E+007    1.83975E+006    1.12042E+006    8.95316E+006   -4.34458E+006    8.54810E+006    1.28093E+006    1.00354E+007    1.71738E+006    5.57517E+005   -2.81851E+005   -1.35013E+005
            8533    1.04336E+007    1.24643E+007    1.24643E+007    2.28674E+006    1.79236E+006    1.06720E+007   -5.51448E+006    1.04072E+007    1.93863E+006    1.24189E+007    2.18587E+006    6.83143E+005   -2.06357E+005   -9.12105E+004
            8534    5.77865E+006    6.25982E+006    6.25982E+006    6.59759E+005    3.17761E+005    5.94205E+006   -2.41245E+006    5.75581E+006    7.36503E+005    6.13986E+006    3.60972E+005    6.70174E+005   -1.60407E+004   -4.75468E+005
            8535    7.25987E+006    8.24670E+006    8.24670E+006    1.27583E+006    7.28772E+005    7.51792E+006   -3.41710E+006    7.21328E+006    1.38284E+006    8.07405E+006    7.94408E+005    9.08140E+005    4.18124E+003   -6.26010E+005
            8536    8.43481E+006    1.01179E+007    1.01179E+007    1.97400E+006    1.41953E+006    8.69837E+006   -4.50381E+006    8.39366E+006    2.09288E+006    9.91204E+006    1.50651E+006    1.09601E+006    3.43702E+004   -7.00197E+005
            8537    9.80080E+006    1.22463E+007    1.22463E+007    2.79632E+006    2.12886E+006    1.01175E+007   -5.72384E+006    9.74947E+006    2.93154E+006    1.20303E+007    2.20963E+006    1.25521E+006    5.61471E+004   -6.93261E+005
            8538    1.07252E+007    1.25865E+007    1.25865E+007    3.38346E+006    8.08108E+005    1.17784E+007   -5.59269E+006    9.99336E+006    3.44798E+006    1.20709E+007    1.25919E+006    1.61812E+006    4.47670E+005   -1.68858E+006
            8539    9.80251E+006    1.05597E+007    1.05597E+007    2.41768E+006   -3.20839E+005    1.08805E+007   -4.21885E+006    8.87880E+006    2.48354E+006    1.02087E+007   -3.57154E+004    1.34967E+006    4.54117E+005   -1.22730E+006
            8540    8.65751E+006    8.76460E+006    8.76460E+006    1.71660E+006   -8.99173E+005    9.66377E+006   -3.19401E+006    7.69010E+006    1.77691E+006    8.52520E+006   -7.20078E+005    1.10205E+006    4.10049E+005   -8.52381E+005
            8541    7.49201E+006    7.25471E+006    7.25471E+006    1.22582E+006   -1.13278E+006    8.38749E+006   -2.44925E+006    6.57545E+006    1.27395E+006    7.10854E+006   -1.03474E+006    8.96473E+005    3.92997E+005   -3.71115E+005
            8542    6.43507E+006    5.80310E+006    5.80310E+006    8.35640E+005   -1.46638E+006    7.26948E+006   -1.72412E+006    5.38432E+006    8.48552E+005    5.70332E+006   -1.37951E+006    6.75913E+005    4.47823E+005    1.71446E+005
            8543    5.62781E+006    4.73878E+006    4.73878E+006    6.10234E+005   -1.67159E+006    6.41037E+006   -1.22581E+006    4.38967E+006    5.96131E+005    4.56155E+006   -1.48026E+006    4.63939E+005    4.90561E+005    8.23562E+005
            8544    4.76419E+006    4.04524E+006    4.04524E+006    5.71138E+005   -1.38578E+006    5.43102E+006   -1.07686E+006    3.68177E+006    5.48537E+005    3.69798E+006   -1.01592E+006    3.44429E+005    4.84823E+005    1.20315E+006
            8545    3.87658E+006    3.41813E+006    3.41813E+006    5.58334E+005   -9.94060E+005    4.41219E+006   -9.94134E+005    3.04933E+006    5.26159E+005    2.87700E+006   -4.20758E+005    2.27541E+005    4.46536E+005    1.36933E+006
            8546    3.53011E+006    3.50496E+006    3.50496E+006    6.66904E+005   -4.47986E+005    3.95295E+006   -1.24129E+006    3.09517E+006    5.91776E+005    3.35940E+006   -2.27296E+005    2.52675E+005    3.81919E+005    6.41625E+005
            8547    3.86547E+006    4.09225E+006    4.09225E+006    5.31688E+005   -1.90475E+004    4.11130E+006   -1.53496E+006    3.77569E+006    5.06879E+005    4.05773E+006    4.02877E+004    2.78378E+005    1.70637E+005    2.15249E+005
            8548    4.06046E+006    3.91051E+006    3.91051E+006    6.13116E+005   -6.24832E+005    4.53534E+006   -1.29960E+006    3.59765E+006    5.44222E+005    3.81947E+006   -4.64899E+005    3.40718E+005    3.94857E+005    4.54832E+005
            8549    4.22842E+006    4.36423E+006    4.36423E+006    4.42264E+005   -1.15324E+005    4.47956E+006   -1.56372E+006    4.14450E+006    4.21201E+005    4.33315E+006   -6.31804E+004    3.35743E+005    1.67189E+005    9.07325E+004
            8550    4.60977E+006    4.36474E+006    4.36474E+006    5.46880E+005   -7.56348E+005    5.12109E+006   -1.38509E+006    4.16408E+006    4.86348E+005    4.31505E+006   -6.46123E+005    4.38443E+005    3.62962E+005   -1.58507E+004
            8551    4.12836E+006    4.21487E+006    4.21487E+006    2.68670E+005   -7.42459E+004    4.28912E+006   -1.46977E+006    4.09613E+006    2.50739E+005    4.17992E+006   -2.13629E+004    3.58009E+005    1.11413E+005   -1.15364E+005
            8552    4.73261E+006    4.72866E+006    4.72866E+006    4.62967E+005   -3.62311E+005    5.09097E+006   -1.60977E+006    4.56649E+006    4.53115E+005    4.62206E+006   -2.45861E+005    5.30908E+005    1.82999E+005   -4.72185E+005
            8553    3.69111E+006    3.74392E+006    3.74392E+006    9.19992E+004    1.48355E+004    3.72909E+006   -1.28359E+006    3.68930E+006    4.29230E+004    3.70830E+006    9.95330E+004    2.98839E+005    3.72204E+002   -2.04675E+005
            8554    3.25184E+006    3.17908E+006    3.17908E+006    6.42927E+004   -1.94359E+005    3.37344E+006   -1.01634E+006    3.22858E+006   -1.61949E+005    3.15197E+006    5.89963E+004    1.98662E+005   -8.29763E+004   -2.13489E+005
            8555    2.86577E+006    2.75115E+006    2.75115E+006    1.42872E+005   -3.16595E+005    3.06775E+006   -8.59143E+005    2.78109E+006   -2.67992E+005    2.74499E+006    1.00435E+005    7.44421E+004   -1.41623E+005   -1.03521E+005
            8556    4.54935E+006    4.72694E+006    4.72694E+006    2.44580E+005    1.13433E+005    4.61351E+006   -1.69498E+006    4.54510E+006    2.60661E+005    4.63444E+006    1.89857E+005    4.11125E+005   -9.52937E+004   -4.89114E+005
            8557    4.23934E+006    4.44519E+006    4.44519E+006    6.18409E+005   -1.11835E+005    4.55702E+006   -1.65059E+006    4.09423E+006    9.67893E+004    4.43034E+006    4.24632E+005    1.42988E+005   -3.34439E+005   -1.90326E+005
            8558    1.14308E+007    1.47705E+007    1.47705E+007    4.80018E+006    2.29479E+006    1.24757E+007   -7.28849E+006    1.07868E+007    4.81991E+006    1.40305E+007    3.01505E+006   -1.89479E+006   -4.71917E+005   -2.19914E+006
            8559    1.06723E+007    1.41515E+007    1.41515E+007    4.32203E+006    2.79977E+006    1.13517E+007   -7.09110E+006    1.04239E+007    4.46219E+006    1.37218E+007    3.08928E+006   -1.65252E+006   -2.30002E+005   -1.31771E+006
            8560    1.13858E+007    1.45925E+007    1.45925E+007    3.57908E+006    2.86760E+006    1.17249E+007   -7.01305E+006    1.13356E+007    3.76704E+006    1.43044E+007    2.96767E+006   -1.66929E+006   -1.19818E+005   -6.15114E+005
            8561    1.19216E+007    1.46383E+007    1.46383E+007    2.82833E+006    2.60804E+006    1.20302E+007   -6.69155E+006    1.19170E+007    2.89742E+006    1.45541E+007    2.62314E+006   -9.63801E+005    6.59748E+004   -2.41367E+005
            8562    1.21501E+007    1.46846E+007    1.46846E+007    2.69821E+006    2.37709E+006    1.23075E+007   -6.58662E+006    1.21405E+007    2.60653E+006    1.46728E+007    2.48057E+006   -3.72392E+005    1.51774E+005   -5.67911E+004
            8563    1.10449E+007    1.63600E+007    1.63600E+007    6.11792E+006    4.65761E+006    1.17024E+007   -9.04517E+006    1.08245E+007    6.08100E+006    1.56206E+007    5.43393E+006   -2.13535E+006   -3.17706E+005   -1.86295E+006
            8564    1.10944E+007    1.57524E+007    1.57524E+007    5.20511E+006    4.18190E+006    1.15705E+007   -8.37981E+006    1.09875E+007    5.38691E+006    1.53765E+007    4.37603E+006   -1.73387E+006   -1.52448E+005   -1.01398E+006
            8565    1.24363E+007    1.64798E+007    1.64798E+007    4.42380E+006    3.69524E+006    1.27845E+007   -8.19960E+006    1.23881E+007    4.66236E+006    1.61884E+007    3.74806E+006   -1.80122E+006   -8.78999E+004   -4.76351E+005
            8566    1.33748E+007    1.66813E+007    1.66813E+007    3.54677E+006    3.07852E+006    1.36028E+007   -7.76888E+006    1.33564E+007    3.63538E+006    1.65903E+007    3.08094E+006   -1.07592E+006    2.24568E+004   -1.74620E+005
            8567    1.37530E+007    1.67691E+007    1.67691E+007    3.26303E+006    2.78185E+006    1.39872E+007   -7.60465E+006    1.37340E+007    3.26381E+006    1.67564E+007    2.79374E+006   -4.11131E+005    7.56289E+004   -4.49073E+004
            8568    1.04127E+007    1.71228E+007    1.71228E+007    7.16054E+006    6.31168E+006    1.08111E+007   -1.01983E+007    1.03344E+007    6.91758E+006    1.65643E+007    7.11312E+006   -2.27493E+006   -1.10450E+005   -7.41538E+005
            8569    1.12916E+007    1.66832E+007    1.66832E+007    5.67393E+006    5.12902E+006    1.15542E+007   -9.16206E+006    1.12620E+007    5.94375E+006    1.63776E+007    5.16488E+006   -1.77556E+006   -5.03207E+004   -3.81899E+005
            8570    1.30501E+007    1.75773E+007    1.75773E+007    4.89883E+006    4.18480E+006    1.33925E+007   -8.88697E+006    1.30061E+007    5.16981E+006    1.72986E+007    4.19249E+006   -1.85203E+006   -3.66861E+004   -1.77759E+005
            8571    1.42195E+007    1.78775E+007    1.78775E+007    3.98529E+006    3.35189E+006    1.45256E+007   -8.40489E+006    1.41877E+007    4.07549E+006    1.77869E+007    3.35230E+006   -1.11595E+006    2.25320E+003   -7.47875E+004
            8572    1.46976E+007    1.80104E+007    1.80104E+007    3.66794E+006    2.98175E+006    1.50286E+007   -8.22002E+006    1.46615E+007    3.68026E+006    1.79975E+007    2.98233E+006   -4.29716E+005    2.02035E+004   -1.69429E+004
            8573    3.82777E+006    3.35070E+006    3.35070E+006    5.37194E+005   -1.00816E+006    4.35886E+006   -9.59909E+005    2.99448E+006    5.05323E+005    2.79806E+006   -4.23653E+005   -2.21522E+005    4.44763E+005   -1.37376E+006
            8574    3.41499E+006    3.38774E+006    3.38774E+006    6.50793E+005   -4.39188E+005    3.82692E+006   -1.19978E+006    2.98425E+006    5.78539E+005    3.23343E+006   -2.12629E+005   -2.37008E+005    3.71920E+005   -6.59234E+005
            8575    3.74353E+006    3.94859E+006    3.94859E+006    5.24837E+005   -4.85576E+004    3.99715E+006   -1.47496E+006    3.64277E+006    4.98523E+005    3.91699E+006    9.35937E+003   -2.59376E+005    1.71768E+005   -2.05206E+005
            8576    2.80651E+006    2.62598E+006    2.62598E+006    5.01727E+005   -5.55624E+005    3.18160E+006   -8.57361E+005    2.28930E+006    4.52001E+005    2.03628E+006    8.37969E+004   -1.31723E+005    3.84781E+005   -1.17635E+006
            8577    2.79297E+006    2.88214E+006    2.88214E+006    6.45207E+005   -2.48232E+005    3.13037E+006   -1.09304E+006    2.43893E+006    5.58458E+005    2.75516E+006   -3.44988E+004   -1.49778E+005    3.23700E+005   -5.59579E+005
            8578    3.24199E+006    3.45292E+006    3.45292E+006    5.11115E+005   -2.29428E+004    3.47586E+006   -1.31370E+006    3.14073E+006    4.77420E+005    3.43110E+006    3.25648E+004   -1.77989E+005    1.59110E+005   -1.85660E+005
            8579    1.68555E+006    1.80761E+006    1.80761E+006    5.19093E+005   -9.99293E+004    1.90754E+006   -7.42257E+005    1.39301E+006    3.83190E+005    1.48077E+006    3.62811E+005   -5.92443E+004    3.29359E+005   -6.52598E+005
            8580    2.27490E+006    2.43109E+006    2.43109E+006    6.15291E+005   -1.20684E+005    2.55177E+006   -9.75232E+005    1.97919E+006    5.02315E+005    2.38670E+006    3.66829E+004   -7.14768E+004    2.82482E+005   -3.02933E+005
            8581    2.83786E+006    3.04110E+006    3.04110E+006    4.82711E+005   -1.13537E+004    3.05245E+006   -1.17082E+006    2.73858E+006    4.42633E+005    3.03509E+006    3.47297E+004   -8.49502E+004    1.42291E+005   -9.37325E+004
            8582    1.03377E+006    1.26828E+006    1.26828E+006    6.98132E+005    7.49733E+004    1.19330E+006   -6.80460E+005   -4.39527E+005    3.40055E+005    1.26693E+006    4.34391E+005    4.55580E+003    3.08455E+005    2.95401E+004
            8583    2.08944E+006    2.27903E+006    2.27903E+006    6.17110E+005   -6.66184E+004    2.34565E+006   -9.43175E+005    1.81083E+006    4.87500E+005    2.27809E+006    6.39382E+004    1.07162E+004    2.68366E+005    4.21973E+004
            8584    2.71663E+006    2.90927E+006    2.90927E+006    4.69179E+005   -1.79904E+004    2.92726E+006   -1.12015E+006    2.61563E+006    4.26578E+005    2.90916E+006    2.47172E+004    1.27514E+004    1.37770E+005    1.01033E+004
            8585    1.81363E+006    1.90984E+006    1.90984E+006    5.13837E+005   -1.40055E+005    2.04990E+006   -7.61209E+005    1.51207E+006    3.95217E+005    1.54073E+006    3.47676E+005    6.55566E+004    3.34423E+005    7.23859E+005
            8586    2.37004E+006    2.51657E+006    2.51657E+006    6.22072E+005   -1.41018E+005    2.65758E+006   -9.99207E+005    2.06524E+006    5.13632E+005    2.45796E+006    2.60240E+004    8.84282E+004    2.90557E+005    3.53126E+005
            8587    2.91680E+006    3.12650E+006    3.12650E+006    4.88192E+005   -5.72343E+003    3.13222E+006   -1.20299E+006    2.82040E+006    4.50061E+005    3.11630E+006    4.26024E+004    1.12360E+005    1.44507E+005    1.23744E+005
            8588    2.89238E+006    2.70945E+006    2.70945E+006    5.17210E+005   -5.68733E+005    3.27818E+006   -8.85976E+005    2.36367E+006    4.69176E+005    2.12591E+006    6.28377E+004    1.42837E+005    3.90842E+005    1.19210E+006
            8589    2.94999E+006    3.02464E+006    3.02464E+006    6.50108E+005   -2.77732E+005    3.30237E+006   -1.13234E+006    2.58984E+006    5.70147E+005    2.88129E+006   -5.44230E+004    1.71229E+005    3.31352E+005    6.08326E+005
            8590    3.39006E+006    3.58913E+006    3.58913E+006    5.08274E+005   -4.26484E+004    3.63178E+006   -1.35159E+006    3.28707E+006    4.77273E+005    3.56456E+006    1.29249E+004    2.02267E+005    1.62724E+005    1.91316E+005
            8591    1.21414E+007    1.46707E+007    1.46707E+007    2.69255E+006    2.37237E+006    1.22984E+007   -6.57855E+006    1.21319E+007    2.60031E+006    1.46590E+007    2.47634E+006   -3.71636E+005   -1.51586E+005    5.48636E+004
            8592    1.19213E+007    1.46388E+007    1.46388E+007    2.83036E+006    2.60773E+006    1.20311E+007   -6.69230E+006    1.19167E+007    2.90064E+006    1.45540E+007    2.62226E+006   -9.67502E+005   -6.50681E+004    2.41429E+005
            8593    1.13867E+007    1.46005E+007    1.46005E+007    3.59113E+006    2.87073E+006    1.17298E+007   -7.02078E+006    1.13352E+007    3.77923E+006    1.43108E+007    2.97236E+006   -1.67249E+006    1.21443E+005    6.21449E+005
            8594    1.06728E+007    1.41623E+007    1.41623E+007    4.33553E+006    2.80812E+006    1.13542E+007   -7.10199E+006    1.04226E+007    4.47433E+006    1.37293E+007    3.10236E+006   -1.65492E+006    2.31831E+005    1.32877E+006
            8595    1.14316E+007    1.47831E+007    1.47831E+007    4.80961E+006    2.30780E+006    1.24753E+007   -7.30016E+006    1.07895E+007    4.82882E+006    1.40425E+007    3.02914E+006   -1.89595E+006    4.71844E+005    2.19971E+006
            8596    1.37537E+007    1.67679E+007    1.67679E+007    3.26162E+006    2.77954E+006    1.39884E+007   -7.60302E+006    1.37346E+007    3.26197E+006    1.67555E+007    2.79164E+006   -4.07323E+005   -7.63495E+004    4.65824E+004
            8597    1.33788E+007    1.66810E+007    1.66810E+007    3.54117E+006    3.07551E+006    1.36055E+007   -7.76591E+006    1.33605E+007    3.62839E+006    1.65914E+007    3.07796E+006   -1.06807E+006   -2.37425E+004    1.74018E+005
            8598    1.24353E+007    1.64737E+007    1.64737E+007    4.41890E+006    3.68993E+006    1.27838E+007   -8.19418E+006    1.23871E+007    4.65575E+006    1.61839E+007    3.74294E+006   -1.79593E+006    8.81126E+004    4.77756E+005
            8599    1.10890E+007    1.57634E+007    1.57634E+007    5.21926E+006    4.19988E+006    1.15635E+007   -8.39417E+006    1.09828E+007    5.40055E+006    1.53836E+007    4.39834E+006   -1.73956E+006    1.52739E+005    1.02413E+006
            8600    1.10449E+007    1.63652E+007    1.63652E+007    6.12682E+006    4.66035E+006    1.17049E+007   -9.05080E+006    1.08226E+007    6.08629E+006    1.56210E+007    5.44512E+006   -2.13860E+006    3.19011E+005    1.87338E+006
            8601    1.46938E+007    1.80068E+007    1.80068E+007    3.66639E+006    2.98343E+006    1.50233E+007   -8.21886E+006    1.46580E+007    3.67862E+006    1.79940E+007    2.98399E+006   -4.27722E+005   -1.97243E+004    1.61873E+004
            8602    1.42248E+007    1.78781E+007    1.78781E+007    3.98159E+006    3.34628E+006    1.45318E+007   -8.40199E+006    1.41928E+007    4.07123E+006    1.77881E+007    3.34667E+006   -1.11259E+006   -2.44141E+003    7.38920E+004
            8603    1.30499E+007    1.75789E+007    1.75789E+007    4.89998E+006    4.18725E+006    1.33917E+007   -8.88873E+006    1.30060E+007    5.17077E+006    1.73007E+007    4.19470E+006   -1.85091E+006    3.61366E+004    1.74678E+005
            8604    1.12794E+007    1.66742E+007    1.66742E+007    5.67327E+006    5.13556E+006    1.15386E+007   -9.16100E+006    1.12505E+007    5.94338E+006    1.63691E+007    5.17056E+006   -1.77454E+006    4.98145E+004    3.74553E+005
            8605    1.04090E+007    1.71081E+007    1.71081E+007    7.14904E+006    6.30095E+006    1.08071E+007   -1.01860E+007    1.03309E+007    6.90901E+006    1.65490E+007    7.10009E+006   -2.27499E+006    1.11945E+005    7.43839E+005
            8606    6.77975E+006    5.98857E+006    5.98857E+006    9.49532E+005   -1.71949E+006    7.70807E+006   -1.73954E+006    5.39183E+006    9.54405E+005    5.87646E+006   -1.61225E+006   -6.58635E+005    5.14330E+005   -3.75246E+005
            8607    8.05834E+006    7.31554E+006    7.31554E+006    1.28218E+006   -1.83594E+006    9.15149E+006   -2.25393E+006    6.47582E+006    1.30452E+006    7.19770E+006   -1.74044E+006   -8.41441E+005    5.29007E+005    9.54879E+004
            8608    9.23266E+006    8.81372E+006    8.81372E+006    1.76762E+006   -1.63800E+006    1.04517E+007   -2.98111E+006    7.61372E+006    1.79915E+006    8.63311E+006   -1.48893E+006   -1.05250E+006    5.67873E+005    5.67534E+005
            8609    1.03473E+007    1.06600E+007    1.06600E+007    2.50788E+006   -9.80821E+005    1.16408E+007   -4.06234E+006    8.87157E+006    2.54283E+006    1.03361E+007   -6.91960E+005   -1.30910E+006    5.85266E+005    1.22329E+006
            8610    1.11752E+007    1.27542E+007    1.27542E+007    3.54501E+006    3.21485E+005    1.24327E+007   -5.54022E+006    1.00466E+007    3.57872E+006    1.22151E+007    8.26816E+005   -1.60252E+006    5.61543E+005    1.85369E+006
            8611    9.93975E+006    1.21917E+007    1.21917E+007    3.31792E+006    1.45076E+006    1.07409E+007   -5.65345E+006    9.53315E+006    3.43167E+006    1.17779E+007    1.75083E+006   -1.51111E+006    2.91190E+005    1.31417E+006
            8612    1.00635E+007    1.23891E+007    1.23891E+007    2.67382E+006    2.01018E+006    1.03789E+007   -5.69102E+006    1.00141E+007    2.82411E+006    1.21180E+007    2.13091E+006   -1.49206E+006    1.21970E+005    6.45514E+005
            8613    1.01854E+007    1.22688E+007    1.22688E+007    2.18724E+006    1.98271E+006    1.02861E+007   -5.47960E+006    1.01808E+007    2.13296E+006    1.21900E+007    2.11585E+006   -8.51079E+005   -1.22071E+005    2.63774E+005
            8614    1.02622E+007    1.22448E+007    1.22448E+007    2.24715E+006    1.73706E+006    1.05078E+007   -5.40968E+006    1.02337E+007    1.89601E+006    1.22338E+007    2.09927E+006   -3.28292E+005   -2.34218E+005    7.41367E+004
            8615    9.01782E+006    1.02319E+007    1.02319E+007    2.40549E+006    3.70517E+005    9.86143E+006   -4.33598E+006    8.47781E+006    2.50336E+006    9.89050E+006    6.14087E+005   -1.32530E+006    3.21765E+005    1.10239E+006
            8616    8.66808E+006    1.02127E+007    1.02127E+007    1.85422E+006    1.26517E+006    8.94758E+006   -4.44404E+006    8.62288E+006    1.97674E+006    9.97644E+006    1.37896E+006   -1.27679E+006    1.07396E+005    5.98822E+005
            8617    8.51890E+006    1.00159E+007    1.00159E+007    1.68206E+006    1.32333E+006    8.69260E+006   -4.34044E+006    8.50188E+006    1.47000E+006    9.94435E+006    1.60696E+006   -7.19924E+005   -1.78057E+005    2.88047E+005
            8618    8.45253E+006    9.93199E+006    9.93199E+006    1.88086E+006    1.12839E+006    8.80360E+006   -4.31375E+006    8.37667E+006    1.29468E+006    9.92177E+006    1.72479E+006   -2.84858E+005   -3.08250E+005    7.23312E+004
            8619    7.97560E+006    8.42126E+006    8.42126E+006    1.66000E+006   -3.74561E+005    8.79582E+006   -3.23557E+006    7.35698E+006    1.73165E+006    8.16648E+006   -1.91428E+005   -1.10922E+006    3.37090E+005    8.36324E+005
            8620    7.42250E+006    8.34369E+006    8.34369E+006    1.20651E+006    6.65486E+005    7.67821E+006   -3.40523E+006    7.37794E+006    1.31239E+006    8.15109E+006    7.52220E+005   -1.04355E+006    7.70304E+004    5.46579E+005
            8621    7.04112E+006    8.06344E+006    8.06344E+006    1.26837E+006    7.99691E+005    7.26375E+006   -3.37717E+006    7.00589E+006    9.56625E+005    7.99993E+006    1.17496E+006   -5.83323E+005   -2.24325E+005    3.09611E+005
            8622    6.92500E+006    7.97182E+006    7.97182E+006    1.52610E+006    6.50784E+005    7.32104E+006   -3.38290E+006    6.79887E+006    8.37783E+005    7.96185E+006    1.34908E+006   -2.33732E+005   -3.57208E+005    1.11913E+005
            8623    6.95399E+006    6.93226E+006    6.93226E+006    1.12763E+006   -7.75024E+005    7.70728E+006   -2.42829E+006    6.32748E+006    1.17551E+006    6.76299E+006   -6.53634E+005   -8.97860E+005    3.34067E+005    5.22406E+005
            8624    6.20663E+006    6.71111E+006    6.71111E+006    7.19084E+005    3.10107E+005    6.40101E+006   -2.58010E+006    6.17621E+006    8.00825E+005    6.56484E+006    3.74637E+005   -8.10476E+005    4.21576E+004    4.77579E+005
            8625    5.85552E+006    6.50428E+006    6.50428E+006    9.10458E+005    4.18142E+005    6.08614E+006   -2.61096E+006    5.80868E+006    5.90510E+005    6.44272E+006    7.99652E+005   -4.42885E+005   -2.51625E+005    3.83243E+005
            8626    5.70414E+006    6.38813E+006    6.38813E+006    1.17861E+006    2.92970E+005    6.09516E+006   -2.61990E+006    5.54628E+006    5.02889E+005    6.37906E+006    9.77758E+005   -1.86798E+005   -3.76926E+005    1.17974E+005
            8627    5.60176E+006    5.44743E+006    5.44743E+006    7.10178E+005   -7.35461E+005    6.18289E+006   -1.80738E+006    5.15643E+006    7.15367E+005    5.34338E+006   -6.36605E+005   -6.70944E+005    3.13990E+005    2.77003E+005
            8628    5.21095E+006    5.47573E+006    5.47573E+006    4.10446E+005    1.30410E+005    5.34532E+006   -2.00553E+006    5.19398E+006    4.69677E+005    5.35380E+006    1.93107E+005   -5.92258E+005   -6.08326E+003    5.22686E+005
            8629    4.88849E+006    5.22448E+006    5.22448E+006    5.90020E+005    1.16440E+005    5.10804E+006   -1.97698E+006    4.83647E+006    3.04367E+005    5.16408E+006    4.62493E+005   -3.15380E+005   -2.55010E+005    4.20484E+005
            8630    4.72380E+006    5.09531E+006    5.09531E+006    8.20936E+005    2.35854E+004    5.07173E+006   -1.97995E+006    4.56870E+006    2.40418E+005    5.08494E+006    6.14480E+005   -1.42800E+005   -3.57554E+005    1.55338E+005
            8631    3.82950E+006    3.92220E+006    3.92220E+006    4.57873E+005   -1.89859E+005    4.11206E+006   -1.39674E+006    3.70323E+006   -8.41645E+003    3.91431E+006    2.84314E+005   -8.59805E+004   -2.93317E+005    1.40914E+005
            8632    2.73531E+006    2.58634E+006    2.58634E+006    1.00871E+005   -3.44211E+005    2.93055E+006   -7.81000E+005    2.65200E+006   -3.07006E+005    2.58346E+006    6.65443E+004   -5.59583E+004   -1.22857E+005    6.48237E+004
            8633    4.01872E+006    4.12238E+006    4.12238E+006    3.22823E+005   -8.44851E+004    4.20686E+006   -1.45357E+006    3.97188E+006    7.21824E+004    4.06871E+006    2.19826E+005   -2.26379E+005   -2.17854E+005    3.87313E+005
            8634    3.00500E+006    2.90460E+006    2.90460E+006    7.31594E+004   -2.48138E+005    3.15274E+006   -9.09875E+005    2.96599E+006   -2.13965E+005    2.88428E+006    5.93068E+004   -1.68918E+005   -9.57384E+004    1.73009E+005
            8635    4.32860E+006    4.41132E+006    4.41132E+006    1.65430E+005    4.51251E+003    4.40681E+006   -1.52709E+006    4.32186E+006    1.99634E+005    4.32231E+006    5.93170E+004   -3.81153E+005   -5.51835E+004    4.82047E+005
            8636    3.43802E+006    3.39837E+006    3.39837E+006   -3.04996E+003   -7.51108E+004    3.47348E+006   -1.10674E+006    3.43632E+006   -5.26038E+004    3.36411E+006    8.70703E+003   -2.55351E+005   -3.24130E+004    2.25841E+005
            8637    4.53299E+006    4.49408E+006    4.49408E+006    4.19742E+005   -3.88753E+005    4.88283E+006   -1.50836E+006    4.36633E+006    3.98418E+005    4.42438E+006   -2.97730E+005   -4.70193E+005    2.02980E+005    2.97470E+005
            8638    3.85479E+006    3.88939E+006    3.88939E+006    1.28011E+005   -5.24862E+004    3.94187E+006   -1.32164E+006    3.84527E+006    1.30677E+005    3.85578E+006   -2.15418E+004   -3.12325E+005    4.61071E+004    1.76877E+005
            8639    4.09315E+006    4.21009E+006    4.21009E+006    3.23937E+005   -6.26389E+004    4.27273E+006   -1.49046E+006    4.05178E+006    3.06360E+005    4.17930E+006   -1.42719E+004   -3.44626E+005    1.23554E+005    5.02153E+004
            8640    4.09468E+006    4.25285E+006    4.25285E+006    4.61126E+005   -8.91389E+004    4.34199E+006   -1.54161E+006    4.01023E+006    4.37095E+005    4.22202E+006   -3.42778E+004   -3.23338E+005    1.69909E+005   -1.06782E+005
            8641    4.45110E+006    4.27418E+006    4.27418E+006    5.86646E+005   -6.70203E+005    4.94439E+006   -1.39688E+006    4.02187E+006    5.29077E+005    4.22055E+006   -5.58998E+005   -4.37825E+005    3.63641E+005   -6.59517E+004
            8642    4.00971E+006    3.85017E+006    3.85017E+006    6.32792E+005   -6.41941E+005    4.49211E+006   -1.28034E+006    3.50840E+006    5.62823E+005    3.75315E+006   -4.74947E+005   -3.25351E+005    4.01431E+005   -4.86761E+005
            8643    4.78125E+006    4.02355E+006    4.02355E+006    5.54741E+005   -1.43052E+006    5.45407E+006   -1.04926E+006    3.66525E+006    5.32713E+005    3.63689E+006   -1.02183E+006   -3.31128E+005    4.86627E+005   -1.28361E+006
            8644    5.77913E+006    4.86604E+006    4.86604E+006    6.53074E+005   -1.72224E+006    6.58828E+006   -1.26563E+006    4.46406E+006    6.38708E+005    4.68354E+006   -1.52537E+006   -4.85274E+005    5.14535E+005   -8.36743E+005
            8645    7.52578E+006    7.26631E+006    7.26631E+006    1.20491E+006   -1.15715E+006    8.42346E+006   -2.43802E+006    6.61124E+006    1.20959E+006    7.06954E+006   -9.65064E+005    1.07959E+006   -5.96912E+005    2.94557E+005
            8646    8.70819E+006    8.72852E+006    8.72852E+006    1.69968E+006   -1.01320E+006    9.74171E+006   -3.13834E+006    7.66728E+006    1.73504E+006    8.38898E+006   -7.09009E+005    1.43417E+006   -6.56250E+005    7.87250E+005
            8647    9.86858E+006    1.04198E+007    1.04198E+007    2.36269E+006   -5.87349E+005    1.10072E+007   -4.06505E+006    8.79132E+006    2.40528E+006    9.88282E+006   -9.29476E+004    1.87300E+006   -7.61175E+005    1.19596E+006
            8648    1.08071E+007    1.22994E+007    1.22994E+007    3.27459E+006    3.23255E+005    1.19762E+007   -5.29909E+006    9.83735E+006    3.33038E+006    1.14791E+007    1.08779E+006    2.38024E+006   -7.84193E+005    1.65801E+006
            8649    1.08588E+007    1.24326E+007    1.24326E+007    1.91207E+006    1.26453E+006    1.11681E+007   -5.20307E+006    1.08152E+007    1.57682E+006    1.21259E+007    1.90651E+006    1.77866E+006   -4.77337E+004    4.09083E+005
            8650    1.02849E+007    1.13988E+007    1.13988E+007    1.64704E+006    6.53038E+005    1.07458E+007   -4.56631E+006    1.01760E+007    8.14714E+005    1.13910E+007    1.49319E+006    2.60905E+005    3.63661E+005    1.08668E+005
            8651    9.16106E+006    1.01833E+007    1.01833E+007    1.24512E+006    8.14541E+005    9.36876E+006   -4.08099E+006    9.13825E+006    1.03700E+006    9.94837E+006    1.25759E+006    1.39353E+006    4.03870E+003    4.48662E+005
            8652    8.38952E+006    9.16798E+006    9.16798E+006    1.33505E+006    3.15114E+005    8.85286E+006   -3.60605E+006    8.24831E+006    5.17820E+005    9.16009E+006    1.14024E+006    1.86045E+005    4.07751E+005    1.67750E+005
            8653    7.68018E+006    8.21737E+006    8.21737E+006    6.16331E+005    4.60428E+005    7.75694E+006   -3.09804E+006    7.67661E+006    6.05071E+005    8.05368E+006    6.35380E+005    1.03607E+006    3.35853E+004    4.10077E+005
            8654    6.60677E+006    7.12904E+006    7.12904E+006    1.08445E+006    7.60368E+004    7.05300E+006   -2.76318E+006    6.43020E+006    2.99312E+005    7.12450E+006    8.65722E+005    1.05971E+005    4.19709E+005    1.27964E+005
            8655    5.97545E+006    6.18505E+006    6.18505E+006    2.64627E+005    1.56057E+005    6.02899E+006   -2.20191E+006    5.97323E+006    2.45615E+005    6.09051E+006    2.69608E+005    6.65789E+005    7.50615E+004    3.34709E+005
            8656    5.17763E+006    5.48146E+006    5.48146E+006    8.14840E+005   -8.83377E+004    5.56980E+006   -2.06932E+006    4.99577E+006    1.58261E+005    5.46859E+006    5.81112E+005    3.97369E+004    4.04547E+005    2.44433E+005
            8657    4.05001E+006    4.15648E+006    4.15648E+006    4.89332E+005   -1.90371E+005    4.34685E+006   -1.48515E+006    3.91859E+006    3.42551E+004    4.14060E+006    2.80587E+005    8.15524E+004    3.24276E+005    2.27963E+005
            8658    2.64328E+006    2.58783E+006    2.58783E+006    1.31665E+005   -2.09459E+005    2.79728E+006   -8.36678E+005    2.59307E+006   -1.47443E+005    2.58362E+006    7.38591E+004    4.22009E+004    1.32552E+005    9.24220E+004
            8659    4.50029E+006    4.53998E+006    4.53998E+006    1.65143E+005   -7.60636E+004    4.61605E+006   -1.54302E+006    4.48572E+006    4.85412E+004    4.46913E+006    1.11391E+005    3.06703E+005    1.52049E+005    4.59479E+005
            8660    3.07175E+006    3.01463E+006    3.01463E+006    3.34261E+004   -1.40295E+005    3.15493E+006   -9.69255E+005    3.06067E+006   -8.58614E+004    2.99395E+006   -3.20145E+002    9.25492E+004    8.65707E+004    2.29790E+005
            8661    3.65330E+006    3.60157E+006    3.60157E+006    1.51141E+004   -1.15089E+005    3.71666E+006   -1.16720E+006    3.64807E+006    3.20853E+003    3.57820E+006   -7.98106E+004    1.52007E+005    5.59606E+004    2.47415E+005
            8662    4.15406E+006    4.14568E+006    4.14568E+006    1.06474E+005   -1.14419E+005    4.26009E+006   -1.37924E+006    4.14081E+006    1.07210E+005    4.12996E+006   -9.94431E+004    2.23503E+005   -4.27277E+004    1.21469E+005
            8663    4.32633E+006    4.35253E+006    4.35253E+006    1.98659E+005   -1.27782E+005    4.48031E+006   -1.47447E+006    4.29849E+006    1.82232E+005    4.33616E+006   -9.49872E+004    2.38147E+005   -1.00550E+005   -1.05181E+005
            8664    3.98888E+006    4.10044E+006    4.10044E+006    2.50577E+005   -1.42564E+004    4.11470E+006   -1.44559E+006    3.96903E+006    2.27107E+005    4.07403E+006    3.56207E+004    2.23674E+005   -1.04746E+005   -2.28040E+005
            8665    4.69776E+006    4.71419E+006    4.71419E+006    2.43167E+005   -1.81472E+005    4.89566E+006   -1.59196E+006    4.65429E+006    1.87657E+005    4.64960E+006   -6.13683E+004    4.46870E+005   -1.48902E+005    3.27256E+005
            8666    4.60809E+006    4.44869E+006    4.44869E+006    3.62785E+005   -5.46139E+005    4.99482E+006   -1.42178E+006    4.39958E+006    2.18361E+005    4.40561E+006   -3.58643E+005    3.93881E+005   -3.77956E+005   -1.39566E+005
            8667    4.12230E+006    4.06946E+006    4.06946E+006    4.88968E+005   -4.37107E+005    4.50657E+006   -1.37377E+006    3.87775E+006    2.98520E+005    3.95162E+006   -1.28821E+005    2.98701E+005   -4.44921E+005   -5.89609E+005
            8668    3.65270E+006    3.70309E+006    3.70309E+006    5.61657E+005   -3.04988E+005    4.00808E+006   -1.31992E+006    3.40967E+006    3.46452E+005    3.51011E+006    1.03203E+005    2.47851E+005   -4.55121E+005   -7.52568E+005
            8669    4.05146E+006    3.63793E+006    3.63793E+006    7.33656E+005   -9.90397E+005    4.62833E+006   -1.12706E+006    3.04512E+006    6.62016E+005    3.03391E+006   -3.14737E+005    2.84460E+005   -6.30147E+005   -1.42403E+006
            8670    4.92763E+006    4.27741E+006    4.27741E+006    7.44956E+005   -1.35183E+006    5.62924E+006   -1.22351E+006    3.70384E+006    6.81733E+005    3.87436E+006   -8.85551E+005    4.18751E+005   -6.72956E+005   -1.25749E+006
            8671    5.73831E+006    4.90366E+006    4.90366E+006    7.37513E+005   -1.64155E+006    6.54521E+006   -1.33321E+006    4.40397E+006    6.80404E+005    4.67612E+006   -1.35689E+006    5.62590E+005   -6.86355E+005   -8.77252E+005
            8672    6.52902E+006    5.91065E+006    5.91065E+006    8.57094E+005   -1.46116E+006    7.37181E+006   -1.76886E+006    5.48113E+006    8.23907E+005    5.76125E+006   -1.27857E+006    8.23126E+005   -6.45931E+005   -2.34859E+005
            8673    1.22828E+007    1.37456E+007    1.37456E+007    1.91824E+006    1.05302E+006    1.26926E+007   -5.57228E+006    1.22140E+007    1.16478E+006    1.37349E+007    1.81722E+006    3.56079E+005    2.81034E+005    8.05375E+004
            8674    1.24990E+007    1.47207E+007    1.47207E+007    2.64215E+006    1.83988E+006    1.28808E+007   -6.40091E+006    1.24409E+007    2.23380E+006    1.43366E+007    2.63231E+006    2.16028E+006   -6.34950E+004    3.64693E+005
            8675    1.13215E+007    1.41187E+007    1.41187E+007    4.33179E+006    1.71941E+006    1.23993E+007   -6.72331E+006    1.06111E+007    4.41086E+006    1.29994E+007    2.75962E+006    2.91222E+006   -7.03248E+005    1.87764E+006
            8676    1.39757E+007    1.57557E+007    1.57557E+007    2.13931E+006    1.44643E+006    1.43093E+007   -6.44714E+006    1.39370E+007    1.50635E+006    1.57421E+007    2.09295E+006    4.35747E+005    1.75192E+005    5.15650E+004
            8677    1.38654E+007    1.66664E+007    1.66664E+007    3.27060E+006    2.37489E+006    1.42915E+007   -7.43731E+006    1.38001E+007    2.82777E+006    1.62215E+007    3.26267E+006    2.46941E+006   -6.02617E+004    2.50789E+005
            8678    1.12981E+007    1.55532E+007    1.55532E+007    5.34931E+006    3.41145E+006    1.21417E+007   -8.10464E+006    1.09148E+007    5.47113E+006    1.42535E+007    4.58926E+006    3.35922E+006   -4.97432E+005    1.57048E+006
            8679    1.49657E+007    1.69409E+007    1.69409E+007    2.26564E+006    1.70079E+006    1.52401E+007   -6.96910E+006    1.49417E+007    1.72228E+006    1.69253E+007    2.25976E+006    4.86776E+005    5.82226E+004    2.08420E+004
            8680    1.46512E+007    1.77953E+007    1.77953E+007    3.62047E+006    2.71021E+006    1.50851E+007   -8.04200E+006    1.45874E+007    3.18980E+006    1.73165E+007    3.61969E+006    2.64314E+006   -1.86252E+004    8.64987E+004
            8681    1.10223E+007    1.63204E+007    1.63204E+007    5.96067E+006    4.73747E+006    1.15829E+007   -9.00616E+006    1.08680E+007    6.16694E+006    1.49985E+007    5.85301E+006    3.62052E+006   -1.81403E+005    6.32384E+005
            8682    3.88112E+006    3.97450E+006    3.97450E+006    2.45310E+005   -4.25354E+004    4.01703E+006   -1.39242E+006    3.85700E+006    2.15498E+005    3.94854E+006    1.32317E+004   -2.17414E+005   -1.15369E+005    2.23446E+005
            8683    3.53727E+006    3.58960E+006    3.58960E+006    5.78426E+005   -3.05948E+005    3.89555E+006   -1.28736E+006    3.27439E+006    3.61867E+005    3.38651E+006    1.13705E+005   -2.30812E+005   -4.60982E+005    7.64707E+005
            8684    4.00168E+006    3.56806E+006    3.56806E+006    7.20276E+005   -1.00718E+006    4.57524E+006   -1.09372E+006    2.97035E+006    6.47310E+005    2.96023E+006   -3.26379E+005   -2.75527E+005   -6.30581E+005    1.41928E+006
            8685    3.37107E+006    3.48109E+006    3.48109E+006    2.45421E+005   -1.07516E+004    3.49184E+006   -1.23859E+006    3.34906E+006    2.00649E+005    3.45980E+006    5.53108E+004   -1.68651E+005   -1.14871E+005    2.01904E+005
            8686    2.90858E+006    3.05691E+006    3.05691E+006    6.26594E+005   -1.65744E+005    3.22265E+006   -1.17259E+006    2.64898E+006    3.66749E+005    2.89322E+006    2.57786E+005   -1.58124E+005   -4.26291E+005    6.24348E+005
            8687    2.98203E+006    2.81434E+006    2.81434E+006    6.87119E+005   -5.94202E+005    3.40854E+006   -9.69084E+005    2.22267E+006    5.89424E+005    2.17678E+006    1.41044E+005   -1.62816E+005   -5.55335E+005    1.21864E+006
            8688    2.94475E+006    3.05707E+006    3.05707E+006    2.42728E+005   -2.71051E+003    3.05978E+006   -1.09903E+006    2.92160E+006    1.80469E+005    3.05044E+006    6.61810E+004   -8.86468E+004   -1.11644E+005    1.04506E+005
            8689    2.36614E+006    2.56773E+006    2.56773E+006    6.74993E+005   -8.50388E+004    2.65277E+006   -1.05256E+006    2.06345E+006    3.52229E+005    2.51232E+006    2.93130E+005   -7.57305E+004   -3.92340E+005    3.27862E+005
            8690    1.85124E+006    1.95516E+006    1.95516E+006    7.12367E+005   -1.72459E+005    2.12761E+006   -8.31688E+005    1.22031E+006    5.03122E+005    1.59780E+006    3.94142E+005   -7.12790E+004   -4.80199E+005    6.80829E+005
            8691    2.81185E+006    2.91784E+006    2.91784E+006    2.38774E+005   -1.02278E+004    2.92807E+006   -1.04880E+006    2.78688E+006    1.70536E+005    2.91775E+006    5.81007E+004    1.15605E+004   -1.11133E+005   -1.04714E+004
            8692    2.17191E+006    2.39529E+006    2.39529E+006    7.04083E+005   -5.40765E+004    2.44936E+006   -1.01510E+006    1.83668E+006    3.48064E+005    2.39415E+006    3.03077E+005    7.83152E+003   -3.78660E+005   -4.58220E+004
            8693    1.19650E+006    1.36275E+006    1.36275E+006    9.08191E+005    5.58425E+003    1.35717E+006   -7.58842E+005   -9.71592E+005    4.54361E+005    1.36200E+006    4.60171E+005    6.50926E+003   -4.51618E+005   -1.86996E+004
            8694    3.01096E+006    3.12866E+006    3.12866E+006    2.45368E+005    4.48967E+003    3.12417E+006   -1.12617E+006    2.98917E+006    1.86156E+005    3.11869E+006    7.36693E+004    1.08790E+005   -1.11008E+005   -1.30580E+005
            8695    2.46866E+006    2.66045E+006    2.66045E+006    6.61727E+005   -9.90567E+004    2.75951E+006   -1.07437E+006    2.18055E+006    3.52831E+005    2.58484E+006    2.85452E+005    9.75266E+004   -3.97655E+005   -3.89264E+005
            8696    1.94573E+006    2.03819E+006    2.03819E+006    7.04820E+005   -1.94530E+005    2.23272E+006   -8.49493E+005    1.34328E+006    5.13221E+005    1.64652E+006    3.88734E+005    8.24991E+004   -4.84847E+005   -7.34681E+005
            8697    3.50121E+006    3.59354E+006    3.59354E+006    2.29996E+005   -3.07578E+004    3.62430E+006   -1.26426E+006    3.47927E+006    1.90044E+005    3.57012E+006    3.26145E+004    1.87929E+005   -1.14883E+005   -2.09057E+005
            8698    3.06601E+006    3.20546E+006    3.20546E+006    6.20340E+005   -1.81917E+005    3.38738E+006   -1.21463E+006    2.81497E+006    3.74740E+005    3.02507E+006    2.44072E+005    1.72570E+005   -4.30509E+005   -6.75129E+005
            8699    3.04943E+006    2.88885E+006    2.88885E+006    6.97951E+005   -5.93854E+005    3.48270E+006   -9.97648E+005    2.30067E+006    6.02133E+005    2.25405E+006    1.36757E+005    1.78353E+005   -5.63169E+005   -1.22989E+006
            8700    1.13236E+007    1.41223E+007    1.41223E+007    4.33252E+006    1.72106E+006    1.24012E+007   -6.72529E+006    1.06139E+007    4.41125E+006    1.30020E+007    2.76263E+006    2.91327E+006    7.02569E+005   -1.87978E+006
            8701    1.25153E+007    1.47381E+007    1.47381E+007    2.64391E+006    1.84043E+006    1.28977E+007   -6.40749E+006    1.24571E+007    2.23102E+006    1.43563E+007    2.63516E+006    2.15762E+006    6.02986E+004   -3.51670E+005
            8702    1.23099E+007    1.37774E+007    1.37774E+007    1.92129E+006    1.05919E+006    1.27182E+007   -5.58597E+006    1.22417E+007    1.16943E+006    1.37668E+007    1.82172E+006    3.55720E+005   -2.78661E+005   -7.91680E+004
            8703    1.12877E+007    1.55578E+007    1.55578E+007    5.35824E+006    3.43020E+006    1.21276E+007   -8.11541E+006    1.09080E+007    5.47941E+006    1.42576E+007    4.60923E+006    3.36078E+006    4.93376E+005   -1.56482E+006
            8704    1.38789E+007    1.66675E+007    1.66675E+007    3.25306E+006    2.36663E+006    1.43008E+007   -7.42905E+006    1.38150E+007    2.81711E+006    1.62248E+007    3.24522E+006    2.46413E+006    5.94562E+004   -2.49568E+005
            8705    1.39874E+007    1.57688E+007    1.57688E+007    2.14004E+006    1.44847E+006    1.43203E+007   -6.45244E+006    1.39488E+007    1.50748E+006    1.57553E+007    2.09449E+006    4.34186E+005   -1.73657E+005   -5.26849E+004
            8706    1.10135E+007    1.63204E+007    1.63204E+007    5.96502E+006    4.74960E+006    1.15708E+007   -9.01168E+006    1.08611E+007    6.17221E+006    1.49991E+007    5.86373E+006    3.62143E+006    1.75891E+005   -6.13364E+005
            8707    1.46571E+007    1.77919E+007    1.77919E+007    3.60817E+006    2.70342E+006    1.50885E+007   -8.03449E+006    1.45940E+007    3.18238E+006    1.73140E+007    3.60708E+006    2.64057E+006    2.20124E+004   -9.72550E+004
            8708    1.49640E+007    1.69397E+007    1.69397E+007    2.26628E+006    1.70108E+006    1.52386E+007   -6.96902E+006    1.49400E+007    1.72224E+006    1.69242E+007    2.26063E+006    4.85065E+005   -5.70826E+004   -1.96805E+004
            8709    4.52839E+006    4.71930E+006    4.71930E+006    6.38983E+005   -1.52755E+005    4.87205E+006   -1.73517E+006    4.36859E+006    7.92209E+004    4.71165E+006    4.14653E+005   -6.49011E+004    3.62538E+005   -1.64682E+005
            8710    5.51778E+006    5.88509E+006    5.88509E+006    8.93806E+005   -4.00211E+004    5.92511E+006   -2.24629E+006    5.33564E+006    1.89818E+005    5.87926E+006    6.69802E+005   -1.03077E+005    4.03814E+005   -1.36177E+005
            8711    6.76944E+006    7.34065E+006    7.34065E+006    1.13857E+006    1.19425E+005    7.22123E+006   -2.86622E+006    6.59352E+006    3.37476E+005    7.33545E+006    9.25726E+005   -1.47222E+005    4.18184E+005   -1.07439E+005
            8712    8.37250E+006    9.18806E+006    9.18806E+006    1.38050E+006    3.46632E+005    8.84142E+006   -3.63840E+006    8.22705E+006    5.47923E+005    9.18299E+006    1.18427E+006   -1.92776E+005    4.07679E+005   -6.87782E+004
            8713    1.02504E+007    1.13609E+007    1.13609E+007    1.62169E+006    6.66243E+005    1.06947E+007   -4.54962E+006    1.01495E+007    8.34618E+005    1.13549E+007    1.45937E+006   -2.42429E+005    3.60711E+005   -6.03643E+004
            8714    4.76508E+006    4.95010E+006    4.95010E+006    4.48280E+005   -4.05666E+004    4.99066E+006   -1.78594E+006    4.70817E+006    1.48514E+005    4.89162E+006    3.17673E+005   -2.91023E+005    2.60236E+005   -4.18496E+005
            8715    5.75330E+006    6.12305E+006    6.12305E+006    6.85023E+005    9.92863E+004    6.02376E+006   -2.30245E+006    5.68563E+006    2.83990E+005    6.06696E+006    5.56403E+005   -4.01341E+005    2.86799E+005   -3.78078E+005
            8716    6.98211E+006    7.57759E+006    7.57759E+006    9.48226E+005    2.89437E+005    7.28815E+006   -2.93842E+006    6.91166E+006    4.62149E+005    7.52342E+006    8.29678E+005   -5.34478E+005    2.86571E+005   -2.85755E+005
            8717    8.54805E+006    9.44456E+006    9.44456E+006    1.26142E+006    5.73217E+005    8.87135E+006   -3.75973E+006    8.48538E+006    7.35161E+005    9.38068E+006    1.16336E+006   -6.93061E+005    2.69743E+005   -2.47373E+005
            8718    1.03149E+007    1.15936E+007    1.15936E+007    1.64559E+006    9.47220E+005    1.06463E+007   -4.72879E+006    1.02615E+007    1.09227E+006    1.15193E+007    1.57477E+006   -8.51863E+005    2.34964E+005   -2.07271E+005
            8719    5.15814E+006    5.22009E+006    5.22009E+006    1.61574E+005   -3.22130E+004    5.25230E+006   -1.78315E+006    5.14994E+006    1.82014E+005    5.13319E+006    3.42433E+004   -4.08248E+005    9.15454E+004   -5.20774E+005
            8720    6.22176E+006    6.42999E+006    6.42999E+006    2.71074E+005    1.47224E+005    6.28276E+006   -2.28276E+006    6.21899E+006    3.34026E+005    6.33650E+006    1.77762E+005   -6.21832E+005    5.38117E+004   -4.28005E+005
            8721    7.56583E+006    8.04016E+006    8.04016E+006    5.04913E+005    4.44121E+005    7.59604E+006   -2.99640E+006    7.56528E+006    5.96646E+005    7.90985E+006    4.82705E+005   -8.78143E+005    2.82202E+004   -4.46029E+005
            8722    8.97249E+006    9.86165E+006    9.86165E+006    1.00265E+006    7.79830E+005    9.08182E+006   -3.88138E+006    8.96626E+006    9.46835E+005    9.68996E+006    1.00734E+006   -1.15326E+006   -2.50648E+003   -4.46649E+005
            8723    1.06166E+007    1.20322E+007    1.20322E+007    1.64385E+006    1.20134E+006    1.08309E+007   -4.95914E+006    1.05958E+007    1.42488E+006    1.18091E+007    1.64345E+006   -1.46642E+006   -2.94795E+004   -4.64687E+005
            8724    5.74925E+006    5.61176E+006    5.61176E+006    4.65208E+005   -5.93129E+005    6.20489E+006   -1.82795E+006    5.52368E+006    4.21119E+005    5.51234E+006   -4.49619E+005   -7.17431E+005   -3.53293E+005   -8.84245E+004
            8725    7.22163E+006    7.17875E+006    7.17875E+006    7.78451E+005   -6.50553E+005    7.82930E+006   -2.43555E+006    6.89268E+006    7.68781E+005    6.99277E+006   -4.54902E+005   -1.07579E+006   -4.45887E+005   -2.78038E+005
            8726    8.46586E+006    8.81638E+006    8.81638E+006    1.24333E+006   -3.23407E+005    9.13979E+006   -3.24543E+006    8.13003E+006    1.24087E+006    8.50139E+006   -5.95744E+003   -1.48551E+006   -5.15236E+005   -5.57313E+005
            8727    9.76462E+006    1.07379E+007    1.07379E+007    1.88572E+006    2.63951E+005    1.04740E+007   -4.29587E+006    9.45448E+006    1.87494E+006    1.02595E+007    7.53162E+005   -1.96476E+006   -5.71089E+005   -7.79713E+005
            8728    1.10067E+007    1.28479E+007    1.28479E+007    2.72602E+006    1.13051E+006    1.17174E+007   -5.56813E+006    1.07419E+007    2.70036E+006    1.21699E+007    1.83411E+006   -2.49421E+006   -5.65259E+005   -9.83067E+005
            8729    1.11485E+007    1.22363E+007    1.22363E+007    3.57129E+006   -3.41128E+005    1.25774E+007   -5.15547E+006    9.40671E+006    3.64529E+006    1.12913E+007    5.29874E+005   -2.46198E+006   -9.64874E+005   -1.94299E+006
            8730    1.03526E+007    1.03933E+007    1.03933E+007    2.60092E+006   -1.35368E+006    1.17470E+007   -3.88019E+006    8.38115E+006    2.64669E+006    9.81773E+006   -8.23849E+005   -1.92615E+006   -9.66889E+005   -1.27618E+006
            8731    9.26558E+006    8.72733E+006    8.72733E+006    1.87647E+006   -1.81500E+006    1.05423E+007   -2.92960E+006    7.31292E+006    1.89993E+006    8.39215E+006   -1.50329E+006   -1.47809E+006   -9.01464E+005   -5.86984E+005
            8732    8.11785E+006    7.35885E+006    7.35885E+006    1.41153E+006   -1.88948E+006    9.24833E+006   -2.29364E+006    6.31903E+006    1.41139E+006    7.14316E+006   -1.67364E+006   -1.13088E+006   -8.14710E+005   -7.80118E+004
            8733    6.86146E+006    6.10055E+006    6.10055E+006    1.05843E+006   -1.71318E+006    7.81373E+006   -1.81527E+006    5.36578E+006    1.01749E+006    5.92767E+006   -1.49936E+006   -8.25818E+005   -7.55608E+005    4.15664E+005
            8734    5.89120E+006    5.04276E+006    5.04276E+006    7.83766E+005   -1.68043E+006    6.72319E+006   -1.38203E+006    4.49044E+006    7.27464E+005    4.80275E+006   -1.38412E+006   -6.04043E+005   -7.23319E+005    8.88820E+005
            8735    4.92172E+006    4.22869E+006    4.22869E+006    7.36743E+005   -1.40032E+006    5.62901E+006   -1.18837E+006    3.63389E+006    6.75057E+005    3.78454E+006   -8.94482E+005   -4.06617E+005   -6.83930E+005    1.33056E+006
            8736    4.10907E+006    4.03885E+006    4.03885E+006    4.99036E+005   -4.67248E+005    4.50609E+006   -1.35688E+006    3.84075E+006    3.11078E+005    3.90668E+006   -1.47126E+005   -3.08138E+005   -4.61827E+005    6.25534E+005
            8737    4.19689E+006    4.25023E+006    4.25023E+006    2.15111E+005   -9.16051E+004    4.34183E+006   -1.45791E+006    4.17156E+006    1.94407E+005    4.23244E+006   -5.31195E+004   -2.39061E+005   -1.04568E+005    1.19821E+005
            8738    4.48512E+006    4.40502E+006    4.40502E+006    4.33671E+005   -4.59477E+005    4.86449E+006   -1.45974E+006    4.27812E+006    2.83703E+005    4.35025E+006   -2.54745E+005   -4.05486E+005   -3.90042E+005    2.23803E+005
            8739    4.14625E+006    4.15717E+006    4.15717E+006    1.29336E+005   -9.81422E+004    4.25531E+006   -1.39612E+006    4.13218E+006    1.27996E+005    4.14526E+006   -8.48985E+004   -2.14459E+005   -4.98485E+004   -4.81815E+004
            8740    3.81787E+006    3.81192E+006    3.81192E+006    4.67717E+004   -5.65735E+004    3.86849E+006   -1.26737E+006    3.81472E+006    5.09488E+004    3.79688E+006   -4.57076E+004   -1.71169E+005   -1.14080E+004   -1.67786E+005
            8741    3.31958E+006    3.29170E+006    3.29170E+006    1.26962E+004   -6.70230E+004    3.35872E+006   -1.07912E+006    3.31743E+006   -4.28640E+004    3.27231E+006    7.93073E+003   -1.31376E+005    4.25228E+004   -2.14379E+005
            8742    2.81143E+006    2.75146E+006    2.75146E+006    5.78351E+004   -1.64562E+005    2.91602E+006   -8.81578E+005    2.79154E+006   -1.20031E+005    2.73798E+006    2.67880E+004   -7.52957E+004    9.22791E+004   -1.74568E+005
            8743    2.48778E+006    2.41346E+006    2.41346E+006    8.63327E+004   -2.08670E+005    2.62213E+006   -7.63708E+005    2.44797E+006   -1.62316E+005    2.41141E+006    4.20273E+004   -2.47202E+004    1.07796E+005   -6.44457E+004
            8744    4.54002E+006    4.47203E+006    4.47203E+006    2.05434E+005   -2.99244E+005    4.77127E+006   -1.45941E+006    4.47626E+006    1.69880E+005    4.42844E+006   -2.20106E+005   -3.89055E+005   -1.56897E+005   -2.12602E+005
            8745    4.26865E+006    4.26068E+006    4.26068E+006    9.11945E+004   -1.00669E+005    4.36135E+006   -1.41707E+006    4.25893E+006    8.86017E+004    4.18581E+006   -2.32040E+004   -2.80968E+005    9.43777E+004   -4.83098E+005
            8746    3.87890E+006    3.91438E+006    3.91438E+006    2.51161E+005   -1.49157E+005    4.06353E+006   -1.33879E+006    3.83201E+006    1.37841E+004    3.86362E+006    1.38978E+005   -1.71149E+005    2.13842E+005   -3.94070E+005
            8747    3.61494E+006    3.65066E+006    3.65066E+006    3.63587E+005   -2.20920E+005    3.87158E+006   -1.26444E+006    3.50625E+006   -3.37401E+004    3.64326E+006    1.83801E+005   -5.15297E+004    2.74777E+005   -1.47805E+005
            8748    5.17195E+006    5.47571E+006    5.47571E+006    8.14664E+005   -8.82454E+004    5.56395E+006   -2.06738E+006    4.98999E+006    1.57890E+005    5.46277E+006    5.81466E+005    3.92975E+004   -4.04220E+005   -2.45026E+005
            8749    6.61553E+006    7.14001E+006    7.14001E+006    1.08775E+006    7.74460E+004    7.06257E+006   -2.76840E+006    6.43853E+006    2.99878E+005    7.13553E+006    8.69798E+005    1.06836E+005   -4.19599E+005   -1.25982E+005
            8750    8.43751E+006    9.22496E+006    9.22496E+006    1.34412E+006    3.23611E+005    8.90135E+006   -3.63090E+006    8.29696E+006    5.26111E+005    9.21710E+006    1.14948E+006    1.88515E+005   -4.07649E+005   -1.65671E+005
            8751    1.03407E+007    1.14643E+007    1.14643E+007    1.65666E+006    6.62440E+005    1.08019E+007   -4.59447E+006    1.02323E+007    8.23916E+005    1.14565E+007    1.50296E+006    2.60455E+005   -3.63563E+005   -1.09143E+005
            8752    5.97951E+006    6.18834E+006    6.18834E+006    2.63183E+005    1.55925E+005    6.03242E+006   -2.20248E+006    5.97735E+006    2.45142E+005    6.09380E+006    2.68506E+005    6.66584E+005   -7.42121E+004   -3.33808E+005
            8753    7.69757E+006    8.23754E+006    8.23754E+006    6.18872E+005    4.63423E+005    7.77412E+006   -3.10661E+006    7.69404E+006    6.08853E+005    8.07291E+006    6.38072E+005    1.03933E+006   -3.35244E+004   -4.13808E+005
            8754    9.18173E+006    1.02144E+007    1.02144E+007    1.26138E+006    8.19833E+005    9.39454E+006   -4.09853E+006    9.15780E+006    1.04299E+006    9.97834E+006    1.27426E+006    1.39953E+006   -4.96866E+003   -4.47448E+005
            8755    1.08829E+007    1.24675E+007    1.24675E+007    1.92815E+006    1.27084E+006    1.11967E+007   -5.22217E+006    1.08381E+007    1.58260E+006    1.21599E+007    1.92403E+006    1.78416E+006    4.45348E+004   -4.07674E+005
            8756    1.08046E+007    1.22915E+007    1.22915E+007    3.27087E+006    3.17310E+005    1.19742E+007   -5.29324E+006    9.83300E+006    3.32690E+006    1.14717E+007    1.08109E+006    2.37849E+006    7.84132E+005   -1.65824E+006
            8757    9.86204E+006    1.04111E+007    1.04111E+007    2.35677E+006   -5.87852E+005    1.09989E+007   -4.06000E+006    8.78826E+006    2.39951E+006    9.87601E+006   -9.55166E+004    1.87079E+006    7.60442E+005   -1.18998E+006
            8758    8.70125E+006    8.72672E+006    8.72672E+006    1.69720E+006   -1.00505E+006    9.73177E+006   -3.13962E+006    7.66833E+006    1.73380E+006    8.38739E+006   -7.02318E+005    1.43361E+006    6.52714E+005   -7.86155E+005
            8759    7.53403E+006    7.27984E+006    7.27984E+006    1.20702E+006   -1.15122E+006    8.43106E+006   -2.44521E+006    6.62398E+006    1.21273E+006    7.08225E+006   -9.59341E+005    1.08250E+006    5.95365E+005   -2.97006E+005
            8760    6.53816E+006    5.91754E+006    5.91754E+006    8.58498E+005   -1.46503E+006    7.38257E+006   -1.77033E+006    5.48668E+006    8.26011E+005    5.76775E+006   -1.28276E+006    8.24784E+005    6.46220E+005    2.34704E+005
            8761    5.73480E+006    4.90252E+006    4.90252E+006    7.39509E+005   -1.63879E+006    6.54131E+006   -1.33441E+006    4.40029E+006    6.82608E+005    4.67409E+006   -1.35346E+006    5.62579E+005    6.86495E+005    8.79410E+005
            8762    4.91863E+006    4.27320E+006    4.27320E+006    7.46816E+005   -1.34569E+006    5.61889E+006   -1.22478E+006    3.69775E+006    6.83368E+005    3.86980E+006   -8.78837E+005    4.18405E+005    6.73031E+005    1.25661E+006
            8763    4.05501E+006    3.64281E+006    3.64281E+006    7.35611E+005   -9.89512E+005    4.63232E+006   -1.12964E+006    3.04846E+006    6.63604E+005    3.04080E+006   -3.15501E+005    2.84930E+005    6.30576E+005    1.42237E+006
            8764    3.65643E+006    3.70443E+006    3.70443E+006    5.60897E+005   -3.08263E+005    4.01269E+006   -1.31902E+006    3.41219E+006    3.45934E+005    3.51069E+006    1.00439E+005    2.48303E+005    4.56086E+005    7.54449E+005
            8765    3.99161E+006    4.10430E+006    4.10430E+006    2.53180E+005   -1.43342E+004    4.11863E+006   -1.44771E+006    3.97136E+006    2.28659E+005    4.07771E+006    3.67750E+004    2.23994E+005    1.06506E+005    2.29328E+005
            8766    4.13081E+006    4.07723E+006    4.07723E+006    4.90880E+005   -4.39393E+005    4.51662E+006   -1.37624E+006    3.88449E+006    3.01383E+005    3.95857E+006   -1.31242E+005    3.00240E+005    4.46048E+005    5.92134E+005
            8767    4.32632E+006    4.35067E+006    4.35067E+006    1.98436E+005   -1.30916E+005    4.48158E+006   -1.47273E+006    4.29798E+006    1.81577E+005    4.33419E+006   -9.75853E+004    2.38315E+005    1.01754E+005    1.06725E+005
            8768    4.61912E+006    4.45454E+006    4.45454E+006    3.61760E+005   -5.53799E+005    5.00834E+006   -1.42083E+006    4.40798E+006    2.17711E+005    4.41104E+006   -3.66257E+005    3.95364E+005    3.79798E+005    1.42295E+005
            8769    4.15960E+006    4.15168E+006    4.15168E+006    1.08418E+005   -1.15234E+005    4.26691E+006   -1.38162E+006    4.14604E+006    1.09124E+005    4.13601E+006   -1.00276E+005    2.24238E+005    4.33427E+004   -1.19529E+005
            8770    4.70165E+006    4.71953E+006    4.71953E+006    2.44571E+005   -1.79998E+005    4.89953E+006   -1.59470E+006    4.65823E+006    1.88789E+005    4.65466E+006   -5.93410E+004    4.47736E+005    1.48977E+005   -3.28543E+005
            8771    3.66146E+006    3.61031E+006    3.61031E+006    1.58561E+004   -1.14671E+005    3.72498E+006   -1.17050E+006    3.65622E+006    4.94105E+003    3.58695E+006   -8.03986E+004    1.53308E+005   -5.51291E+004   -2.46914E+005
            8772    3.07607E+006    3.01911E+006    3.01911E+006    3.32733E+004   -1.39879E+005    3.15899E+006   -9.70833E+005    3.06507E+006   -8.54438E+004    2.99824E+006   -2.96998E+002    9.31275E+004   -8.64424E+004   -2.30907E+005
            8773    2.64165E+006    2.58600E+006    2.58600E+006    1.30482E+005   -2.08970E+005    2.79497E+006   -8.35836E+005    2.59190E+006   -1.47583E+005    2.58168E+006    7.34076E+004    4.26937E+004   -1.31659E+005   -9.35245E+004
            8774    4.50122E+006    4.54115E+006    4.54115E+006    1.65164E+005   -7.56319E+004    4.61678E+006   -1.54356E+006    4.48669E+006    4.87693E+004    4.47023E+006    1.11685E+005    3.06567E+005   -1.51859E+005   -4.59985E+005
            8775    4.04252E+006    4.14773E+006    4.14773E+006    4.86709E+005   -1.90698E+005    4.33843E+006   -1.48125E+006    3.91176E+006    3.30316E+004    4.13182E+006    2.78891E+005    8.14051E+004   -3.23149E+005   -2.28060E+005
            8776    1.13544E+007    1.39817E+007    1.39817E+007    4.73002E+006    1.31048E+006    1.26712E+007   -6.67406E+006    1.00946E+007    4.83509E+006    1.26281E+007    2.55898E+006   -3.01731E+006   -8.47417E+005   -2.29540E+006
            8777    1.21135E+007    1.49783E+007    1.49783E+007    3.69043E+006    2.18066E+006    1.27977E+007   -6.94980E+006    1.18991E+007    3.64705E+006    1.41029E+007    3.09944E+006   -3.02834E+006   -5.02510E+005   -1.01937E+006
            8778    1.22265E+007    1.42753E+007    1.42753E+007    2.39746E+006    1.72767E+006    1.25477E+007   -6.13349E+006    1.21852E+007    2.01787E+006    1.39930E+007    2.38957E+006   -1.80875E+006   -5.87801E+004   -4.36465E+005
            8779    1.21764E+007    1.38896E+007    1.38896E+007    2.04684E+006    1.40497E+006    1.24846E+007   -5.78047E+006    1.21382E+007    1.53122E+006    1.37999E+007    2.01025E+006   -1.03505E+006    1.69415E+005   -1.73546E+005
            8780    1.22283E+007    1.36830E+007    1.36830E+007    1.87668E+006    1.07258E+006    1.26105E+007   -5.54410E+006    1.21686E+007    1.19492E+006    1.36756E+007    1.76172E+006   -2.99734E+005    2.82727E+005   -4.09334E+004
            8781    1.09190E+007    1.53082E+007    1.53082E+007    5.83426E+006    3.36652E+006    1.19416E+007   -8.16965E+006    1.02630E+007    6.01757E+006    1.37184E+007    4.77296E+006   -3.48856E+006   -5.89349E+005   -1.93519E+006
            8782    1.28716E+007    1.67535E+007    1.67535E+007    4.60158E+006    3.26634E+006    1.34871E+007   -8.20713E+006    1.27143E+007    4.57454E+006    1.57185E+007    4.32839E+006   -3.47999E+006   -3.55115E+005   -8.11793E+005
            8783    1.35780E+007    1.62513E+007    1.62513E+007    3.11350E+006    2.27226E+006    1.39791E+007   -7.21237E+006    1.35192E+007    2.62257E+006    1.59080E+007    3.10652E+006   -2.13684E+006   -5.97330E+004   -3.39702E+005
            8784    1.37768E+007    1.59072E+007    1.59072E+007    2.43160E+006    1.84773E+006    1.40595E+007   -6.72885E+006    1.37490E+007    1.96724E+006    1.58000E+007    2.41928E+006   -1.21543E+006    9.86329E+004   -1.19735E+005
            8785    1.39220E+007    1.56909E+007    1.56909E+007    2.07939E+006    1.47795E+006    1.42130E+007   -6.41609E+006    1.38927E+007    1.54196E+006    1.56818E+007    2.02451E+006   -3.57644E+005    1.74123E+005   -2.94567E+004
            8786    1.02644E+007    1.59461E+007    1.59461E+007    6.46715E+006    5.04466E+006    1.09014E+007   -9.15263E+006    1.00390E+007    6.79056E+006    1.43494E+007    6.31792E+006   -3.76552E+006   -2.08710E+005   -7.65240E+005
            8787    1.32559E+007    1.77569E+007    1.77569E+007    5.10416E+006    3.97054E+006    1.37863E+007   -8.94385E+006    1.31462E+007    5.09997E+006    1.66615E+007    5.07007E+006   -3.71348E+006   -1.25957E+005   -3.08681E+005
            8788    1.43519E+007    1.73820E+007    1.73820E+007    3.51248E+006    2.59190E+006    1.47901E+007   -7.82877E+006    1.42853E+007    2.95570E+006    1.70192E+007    3.51146E+006   -2.28442E+006   -2.41610E+004   -1.24045E+005
            8789    1.47014E+007    1.70880E+007    1.70880E+007    2.66767E+006    2.12076E+006    1.49672E+007   -7.29214E+006    1.46785E+007    2.23656E+006    1.69731E+007    2.66678E+006   -1.30520E+006    2.92067E+004   -5.26290E+004
            8790    1.49295E+007    1.68982E+007    1.68982E+007    2.19679E+006    1.75072E+006    1.51475E+007   -6.94857E+006    1.49145E+007    1.76800E+006    1.68882E+007    2.18951E+006   -3.88895E+005    5.68190E+004   -1.00413E+004
            8791    4.00749E+006    3.56999E+006    3.56999E+006    7.18180E+005   -1.01193E+006    4.58191E+006   -1.09208E+006    2.97445E+006    6.45643E+005    2.96047E+006   -3.29878E+005   -2.75620E+005    6.30470E+005   -1.42260E+006
            8792    3.52878E+006    3.58459E+006    3.58459E+006    5.79460E+005   -3.01069E+005    3.88566E+006   -1.28766E+006    3.26760E+006    3.61701E+005    3.38304E+006    1.18237E+005   -2.29733E+005    4.59781E+005   -7.60778E+005
            8793    3.86957E+006    3.96372E+006    3.96372E+006    2.44757E+005   -4.06565E+004    4.00438E+006   -1.38927E+006    3.84579E+006    2.15045E+005    3.93776E+006    1.50181E+004   -2.16348E+005    1.14676E+005   -2.23965E+005
            8794    2.97583E+006    2.81125E+006    2.81125E+006    6.87416E+005   -5.90008E+005    3.40126E+006   -9.69553E+005    2.21993E+006    5.90148E+005    2.17330E+006    1.45210E+005   -1.63151E+005    5.54682E+005   -1.21709E+006
            8795    2.90586E+006    3.05444E+006    3.05444E+006    6.27135E+005   -1.65505E+005    3.21994E+006   -1.17202E+006    2.64577E+006    3.66622E+005    2.89169E+006    2.57757E+005   -1.57871E+005    4.26387E+005   -6.22138E+005
            8796    3.36005E+006    3.46961E+006    3.46961E+006    2.44535E+005   -1.08411E+004    3.48045E+006   -1.23443E+006    3.33811E+006    1.99404E+005    3.44867E+006    5.52264E+004   -1.67278E+005    1.14665E+005   -1.99610E+005
            8797    1.83962E+006    1.94412E+006    1.94412E+006    7.11789E+005   -1.70451E+005    2.11457E+006   -8.28487E+005    1.20639E+006    5.01273E+005    1.58876E+006    3.95423E+005   -7.12995E+004    4.80247E+005   -6.75301E+005
            8798    2.36497E+006    2.56566E+006    2.56566E+006    6.75673E+005   -8.63815E+004    2.65204E+006   -1.05165E+006    2.06028E+006    3.52058E+005    2.51036E+006    2.92534E+005   -7.52382E+004    3.93265E+005   -3.27529E+005
            8799    2.94056E+006    3.05277E+006    3.05277E+006    2.42833E+005   -2.98957E+003    3.05576E+006   -1.09754E+006    2.91731E+006    1.80419E+005    3.04638E+006    6.58147E+004   -8.67779E+004    1.11660E+005   -1.02650E+005
            8800    1.19717E+006    1.36452E+006    1.36452E+006    9.08479E+005    6.34506E+003    1.35817E+006   -7.59781E+005   -9.70699E+005    4.55435E+005    1.36283E+006    4.61079E+005    6.44014E+003    4.51697E+005    3.02032E+004
            8801    2.17267E+006    2.39689E+006    2.39689E+006    7.05368E+005   -5.34218E+004    2.45031E+006   -1.01628E+006    1.83696E+006    3.49089E+005    2.39575E+006    3.03989E+005    8.29465E+003    3.78982E+005    4.56031E+004
            8802    2.81324E+006    2.91946E+006    2.91946E+006    2.38973E+005   -9.98214E+003    2.92944E+006   -1.04948E+006    2.78829E+006    1.70699E+005    2.91934E+006    5.84068E+004    1.31197E+004    1.11156E+005    1.17039E+004
            8803    1.96613E+006    2.05185E+006    2.05185E+006    7.01808E+005   -2.03893E+005    2.25574E+006   -8.49922E+005    1.36309E+006    5.13655E+005    1.65066E+006    3.85449E+005    8.25383E+004    4.86051E+005    7.48662E+005
            8804    2.46823E+006    2.65913E+006    2.65913E+006    6.61636E+005   -1.00215E+005    2.75934E+006   -1.07352E+006    2.17916E+006    3.52160E+005    2.58364E+006    2.84753E+005    9.75002E+004    3.98186E+005    3.88826E+005
            8805    3.02060E+006    3.13751E+006    3.13751E+006    2.44369E+005    3.83758E+003    3.13368E+006   -1.12857E+006    2.99894E+006    1.85966E+005    3.12732E+006    7.24331E+004    1.10717E+005    1.10657E+005    1.31817E+005
            8806    3.06544E+006    2.90145E+006    2.90145E+006    6.99716E+005   -5.99668E+005    3.50111E+006   -1.00050E+006    2.31157E+006    6.03678E+005    2.26763E+006    1.30186E+005    1.79147E+005    5.64482E+005    1.23341E+006
            8807    3.06046E+006    3.20056E+006    3.20056E+006    6.21451E+005   -1.81264E+005    3.38182E+006   -1.21358E+006    2.80860E+006    3.75120E+005    3.01842E+006    2.47198E+005    1.71998E+005    4.31240E+005    6.77793E+005
            8808    3.51199E+006    3.60526E+006    3.60526E+006    2.31205E+005   -3.00712E+004    3.63533E+006   -1.26880E+006    3.49003E+006    1.91401E+005    3.58177E+006    3.32253E+004    1.89296E+005    1.15033E+005    2.08965E+005
            8809    1.22183E+007    1.36693E+007    1.36693E+007    1.87281E+006    1.06885E+006    1.26005E+007   -5.53699E+006    1.21586E+007    1.19124E+006    1.36620E+007    1.75776E+006   -2.98943E+005   -2.82729E+005    3.90487E+004
            8810    1.21787E+007    1.38914E+007    1.38914E+007    2.04592E+006    1.40480E+006    1.24866E+007   -5.78070E+006    1.21406E+007    1.53174E+006    1.38013E+007    2.00907E+006   -1.03766E+006   -1.69842E+005    1.73582E+005
            8811    1.22334E+007    1.42913E+007    1.42913E+007    2.40690E+006    1.73631E+006    1.25549E+007   -6.14482E+006    1.21920E+007    2.03202E+006    1.40051E+007    2.39731E+006   -1.82068E+006    6.27601E+004    4.41751E+005
            8812    1.21085E+007    1.49855E+007    1.49855E+007    3.71164E+006    2.18686E+006    1.27987E+007   -6.96134E+006    1.18896E+007    3.67096E+006    1.41019E+007    3.11119E+006   -3.03738E+006    5.05671E+005    1.03526E+006
            8813    1.13523E+007    1.39888E+007    1.39888E+007    4.74291E+006    1.31845E+006    1.26704E+007   -6.68339E+006    1.00883E+007    4.84881E+006    1.26312E+007    2.57018E+006   -3.02082E+006    8.48129E+005    2.29863E+006
            8814    1.39214E+007    1.56882E+007    1.56882E+007    2.07788E+006    1.47537E+006    1.42129E+007   -6.41383E+006    1.38920E+007    1.53978E+006    1.56793E+007    2.02238E+006   -3.53166E+005   -1.75210E+005    3.11415E+004
            8815    1.37756E+007    1.59019E+007    1.59019E+007    2.42772E+006    1.84343E+006    1.40585E+007   -6.72435E+006    1.37477E+007    1.96179E+006    1.57965E+007    2.41477E+006   -1.20511E+006   -1.00571E+005    1.19889E+005
            8816    1.35742E+007    1.62473E+007    1.62473E+007    3.11124E+006    2.27372E+006    1.39736E+007   -7.21075E+006    1.35159E+007    2.62394E+006    1.59042E+007    3.10408E+006   -2.13541E+006    6.01665E+004    3.40449E+005
            8817    1.28509E+007    1.67484E+007    1.67484E+007    4.62482E+006    3.27652E+006    1.34719E+007   -8.21658E+006    1.26903E+007    4.59652E+006    1.57064E+007    4.34686E+006   -3.48658E+006    3.59003E+005    8.21683E+005
            8818    1.09103E+007    1.53021E+007    1.53021E+007    5.84827E+006    3.36384E+006    1.19383E+007   -8.17140E+006    1.02444E+007    6.02938E+006    1.37048E+007    4.78000E+006   -3.48933E+006    5.91714E+005    1.94894E+006
            8819    1.49248E+007    1.68938E+007    1.68938E+007    2.19805E+006    1.74995E+006    1.51438E+007   -6.94726E+006    1.49097E+007    1.76689E+006    1.68839E+007    2.19097E+006   -3.85983E+005   -5.61541E+004    9.51847E+003
            8820    1.47044E+007    1.70862E+007    1.70862E+007    2.66186E+006    2.11697E+006    1.49692E+007   -7.28835E+006    1.46816E+007    2.23186E+006    1.69722E+007    2.66097E+006   -1.30008E+006   -2.90834E+004    5.19224E+004
            8821    1.43520E+007    1.73835E+007    1.73835E+007    3.51419E+006    2.59303E+006    1.47904E+007   -7.83023E+006    1.42853E+007    2.95670E+006    1.70207E+007    3.51334E+006   -2.28469E+006    2.23022E+004    1.21312E+005
            8822    1.32401E+007    1.77454E+007    1.77454E+007    5.10787E+006    3.97553E+006    1.37699E+007   -8.94294E+006    1.31305E+007    5.10571E+006    1.66484E+007    5.07468E+006   -3.71420E+006    1.24691E+005    3.01835E+005
            8823    1.02519E+007    1.59240E+007    1.59240E+007    6.45556E+006    5.03643E+006    1.08875E+007   -9.13865E+006    1.00274E+007    6.78464E+006    1.43279E+007    6.30346E+006   -3.76099E+006    2.10184E+005    7.68640E+005
            8824    6.85959E+006    6.09879E+006    6.09879E+006    1.06047E+006   -1.71334E+006    7.81213E+006   -1.81531E+006    5.36040E+006    1.01807E+006    5.92681E+006   -1.49895E+006   -8.25363E+005    7.57290E+005   -4.09608E+005
            8825    8.12474E+006    7.35959E+006    7.35959E+006    1.41491E+006   -1.89821E+006    9.25780E+006   -2.29210E+006    6.31182E+006    1.41327E+006    7.14442E+006   -1.68140E+006   -1.12954E+006    8.17445E+005    8.18282E+004
            8826    9.28074E+006    8.74525E+006    8.74525E+006    1.88837E+006   -1.81548E+006    1.05607E+007   -2.93938E+006    7.31671E+006    1.91148E+006    8.40802E+006   -1.50135E+006   -1.48202E+006    9.03984E+005    5.96536E+005
            8827    1.03665E+007    1.04173E+007    1.04173E+007    2.61390E+006   -1.34536E+006    1.17626E+007   -3.89527E+006    8.39314E+006    2.65899E+006    9.83678E+006   -8.09967E+005   -1.93325E+006    9.68810E+005    1.28867E+006
            8828    1.11473E+007    1.22539E+007    1.22539E+007    3.58465E+006   -3.20616E+005    1.25745E+007   -5.17264E+006    9.41253E+006    3.65874E+006    1.13035E+007    5.55716E+005   -2.46828E+006    9.63461E+005    1.95003E+006
            8829    1.10049E+007    1.28388E+007    1.28388E+007    2.72506E+006    1.11922E+006    1.17196E+007   -5.56103E+006    1.07366E+007    2.70079E+006    1.21615E+007    1.82082E+006   -2.49215E+006    5.69218E+005    9.83061E+005
            8830    1.06091E+007    1.20240E+007    1.20240E+007    1.64435E+006    1.19949E+006    1.08245E+007   -4.95596E+006    1.05881E+007    1.42960E+006    1.17982E+007    1.64005E+006   -1.47453E+006    3.73551E+004    4.67442E+005
            8831    1.03146E+007    1.15961E+007    1.15961E+007    1.64515E+006    9.52765E+005    1.06433E+007   -4.73134E+006    1.02621E+007    1.09693E+006    1.15202E+007    1.57686E+006   -8.61768E+005   -2.30983E+005    2.07830E+005
            8832    1.02493E+007    1.13607E+007    1.13607E+007    1.62353E+006    6.66477E+005    1.06943E+007   -4.55024E+006    1.01480E+007    8.36336E+005    1.13545E+007    1.45989E+006   -2.45747E+005   -3.62272E+005    6.09034E+004
            8833    9.74360E+006    1.07018E+007    1.07018E+007    1.87245E+006    2.48100E+005    1.04537E+007   -4.27411E+006    9.43174E+006    1.86386E+006    1.02265E+007    7.31984E+005   -1.95518E+006    5.69910E+005    7.77783E+005
            8834    8.96570E+006    9.84700E+006    9.84700E+006    9.91025E+005    7.75460E+005    9.07154E+006   -3.87116E+006    8.95987E+006    9.45786E+005    9.67428E+006    9.93416E+005   -1.15459E+006    4.70060E+003    4.51406E+005
            8835    8.54794E+006    9.44289E+006    9.44289E+006    1.25589E+006    5.74760E+005    8.86813E+006   -3.75785E+006    8.48657E+006    7.35112E+005    9.37816E+006    1.16027E+006   -6.97255E+005   -2.66394E+005    2.50057E+005
            8836    8.37171E+006    9.18962E+006    9.18962E+006    1.38290E+006    3.48980E+005    8.84064E+006   -3.64050E+006    8.22623E+006    5.49433E+005    9.18443E+006    1.18764E+006   -1.96029E+005   -4.06924E+005    6.80444E+004
            8837    8.43398E+006    8.77154E+006    8.77154E+006    1.23611E+006   -3.38922E+005    9.11047E+006   -3.22291E+006    8.09311E+006    1.23134E+006    8.45952E+006   -2.21234E+004   -1.47704E+006    5.19504E+005    5.47571E+005
            8838    7.54570E+006    8.00831E+006    8.00831E+006    5.00371E+005    4.25394E+005    7.58291E+006   -2.97802E+006    7.54487E+006    5.89681E+005    7.87815E+006    4.66241E+005   -8.76302E+005   -2.28972E+004    4.45602E+005
            8839    7.00166E+006    7.60016E+006    7.60016E+006    9.46445E+005    2.95946E+005    7.30421E+006   -2.94752E+006    6.93319E+006    4.68717E+005    7.54443E+006    8.29403E+005   -5.42103E+005   -2.84466E+005    2.91669E+005
            8840    6.79671E+006    7.37115E+006    7.37115E+006    1.14104E+006    1.22749E+005    7.24840E+006   -2.87831E+006    6.62182E+006    3.40949E+005    7.36559E+006    9.28401E+005   -1.50543E+005   -4.18161E+005    1.13574E+005
            8841    7.21129E+006    7.16429E+006    7.16429E+006    7.79444E+005   -6.57173E+005    7.82147E+006   -2.42886E+006    6.87819E+006    7.69987E+005    6.97864E+006   -4.62063E+005   -1.07386E+006    4.47274E+005    2.75880E+005
            8842    6.21676E+006    6.42369E+006    6.42369E+006    2.70672E+005    1.45094E+005    6.27859E+006   -2.27982E+006    6.21390E+006    3.33564E+005    6.33033E+006    1.75560E+005   -6.21325E+005   -5.39085E+004    4.27212E+005
            8843    5.76915E+006    6.13853E+006    6.13853E+006    6.80029E+005    1.02215E+005    6.03632E+006   -2.30692E+006    5.70351E+006    2.84336E+005    6.08261E+006    5.53827E+005   -4.05794E+005   -2.82662E+005    3.73877E+005
            8844    5.54574E+006    5.92048E+006    5.92048E+006    9.03435E+005   -3.43715E+004    5.95485E+006   -2.26318E+006    5.36298E+006    1.95439E+005    5.91496E+006    6.79140E+005   -1.05540E+005   -4.04779E+005    1.28955E+005
            8845    5.74717E+006    5.60609E+006    5.60609E+006    4.62984E+005   -5.97451E+005    6.20354E+006   -1.82387E+006    5.52059E+006    4.18622E+005    5.50687E+006   -4.53866E+005   -7.16592E+005    3.54104E+005    8.63855E+004
            8846    5.15224E+006    5.22001E+006    5.22001E+006    1.66914E+005   -2.59586E+004    5.24597E+006   -1.78699E+006    5.14411E+006    1.85039E+005    5.13264E+006    4.32870E+004   -4.08432E+005   -9.54868E+004    5.22048E+005
            8847    4.77831E+006    4.96221E+006    4.96221E+006    4.48346E+005   -4.26389E+004    5.00485E+006   -1.78931E+006    4.72106E+006    1.47973E+005    4.90406E+006    3.15888E+005   -2.89718E+005   -2.61381E+005    4.18565E+005
            8848    4.54762E+006    4.74397E+006    4.74397E+006    6.47159E+005   -1.49240E+005    4.89321E+006   -1.74730E+006    4.38659E+006    8.28684E+004    4.73573E+006    4.23286E+005   -6.68971E+004   -3.64249E+005    1.71488E+005
            8849    3.63575E+006    3.67406E+006    3.67406E+006    3.68145E+005   -2.19842E+005    3.89390E+006   -1.27412E+006    3.52639E+006   -3.07604E+004    3.66661E+006    1.86509E+005   -5.24587E+004   -2.76735E+005    1.48526E+005
            8850    2.49330E+006    2.41928E+006    2.41928E+006    8.73901E+004   -2.08939E+005    2.62822E+006   -7.65910E+005    2.45321E+006   -1.61921E+005    2.41721E+006    4.24462E+004   -2.48449E+004   -1.08714E+005    6.49306E+004
            8851    3.87804E+006    3.91423E+006    3.91423E+006    2.54692E+005   -1.50501E+005    4.06473E+006   -1.33947E+006    3.82998E+006    1.30929E+004    3.86354E+006    1.41781E+005   -1.70293E+005   -2.15860E+005    3.93864E+005
            8852    2.81613E+006    2.75690E+006    2.75690E+006    5.90083E+004   -1.64196E+005    2.92109E+006   -8.83903E+005    2.79613E+006   -1.18649E+005    2.74325E+006    2.71053E+004   -7.61840E+004   -9.33113E+004    1.75574E+005
            8853    4.26233E+006    4.25401E+006    4.25401E+006    9.04115E+004   -1.00620E+005    4.35463E+006   -1.41460E+006    4.25268E+006    8.64383E+004    4.17887E+006   -2.15041E+004   -2.79729E+005   -9.56929E+004    4.84365E+005
            8854    3.32280E+006    3.29364E+006    3.29364E+006    9.80892E+003   -6.68007E+004    3.36044E+006   -1.07888E+006    3.32081E+006   -4.30771E+004    3.27441E+006    5.31508E+003   -1.31550E+005   -4.13344E+004    2.13248E+005
            8855    4.53647E+006    4.46982E+006    4.46982E+006    2.06438E+005   -2.97633E+005    4.76745E+006   -1.45954E+006    4.47281E+006    1.70938E+005    4.42599E+006   -2.18300E+005   -3.89446E+005    1.56637E+005    2.14308E+005
            8856    3.81565E+006    3.81211E+006    3.81211E+006    4.78150E+004   -5.29033E+004    3.86501E+006   -1.26901E+006    3.81265E+006    5.20422E+004    3.79713E+006   -4.21553E+004   -1.70815E+005    1.09904E+004    1.67262E+005
            8857    4.14820E+006    4.15869E+006    4.15869E+006    1.29619E+005   -9.91766E+004    4.25787E+006   -1.39638E+006    4.13397E+006    1.28046E+005    4.14675E+006   -8.56657E+004   -2.15032E+005    5.06177E+004    4.71476E+004
            8858    4.19351E+006    4.24756E+006    4.24756E+006    2.16116E+005   -9.11122E+004    4.33867E+006   -1.45752E+006    4.16807E+006    1.95159E+005    4.22959E+006   -5.21884E+004   -2.38608E+005    1.05134E+005   -1.23538E+005
            8859    4.48227E+006    4.40137E+006    4.40137E+006    4.33403E+005   -4.60477E+005    4.86185E+006   -1.45810E+006    4.27477E+006    2.83371E+005    4.34646E+006   -2.55532E+005   -4.04420E+005    3.90403E+005   -2.26618E+005
            8860    4.09777E+006    4.03109E+006    4.03109E+006    5.00070E+005   -4.62182E+005    4.49327E+006   -1.35632E+006    3.83100E+006    3.10708E+005    3.89849E+006   -1.40221E+005   -3.06021E+005    4.61382E+005   -6.26852E+005
            8861    4.93327E+006    4.23599E+006    4.23599E+006    7.36766E+005   -1.40639E+006    5.64239E+006   -1.18879E+006    3.64073E+006    6.75102E+005    3.79231E+006   -9.01041E+005   -4.06938E+005    6.84330E+005   -1.33179E+006
            8862    5.90973E+006    5.05102E+006    5.05102E+006    7.81346E+005   -1.69384E+006    6.74486E+006   -1.37951E+006    4.49991E+006    7.24589E+005    4.81158E+006   -1.39764E+006   -6.04665E+005    7.25162E+005   -8.88747E+005
            8863    7.98810E+006    7.76497E+006    7.76497E+006    6.88073E+005   -8.96749E+005    8.66172E+006   -2.51877E+006    7.62226E+006    6.48136E+005    7.67262E+006   -7.64456E+005    8.09102E+005   -4.28729E+005    1.04775E+005
            8864    9.44809E+006    9.45744E+006    9.45744E+006    1.02106E+006   -7.51325E+005    1.02088E+007   -3.24239E+006    9.06267E+006    9.69312E+005    9.27018E+006   -5.12310E+005    1.15650E+006   -4.95443E+005    6.10780E+005
            8865    1.08245E+007    1.13342E+007    1.13342E+007    1.56151E+006   -3.00458E+005    1.16347E+007   -4.19843E+006    1.04551E+007    1.40120E+006    1.10178E+007    1.76301E+005    1.58226E+006   -6.34668E+005    9.47310E+005
            8866    1.20583E+007    1.33731E+007    1.33731E+007    2.35542E+006    4.91323E+005    1.28818E+007   -5.40661E+006    1.17275E+007    1.99244E+006    1.28421E+007    1.38524E+006    2.14337E+006   -6.80279E+005    1.36121E+006
            8867    9.93547E+006    1.01891E+007    1.01891E+007    5.06409E+005    1.87306E+004    1.01703E+007   -3.57140E+006    9.90849E+006    4.88973E+004    1.01105E+007    5.54760E+005    4.89175E+005    9.09538E+004    7.22978E+005
            8868    8.93557E+006    9.29560E+006    9.29560E+006    5.99266E+005    1.38617E+005    9.15699E+006   -3.34450E+006    8.90880E+006    2.52113E+005    9.28501E+006    4.96365E+005    2.17189E+005    2.00555E+005    2.12674E+005
            8869    8.41700E+006    8.45047E+006    8.45047E+006    1.55395E+005   -8.33685E+004    8.53384E+006   -2.84083E+006    8.40938E+006   -4.13181E+004    8.36565E+006    1.98162E+005    3.37460E+005    1.08420E+005    7.63269E+005
            8870    7.34437E+006    7.61129E+006    7.61129E+006    5.02774E+005    5.18379E+004    7.55945E+006   -2.72197E+006    7.31313E+006    1.77930E+005    7.59503E+006    3.92936E+005    1.87410E+005    2.07362E+005    2.83138E+005
            8871    7.14479E+006    7.01633E+006    7.01633E+006   -2.00972E+004   -2.32111E+005    7.24844E+006   -2.25471E+006    7.13771E+006   -3.80685E+004    6.93509E+006   -1.32899E+005    2.43128E+005    9.54679E+004    7.18380E+005
            8872    5.80995E+006    6.02427E+006    6.02427E+006    4.61815E+005   -4.99789E+003    6.02927E+006   -2.16036E+006    5.76753E+006    1.06958E+005    6.01209E+006    3.62042E+005    1.32922E+005    2.02699E+005    2.23515E+005
            8873    5.54256E+006    5.33808E+006    5.33808E+006   -6.95455E+004   -3.30225E+005    5.66830E+006   -1.64610E+006    5.52874E+006   -1.11937E+005    5.26604E+006   -2.15792E+005    8.88697E+004    1.08481E+005    6.24255E+005
            8874    4.62950E+006    4.79974E+006    4.79974E+006    3.83056E+005   -1.66623E+004    4.81640E+006   -1.72204E+006    4.59044E+006    8.29185E+004    4.77231E+006    3.10901E+005    1.29690E+005    1.80151E+005    3.22065E+005
            8875    3.64429E+006    3.72007E+006    3.72007E+006    2.42572E+005   -7.07895E+004    3.79086E+006   -1.29728E+006    3.61380E+006    8.51186E+003    3.69587E+006    1.87468E+005    4.50656E+004    1.39880E+005    2.87130E+005
            8876    2.33004E+006    2.33103E+006    2.33103E+006    7.73866E+004   -6.85555E+004    2.39958E+006   -7.79952E+005    2.31972E+006   -3.89141E+004    2.32202E+006    5.67508E+004    5.94513E+003    5.91742E+004    1.42799E+005
            8877    4.28924E+006    4.17223E+006    4.17223E+006    2.11080E+004   -2.42928E+005    4.41516E+006   -1.31680E+006    4.27090E+006   -7.82758E+003    4.05831E+006   -1.00070E+005    9.17515E+004    1.01722E+005    6.89019E+005
            8878    2.87562E+006    2.83844E+006    2.83844E+006   -4.29907E+003   -6.89717E+004    2.90741E+006   -9.21722E+005    2.87398E+006   -2.11848E+004    2.80542E+006   -1.90692E+004    2.48661E+004    3.13808E+004    3.05859E+005
            8879    3.50457E+006    3.48378E+006    3.48378E+006    1.40960E+004   -5.46644E+004    3.53844E+006   -1.14774E+006    3.50305E+006    1.45732E+004    3.45516E+006   -2.65235E+004    4.13400E+004    2.61363E+003    3.14181E+005
            8880    4.14143E+006    4.09039E+006    4.09039E+006    2.80825E+004   -1.25867E+005    4.21626E+006   -1.33087E+006    4.13498E+006    2.70920E+004    4.08119E+006   -1.15677E+005    7.34621E+004   -1.54810E+004    1.82229E+005
            8881    4.40862E+006    4.38808E+006    4.38808E+006    6.60978E+004   -1.02349E+005    4.49043E+006   -1.45061E+006    4.40137E+006    5.20027E+004    4.38387E+006   -8.40466E+004    8.91756E+004   -5.14127E+004   -1.01948E+005
            8882    4.16053E+006    4.19722E+006    4.19722E+006    7.26305E+004    1.64937E+003    4.19557E+006   -1.42383E+006    4.15917E+006    5.56700E+004    4.17851E+006    3.73175E+004    9.44254E+004   -3.75491E+004   -2.61557E+005
            8883    4.73269E+006    4.47395E+006    4.47395E+006   -2.60009E+004   -4.61392E+005    4.93534E+006   -1.32885E+006    4.68731E+006   -2.29194E+004    4.39626E+006   -3.86785E+005    1.45707E+005    4.70934E+004    5.93992E+005
            8884    4.65250E+006    4.37578E+006    4.37578E+006    3.01009E+004   -5.32387E+005    4.90817E+006   -1.29117E+006    4.57506E+006    1.66052E+004    4.37118E+006   -5.14289E+005    1.39404E+005   -9.96742E+004   -2.33159E+004
            8885    4.21922E+006    4.05403E+006    4.05403E+006    3.60799E+004   -3.41136E+005    4.39517E+006   -1.24966E+006    4.18103E+006    1.05861E+004    3.97047E+006   -2.32081E+005    9.67331E+004   -1.14018E+005   -5.87163E+005
            8886    3.80197E+006    3.76834E+006    3.76834E+006    1.10005E+005   -1.62593E+005    3.93093E+006   -1.23858E+006    3.77989E+006    4.90631E+004    3.57863E+006    8.80594E+004    9.33457E+004   -1.40062E+005   -8.26290E+005
            8887    4.33711E+006    4.29140E+006    4.29140E+006    5.70519E+005   -4.71935E+005    4.76333E+006   -1.46333E+006    4.04055E+006    4.16604E+005    3.47514E+006    4.98235E+005    2.14052E+005   -5.50322E+005   -1.69832E+006
            8888    5.15310E+006    4.90928E+006    4.90928E+006    5.28299E+005   -7.68288E+005    5.67757E+006   -1.55643E+006    4.76492E+006    4.11016E+005    4.36307E+006   -1.04797E+005    2.98757E+005   -5.47375E+005   -1.57739E+006
            8889    5.91241E+006    5.45360E+006    5.45360E+006    4.76210E+005   -1.08180E+006    6.53539E+006   -1.61600E+006    5.42096E+006    3.65889E+005    5.19153E+006   -7.09404E+005    3.52753E+005   -5.36325E+005   -1.16738E+006
            8890    6.75906E+006    6.31780E+006    6.31780E+006    4.93611E+005   -1.09362E+006    7.41142E+006   -1.90593E+006    6.31900E+006    3.92847E+005    6.23333E+006   -9.08396E+005    5.20584E+005   -5.05845E+005   -4.82965E+005
            8891    1.06361E+007    1.10932E+007    1.10932E+007    6.62741E+005    2.62745E+005    1.08305E+007   -4.00623E+006    1.06192E+007    3.51097E+005    1.10836E+007    5.84018E+005    2.63090E+005    1.65866E+005    1.78896E+005
            8892    1.13924E+007    1.19142E+007    1.19142E+007    9.94646E+005    1.01435E+005    1.18128E+007   -4.33676E+006    1.13133E+007    1.38484E+005    1.18417E+007    1.03006E+006    6.40626E+005    7.79415E+004    6.35576E+005
            8893    1.30133E+007    1.53427E+007    1.53427E+007    3.49065E+006    1.41725E+006    1.39255E+007   -6.75021E+006    1.26336E+007    2.67355E+006    1.45840E+007    2.99311E+006    2.76155E+006   -6.51540E+005    1.53177E+006
            8894    1.20766E+007    1.26286E+007    1.26286E+007    7.19391E+005    3.91248E+005    1.22373E+007   -4.57973E+006    1.20665E+007    4.37988E+005    1.26202E+007    6.81022E+005    2.97428E+005    1.09542E+005    1.12682E+005
            8895    1.26213E+007    1.34124E+007    1.34124E+007    1.45506E+006    2.18234E+005    1.31942E+007   -5.02858E+006    1.24839E+007    2.66033E+005    1.33485E+007    1.47119E+006    7.87977E+005    5.17565E+004    4.43360E+005
            8896    1.35657E+007    1.69366E+007    1.69366E+007    4.83536E+006    2.27219E+006    1.46644E+007   -8.01471E+006    1.30040E+007    3.35658E+006    1.60021E+007    4.68543E+006    3.34757E+006   -4.74180E+005    1.27311E+006
            8897    1.29250E+007    1.35419E+007    1.35419E+007    7.52704E+005    4.85125E+005    1.30568E+007   -4.92657E+006    1.29188E+007    4.98075E+005    1.35338E+007    7.47832E+005    3.21455E+005    3.74160E+004    4.35778E+004
            8898    1.33279E+007    1.42756E+007    1.42756E+007    1.73715E+006    2.78169E+005    1.39974E+007   -5.43030E+006    1.31465E+007    3.32560E+005    1.42193E+007    1.73906E+006    8.69971E+005    2.20543E+004    1.57753E+005
            8899    1.37667E+007    1.78190E+007    1.78190E+007    5.82461E+006    2.78714E+006    1.50318E+007   -8.81023E+006    1.29803E+007    3.80237E+006    1.68178E+007    5.81055E+006    3.71352E+006   -1.78674E+005    5.03452E+005
            8900    4.05858E+006    4.08596E+006    4.08596E+006    7.54562E+004   -1.90426E+004    4.10501E+006   -1.38079E+006    4.05611E+006    5.39373E+004    4.06785E+006    2.05903E+004   -9.38609E+004   -4.69835E+004    2.53364E+005
            8901    3.71117E+006    3.67826E+006    3.67826E+006    1.11679E+005   -1.62315E+005    3.84058E+006   -1.20921E+006    3.68831E+006    4.48826E+004    3.47608E+006    1.06666E+005   -8.61651E+004   -1.43475E+005    8.41401E+005
            8902    4.27474E+006    4.23264E+006    4.23264E+006    5.69977E+005   -4.64359E+005    4.69700E+006   -1.44609E+006    3.97831E+006    4.20249E+005    3.39761E+006    5.20403E+005   -2.15280E+005   -5.50678E+005    1.69785E+006
            8903    3.60086E+006    3.64554E+006    3.64554E+006    8.27137E+004    7.80828E+003    3.63773E+006   -1.24535E+006    3.59911E+006    4.29360E+004    3.62821E+006    6.49177E+004   -7.76171E+004   -4.24316E+004    2.35862E+005
            8904    3.11648E+006    3.20680E+006    3.20680E+006    2.30665E+005   -3.32308E+004    3.24003E+006   -1.13475E+006    3.09119E+006    6.75331E+004    3.02714E+006    3.09558E+005   -6.86350E+004   -1.48190E+005    7.14337E+005
            8905    3.26948E+006    3.43562E+006    3.43562E+006    6.27252E+005   -1.53580E+005    3.58920E+006   -1.30310E+006    3.04892E+006    3.91027E+005    2.56843E+006    9.49834E+005   -1.30940E+005   -5.12614E+005    1.41576E+006
            8906    3.20571E+006    3.25976E+006    3.25976E+006    9.82160E+004    1.16511E+004    3.24811E+006   -1.12321E+006    3.20308E+006    3.80035E+004    3.25442E+006    7.72059E+004   -4.28747E+004   -4.12540E+004    1.22673E+005
            8907    2.56807E+006    2.73853E+006    2.73853E+006    3.76347E+005    5.00276E+003    2.73352E+006   -1.03996E+006    2.50659E+006    6.65692E+004    2.67530E+006    3.78008E+005   -3.57455E+004   -1.44555E+005    3.82294E+005
            8908    2.09615E+006    2.47130E+006    2.47130E+006    8.93166E+005    9.29012E+004    2.37840E+006   -1.15246E+006    1.69751E+006    3.51690E+005    1.95173E+006    1.15394E+006   -6.33015E+004   -4.60482E+005    7.80083E+005
            8909    3.08039E+006    3.13176E+006    3.13176E+006    9.80446E+004    6.72370E+003    3.12504E+006   -1.07884E+006    3.07735E+006    3.28046E+004    3.13170E+006    7.20290E+004    6.48117E+003   -4.12696E+004   -1.24867E+004
            8910    2.36466E+006    2.56994E+006    2.56994E+006    4.52872E+005    1.80367E+004    2.55190E+006   -1.01362E+006    2.27209E+006    7.35975E+004    2.56882E+006    3.98428E+005    8.28314E+002   -1.45213E+005   -4.90954E+004
            8911    1.43503E+006    1.71582E+006    1.71582E+006    1.36797E+006    1.38841E+005    1.57698E+006   -1.07421E+006   -1.33514E+006    3.17471E+005    1.71134E+006    1.19381E+006    5.99451E+003   -4.34025E+005   -3.96542E+004
            8912    3.27078E+006    3.32650E+006    3.32650E+006    9.74996E+004    1.54732E+004    3.31103E+006   -1.14649E+006    3.26847E+006    3.94302E+004    3.31822E+006    8.18219E+004    5.09556E+004   -3.93851E+004   -1.55265E+005
            8913    2.66646E+006    2.82572E+006    2.82572E+006    3.51415E+005    1.62152E+003    2.82410E+006   -1.05958E+006    2.61410E+006    6.87163E+004    2.74179E+006    3.68245E+005    4.37434E+004   -1.46645E+005   -4.49215E+005
            8914    2.22435E+006    2.58300E+006    2.58300E+006    8.49465E+005    7.49260E+004    2.50807E+006   -1.16913E+006    1.88297E+006    3.54408E+005    2.01381E+006    1.13917E+006    6.55630E+004   -4.64047E+005   -8.60538E+005
            8915    3.71259E+006    3.74539E+006    3.74539E+006    7.34962E+004   -6.60335E+003    3.75199E+006   -1.27076E+006    3.71065E+006    4.12558E+004    3.72727E+006    4.37588E+004    8.76861E+004   -4.55041E+004   -2.42618E+005
            8916    3.27778E+006    3.33992E+006    3.33992E+006    1.89632E+005   -5.19793E+004    3.39190E+006   -1.15919E+006    3.25765E+006    5.74840E+004    3.14625E+006    2.73834E+005    6.97645E+004   -1.41064E+005   -7.63867E+005
            8917    3.37443E+006    3.53375E+006    3.53375E+006    6.22398E+005   -1.64657E+005    3.69840E+006   -1.33050E+006    3.15786E+006    3.97478E+005    2.65823E+006    9.35783E+005    1.45851E+005   -5.17000E+005   -1.45342E+006
            8918    1.30154E+007    1.53481E+007    1.53481E+007    3.49413E+006    1.42030E+006    1.39278E+007   -6.75417E+006    1.26356E+007    2.67867E+006    1.45878E+007    2.99605E+006    2.76485E+006    6.51442E+005   -1.53251E+006
            8919    1.13980E+007    1.19164E+007    1.19164E+007    9.92768E+005    9.68974E+004    1.18195E+007   -4.33536E+006    1.13184E+007    1.33603E+005    1.18457E+007    1.02672E+006    6.34730E+005   -8.03296E+004   -6.25838E+005
            8920    1.06587E+007    1.11171E+007    1.11171E+007    6.63173E+005    2.64839E+005    1.08523E+007   -4.01504E+006    1.06419E+007    3.51841E+005    1.11075E+007    5.85730E+005    2.63885E+005   -1.64373E+005   -1.76319E+005
            8921    1.35597E+007    1.69384E+007    1.69384E+007    4.84253E+006    2.28052E+006    1.46579E+007   -8.02050E+006    1.29983E+007    3.36611E+006    1.60008E+007    4.69459E+006    3.35226E+006    4.70882E+005   -1.27432E+006
            8922    1.26259E+007    1.34065E+007    1.34065E+007    1.44035E+006    2.10842E+005    1.31956E+007   -5.01922E+006    1.24901E+007    2.57801E+005    1.33435E+007    1.45636E+006    7.80878E+005   -5.17758E+004   -4.42308E+005
            8923    1.20876E+007    1.26409E+007    1.26409E+007    7.19341E+005    3.93715E+005    1.22472E+007   -4.58465E+006    1.20778E+007    4.39958E+005    1.26325E+007    6.81455E+005    2.97361E+005   -1.08500E+005   -1.12518E+005
            8924    1.37646E+007    1.78208E+007    1.78208E+007    5.82983E+006    2.79067E+006    1.50302E+007   -8.81377E+006    1.29770E+007    3.80711E+006    1.68181E+007    5.81615E+006    3.71663E+006    1.76492E+005   -4.99295E+005
            8925    1.33273E+007    1.42688E+007    1.42688E+007    1.72774E+006    2.74401E+005    1.39944E+007   -5.42364E+006    1.31472E+007    3.28166E+005    1.42129E+007    1.72984E+006    8.65402E+005   -1.71622E+004   -1.62712E+005
            8926    1.29255E+007    1.35424E+007    1.35424E+007    7.53198E+005    4.84848E+005    1.30575E+007   -4.92681E+006    1.29192E+007    4.97859E+005    1.35343E+007    7.48311E+005    3.22387E+005   -3.75276E+004   -4.36329E+004
            8927    4.03897E+006    4.15333E+006    4.15333E+006    3.20182E+005   -6.39978E+004    4.21733E+006   -1.46984E+006    3.99755E+006    2.57810E+004    4.14031E+006    2.43423E+005   -3.88557E+004    1.64685E+005   -2.20697E+005
            8928    4.88295E+006    5.04738E+006    5.04738E+006    4.10443E+005   -4.90987E+004    5.09648E+006   -1.80291E+006    4.83394E+006    4.67243E+004    5.03832E+006    3.23674E+005   -5.14126E+004    1.88522E+005   -1.98594E+005
            8929    5.95691E+006    6.16684E+006    6.16684E+006    4.76997E+005   -2.53117E+004    6.19215E+006   -2.20618E+006    5.90898E+006    8.02215E+004    6.16011E+006    3.78200E+005   -6.91257E+004    2.06262E+005   -1.83143E+005
            8930    7.33481E+006    7.58652E+006    7.58652E+006    5.17581E+005    1.20091E+004    7.57451E+006   -2.70537E+006    7.29545E+006    1.28601E+005    7.58252E+006    4.04995E+005   -8.59012E+004    2.14048E+005   -1.44667E+005
            8931    8.95949E+006    9.26269E+006    9.26269E+006    5.47224E+005    7.76424E+004    9.18505E+006   -3.29585E+006    8.93174E+006    1.94842E+005    9.25922E+006    4.33494E+005   -1.06822E+005    2.04144E+005   -1.37302E+005
            8932    4.44154E+006    4.43688E+006    4.43688E+006    1.25651E+005   -1.24397E+005    4.56128E+006   -1.47938E+006    4.42566E+006   -7.04511E+003    4.35665E+006    8.85300E+004   -8.71202E+004    1.37411E+005   -5.81353E+005
            8933    5.30544E+006    5.36127E+006    5.36127E+006    2.02914E+005   -7.99424E+004    5.44121E+006   -1.82808E+006    5.28843E+006    3.22848E+004    5.29572E+006    1.56230E+005   -1.38315E+005    1.53219E+005   -5.63646E+005
            8934    6.35662E+006    6.47257E+006    6.47257E+006    2.82702E+005   -3.86200E+004    6.51119E+006   -2.23888E+006    6.33831E+006    6.03869E+004    6.42852E+006    2.27745E+005   -1.89753E+005    1.60826E+005   -4.84995E+005
            8935    7.71934E+006    7.92217E+006    7.92217E+006    3.86751E+005    3.11971E+004    7.89098E+006   -2.78004E+006    7.70089E+006    1.21208E+005    7.88533E+006    3.33585E+005   -2.56362E+005    1.64975E+005   -4.58871E+005
            8936    9.23870E+006    9.56266E+006    9.56266E+006    5.35394E+005    1.26144E+005    9.43652E+006   -3.40807E+006    9.21827E+006    1.96645E+005    9.53298E+006    4.94574E+005   -3.22210E+005    1.58346E+005   -4.05145E+005
            8937    4.99035E+006    4.89539E+006    4.89539E+006    1.09845E+005   -2.77222E+005    5.17261E+006   -1.57600E+006    4.95641E+006    1.17584E+005    4.78134E+006   -1.70908E+005   -1.93431E+005    4.06460E+004   -7.31917E+005
            8938    5.94672E+006    5.86482E+006    5.86482E+006    1.18868E+005   -2.64137E+005    6.12896E+006   -1.90652E+006    5.91887E+006    1.32268E+005    5.77487E+006   -1.87587E+005   -2.75486E+005    3.57632E+004   -6.79653E+005
            8939    7.15218E+006    7.18613E+006    7.18613E+006    2.06349E+005   -1.26798E+005    7.31293E+006   -2.42190E+006    7.13469E+006    2.29006E+005    7.09010E+006   -5.34222E+004   -3.95509E+005    3.70532E+004   -7.27579E+005
            8940    8.35273E+006    8.59887E+006    8.59887E+006    2.98801E+005    1.94450E+005    8.40442E+006   -3.03071E+006    8.35126E+006    3.29403E+005    8.50038E+006    2.62330E+005   -5.23648E+005    2.99581E+004   -7.36051E+005
            8941    9.77264E+006    1.02980E+007    1.02980E+007    6.21546E+005    4.31857E+005    9.86611E+006   -3.78379E+006    9.76850E+006    4.83248E+005    1.01936E+007    6.74498E+005   -6.77564E+005    2.30585E+004   -7.42720E+005
            8942    5.73760E+006    5.32141E+006    5.32141E+006   -2.36257E+004   -7.41246E+005    6.06265E+006   -1.51885E+006    5.63531E+006   -2.93647E+004    5.30201E+006   -7.16113E+005   -2.29211E+005   -9.42680E+004   -2.44444E+005
            8943    7.24605E+006    6.79796E+006    6.79796E+006    9.05347E+004   -8.87384E+005    7.68535E+006   -2.00037E+006    7.09531E+006    8.40899E+004    6.74998E+006   -8.32957E+005   -4.19880E+005   -1.50538E+005   -4.16476E+005
            8944    8.47173E+006    8.17287E+006    8.17287E+006    1.62538E+005   -6.95023E+005    8.86789E+006   -2.54680E+006    8.37324E+006    1.34993E+005    8.07771E+006   -5.72320E+005   -6.00665E+005   -1.89400E+005   -6.77026E+005
            8945    9.79582E+006    9.83609E+006    9.83609E+006    4.06712E+005   -2.89066E+005    1.01252E+007   -3.31791E+006    9.73999E+006    3.05586E+005    9.68241E+006   -3.42638E+004   -8.61895E+005   -2.26337E+005   -8.84805E+005
            8946    1.10631E+007    1.15846E+007    1.15846E+007    9.25545E+005    1.57501E+005    1.14271E+007   -4.22256E+006    1.10029E+007    5.07064E+005    1.13612E+007    7.99383E+005   -1.16860E+006   -2.39888E+005   -1.06422E+006
            8947    1.28100E+007    1.42301E+007    1.42301E+007    2.96604E+006    2.95203E+005    1.39349E+007   -5.83045E+006    1.21597E+007    2.54876E+006    1.35828E+007    1.35974E+006   -2.49785E+006   -1.00967E+006   -1.41847E+006
            8948    1.15749E+007    1.20402E+007    1.20402E+007    2.03569E+006   -6.37407E+005    1.26776E+007   -4.47949E+006    1.08473E+007    1.82283E+006    1.16790E+007   -6.33337E+004   -1.82558E+006   -9.45626E+005   -8.17734E+005
            8949    1.01771E+007    1.00563E+007    1.00563E+007    1.40785E+006   -1.15824E+006    1.12145E+007   -3.43529E+006    9.40700E+006    1.27759E+006    9.86391E+006   -8.35620E+005   -1.29916E+006   -8.36749E+005   -1.56548E+005
            8950    8.77833E+006    8.38109E+006    8.38109E+006    9.82100E+005   -1.31842E+006    9.69951E+006   -2.68159E+006    8.05719E+006    9.01352E+005    8.24806E+006   -1.10463E+006   -9.36475E+005   -6.88864E+005    2.99444E+005
            8951    7.24914E+006    6.84751E+006    6.84751E+006    7.20456E+005   -1.15509E+006    8.00260E+006   -2.13763E+006    6.66971E+006    6.38348E+005    6.69109E+006   -9.16559E+005   -6.42821E+005   -5.95566E+005    7.70608E+005
            8952    6.10710E+006    5.65623E+006    5.65623E+006    5.21507E+005   -1.09714E+006    6.75337E+006   -1.69353E+006    5.59316E+006    4.12347E+005    5.36634E+006   -6.98089E+005   -4.18105E+005   -5.76920E+005    1.22441E+006
            8953    5.14864E+006    4.87062E+006    4.87062E+006    5.20947E+005   -8.14035E+005    5.68465E+006   -1.52584E+006    4.73520E+006    3.99986E+005    4.28001E+006   -1.02469E+005   -2.83619E+005   -5.60321E+005    1.63999E+006
            8954    4.19916E+006    4.05010E+006    4.05010E+006    7.84876E+004   -3.44575E+005    4.39467E+006   -1.26134E+006    4.15080E+006    4.10690E+004    3.95034E+006   -2.07402E+005   -1.12482E+005   -1.44572E+005    6.36852E+005
            8955    4.29789E+006    4.28933E+006    4.28933E+006    5.91610E+004   -7.32184E+004    4.36255E+006   -1.42509E+006    4.29330E+006    4.83223E+004    4.28410E+006   -5.71441E+004   -9.11543E+004   -4.16940E+004    1.18432E+005
            8956    4.54675E+006    4.31520E+006    4.31520E+006    2.39582E+004   -4.49946E+005    4.76514E+006   -1.29640E+006    4.49068E+006    1.36822E+004    4.30691E+006   -4.31383E+005   -1.42373E+005   -8.72451E+004    1.27353E+005
            8957    4.15218E+006    4.12271E+006    4.12271E+006    4.25192E+004   -9.78783E+004    4.22059E+006   -1.35579E+006    4.14683E+006    3.81441E+004    4.11930E+006   -9.00839E+004   -7.15426E+004   -2.58720E+004   -9.59816E+004
            8958    3.74847E+006    3.71128E+006    3.71128E+006    1.18378E+004   -8.43538E+004    3.79564E+006   -1.21292E+006    3.74569E+006    1.20964E+004    3.69375E+006   -6.70815E+004   -4.67919E+004   -2.47367E+003   -2.53017E+005
            8959    3.16032E+006    3.12684E+006    3.12684E+006   -3.81601E+003   -6.23472E+004    3.18918E+006   -1.02022E+006    3.15910E+006   -1.49334E+004    3.09635E+006   -2.07466E+004   -2.44032E+004    2.56422E+004   -3.08581E+005
            8960    2.55727E+006    2.53959E+006    2.53959E+006    2.27135E+004   -5.62627E+004    2.59585E+006   -8.35346E+005    2.55453E+006   -3.09091E+004    2.51690E+006    2.00469E+004   -1.12183E+004    3.80672E+004   -2.38632E+005
            8961    2.17313E+006    2.16707E+006    2.16707E+006    5.43547E+004   -6.18298E+004    2.22890E+006   -7.19864E+005    2.16613E+006   -4.12006E+004    2.16338E+006    3.74149E+004   -2.42573E+003    4.45308E+004   -8.85403E+004
            8962    4.53069E+006    4.32150E+006    4.32150E+006    2.43786E+004   -4.11268E+005    4.73277E+006   -1.31154E+006    4.48320E+006    2.38660E+004    4.28516E+006   -3.74411E+005   -1.42279E+005   -3.48799E+004   -3.86566E+005
            8963    4.15473E+006    4.05038E+006    4.05038E+006    2.54978E+004   -2.23033E+005    4.27341E+006   -1.28428E+006    4.13795E+006    2.62288E+004    3.94019E+006   -1.13578E+005   -1.15038E+005    4.54227E+004   -6.65830E+005
            8964    3.62967E+006    3.61040E+006    3.61040E+006    7.75774E+004   -1.08915E+005    3.71932E+006   -1.19302E+006    3.61886E+006   -4.73816E+003    3.52908E+006    5.47225E+004   -6.05769E+004    1.02905E+005   -5.32422E+005
            8965    3.24798E+006    3.29433E+006    3.29433E+006    1.91522E+005   -8.15761E+004    3.37591E+006   -1.13476E+006    3.22200E+006   -1.18262E+004    3.28178E+006    1.34326E+005   -2.05865E+004    1.20482E+005   -1.97269E+005
            8966    4.62522E+006    4.79565E+006    4.79565E+006    3.83441E+005   -1.65963E+004    4.81224E+006   -1.72083E+006    4.58605E+006    8.27379E+004    4.76802E+006    3.11734E+005    1.29817E+005   -1.80135E+005   -3.23184E+005
            8967    5.81720E+006    6.03259E+006    6.03259E+006    4.63948E+005   -4.81036E+003    6.03740E+006   -2.16391E+006    5.77448E+006    1.07169E+005    6.02052E+006    3.64033E+005    1.32525E+005   -2.03216E+005   -2.22441E+005
            8968    7.38412E+006    7.65325E+006    7.65325E+006    5.06021E+005    5.30897E+004    7.60016E+006   -2.73745E+006    7.35277E+006    1.79510E+005    7.63711E+006    3.95741E+005    1.87928E+005   -2.08100E+005   -2.82478E+005
            8969    8.98062E+006    9.34474E+006    9.34474E+006    6.02861E+005    1.43040E+005    9.20170E+006   -3.36355E+006    8.95408E+006    2.56369E+005    9.33415E+006    5.00119E+005    2.18399E+005   -2.00197E+005   -2.12433E+005
            8970    5.54434E+006    5.33967E+006    5.33967E+006   -7.06725E+004   -3.29599E+005    5.66927E+006   -1.64647E+006    5.53072E+006   -1.12736E+005    5.26806E+006   -2.15921E+005    8.83326E+004   -1.07675E+005   -6.22565E+005
            8971    7.15906E+006    7.03147E+006    7.03147E+006   -2.07116E+004   -2.29872E+005    7.26134E+006   -2.26030E+006    7.15218E+006   -3.80526E+004    6.95001E+006   -1.31073E+005    2.44266E+005   -9.43902E+004   -7.19856E+005
            8972    8.43396E+006    8.47142E+006    8.47142E+006    1.63929E+005   -8.35702E+004    8.55499E+006   -2.85059E+006    8.42579E+006   -4.23349E+004    8.38682E+006    2.07291E+005    3.38973E+005   -1.08926E+005   -7.62142E+005
            8973    9.95211E+006    1.02052E+007    1.02052E+007    5.12112E+005    1.29031E+004    1.01923E+007   -3.57675E+006    9.92388E+006    4.35163E+004    1.01269E+007    5.59820E+005    4.86741E+005   -9.44939E+004   -7.23837E+005
            8974    1.20576E+007    1.33745E+007    1.33745E+007    2.35869E+006    4.92678E+005    1.28818E+007   -5.40861E+006    1.17261E+007    1.99675E+006    1.28427E+007    1.38639E+006    2.14418E+006    6.80445E+005   -1.36336E+006
            8975    1.08224E+007    1.13333E+007    1.13333E+007    1.55976E+006   -2.97661E+005    1.16309E+007   -4.19846E+006    1.04548E+007    1.40004E+006    1.10172E+007    1.78114E+005    1.58070E+006    6.32801E+005   -9.47497E+005
            8976    9.44968E+006    9.46319E+006    9.46319E+006    1.02247E+006   -7.45675E+005    1.02089E+007   -3.24666E+006    9.06623E+006    9.72047E+005    9.27534E+006   -5.07406E+005    1.15728E+006    4.92766E+005   -6.14350E+005
            8977    8.00003E+006    7.77925E+006    7.77925E+006    6.88459E+005   -8.93607E+005    8.67286E+006   -2.52470E+006    7.63608E+006    6.49311E+005    7.68648E+006   -7.61681E+005    8.11448E+005    4.27180E+005   -1.09011E+005
            8978    6.76929E+006    6.32553E+006    6.32553E+006    4.95077E+005   -1.09831E+006    7.42384E+006   -1.90743E+006    6.32638E+006    3.94736E+005    6.24102E+006   -9.13465E+005    5.22037E+005    5.06533E+005    4.82144E+005
            8979    5.91581E+006    5.45758E+006    5.45758E+006    4.77013E+005   -1.08145E+006    6.53902E+006   -1.61771E+006    5.42438E+006    3.66325E+005    5.19472E+006   -7.07902E+005    3.53380E+005    5.37335E+005    1.16931E+006
            8980    5.14829E+006    4.90772E+006    4.90772E+006    5.29547E+005   -7.63981E+005    5.67170E+006   -1.55776E+006    4.76164E+006    4.11259E+005    4.36082E+006   -9.87921E+004    2.98460E+005    5.48111E+005    1.57721E+006
            8981    4.33976E+006    4.29451E+006    4.29451E+006    5.70203E+005   -4.71197E+005    4.76571E+006   -1.46451E+006    4.04403E+006    4.15838E+005    3.48063E+006    4.97055E+005    2.13857E+005    5.49802E+005    1.69694E+006
            8982    3.80552E+006    3.77107E+006    3.77107E+006    1.10919E+005   -1.64812E+005    3.93588E+006   -1.23906E+006    3.78294E+006    4.92753E+004    3.58059E+006    8.73098E+004    9.40092E+004    1.41631E+005    8.28237E+005
            8983    4.16262E+006    4.20025E+006    4.20025E+006    7.42087E+004    1.99604E+003    4.19826E+006   -1.42549E+006    4.16121E+006    5.63452E+004    4.18146E+006    3.86504E+004    9.42164E+004    3.83841E+004    2.62337E+005
            8984    4.22790E+006    4.06318E+006    4.06318E+006    3.84619E+004   -3.42164E+005    4.40535E+006   -1.25316E+006    4.18909E+006    1.26327E+004    3.97909E+006   -2.32244E+005    9.73584E+004    1.15234E+005    5.89586E+005
            8985    4.40854E+006    4.38628E+006    4.38628E+006    6.55797E+004   -1.05129E+005    4.49141E+006   -1.44891E+006    4.40109E+006    5.14963E+004    4.38202E+006   -8.67804E+004    8.92162E+004    5.17906E+004    1.03159E+005
            8986    4.66333E+006    4.38161E+006    4.38161E+006    2.91578E+004   -5.40309E+005    4.92191E+006   -1.29015E+006    4.58413E+006    1.57298E+004    4.37696E+006   -5.22235E+005    1.39734E+005    1.00250E+005    2.60080E+004
            8987    4.14882E+006    4.09813E+006    4.09813E+006    2.88135E+004   -1.25876E+005    4.22400E+006   -1.33369E+006    4.14233E+006    2.77803E+004    4.08920E+006   -1.15910E+005    7.42281E+004    1.58270E+004   -1.78996E+005
            8988    4.73725E+006    4.47811E+006    4.47811E+006   -2.57831E+004   -4.62298E+005    4.94040E+006   -1.33001E+006    4.69169E+006   -2.27358E+004    4.40005E+006   -3.87294E+005    1.46066E+005   -4.76451E+004   -5.95656E+005
            8989    3.51426E+006    3.49354E+006    3.49354E+006    1.44436E+004   -5.48447E+004    3.54839E+006   -1.15105E+006    3.51272E+006    1.49177E+004    3.46514E+006   -2.69177E+004    4.19324E+004   -2.23561E+003   -3.13351E+005
            8990    2.88092E+006    2.84345E+006    2.84345E+006   -4.38003E+003   -6.94599E+004    2.91291E+006   -9.23204E+005    2.87927E+006   -2.10456E+004    2.81031E+006   -1.96516E+004    2.51024E+004   -3.14140E+004   -3.06726E+005
            8991    2.32837E+006    2.32926E+006    2.32926E+006    7.68227E+004   -6.82592E+004    2.39752E+006   -7.79273E+005    2.31816E+006   -3.89333E+004    2.32008E+006    5.66687E+004    6.05402E+003   -5.87349E+004   -1.44055E+005
            8992    4.28994E+006    4.17295E+006    4.17295E+006    2.10577E+004   -2.42849E+005    4.41580E+006   -1.31705E+006    4.27162E+006   -7.80370E+003    4.05886E+006   -9.99007E+004    9.13772E+004   -1.01538E+005   -6.89639E+005
            8993    3.63792E+006    3.71321E+006    3.71321E+006    2.41466E+005   -7.07500E+004    3.78396E+006   -1.29464E+006    3.60759E+006    8.18595E+003    3.68902E+006    1.86727E+005    4.50867E+004   -1.39341E+005   -2.86870E+005
            8994    1.36574E+007    1.63319E+007    1.63319E+007    4.23444E+006    1.52177E+006    1.48102E+007   -7.36271E+006    1.30304E+007    3.41994E+006    1.53174E+007    3.35076E+006   -3.27273E+006   -9.17773E+005   -1.77824E+006
            8995    1.22744E+007    1.34010E+007    1.34010E+007    1.83988E+006    5.20117E+005    1.28809E+007   -5.25368E+006    1.21132E+007    8.10318E+005    1.31199E+007    1.83083E+006   -1.52913E+006   -2.26199E+005   -1.07813E+006
            8996    1.11620E+007    1.20332E+007    1.20332E+007    1.17091E+006    5.93874E+005    1.14394E+007   -4.59934E+006    1.11284E+007    6.62432E+005    1.19284E+007    1.20717E+006   -8.55902E+005    2.41864E+003   -6.61107E+005
            8997    1.08615E+007    1.13364E+007    1.13364E+007    7.11339E+005    2.53069E+005    1.10834E+007   -4.10028E+006    1.08397E+007    2.99993E+005    1.13100E+007    6.90808E+005   -4.06126E+005    1.29555E+005   -3.44314E+005
            8998    1.06671E+007    1.10489E+007    1.10489E+007    5.88260E+005    1.86669E+005    1.08623E+007   -3.94129E+006    1.06501E+007    2.83596E+005    1.10463E+007    4.93925E+005   -1.30733E+005    1.72119E+005   -1.00839E+005
            8999    1.40597E+007    1.80320E+007    1.80320E+007    5.76119E+006    2.69082E+006    1.53412E+007   -8.82800E+006    1.32736E+007    4.29242E+006    1.67300E+007    5.46161E+006   -3.99774E+006   -6.68018E+005   -1.51364E+006
            9000    1.31946E+007    1.49239E+007    1.49239E+007    2.87788E+006    8.21981E+005    1.41019E+007   -6.20792E+006    1.28269E+007    1.12056E+006    1.46129E+007    2.89032E+006   -1.88176E+006   -1.76720E+005   -8.33724E+005
            9001    1.23820E+007    1.36047E+007    1.36047E+007    1.73110E+006    7.70279E+005    1.28344E+007   -5.36869E+006    1.22977E+007    8.58619E+005    1.34987E+007    1.74878E+006   -1.04680E+006   -6.33832E+003   -4.87968E+005
            9002    1.22544E+007    1.28945E+007    1.28945E+007    9.14814E+005    3.82742E+005    1.25118E+007   -4.73070E+006    1.22284E+007    4.13052E+005    1.28703E+007    9.08779E+005   -4.94022E+005    8.42178E+004   -2.34533E+005
            9003    1.21335E+007    1.25949E+007    1.25949E+007    6.14688E+005    3.13749E+005    1.22811E+007   -4.50777E+006    1.21251E+007    3.66514E+005    1.25924E+007    5.64425E+005   -1.56684E+005    1.13670E+005   -7.57309E+004
            9004    1.41482E+007    1.89833E+007    1.89833E+007    6.92373E+006    3.40903E+006    1.55743E+007   -9.77202E+006    1.31109E+007    4.87315E+006    1.75460E+007    6.89688E+006   -4.46579E+006   -2.36641E+005   -6.11915E+005
            9005    1.36806E+007    1.57923E+007    1.57923E+007    3.53849E+006    1.03164E+006    1.47606E+007   -6.78746E+006    1.31488E+007    1.33749E+006    1.54832E+007    3.54173E+006   -2.08619E+006   -6.18907E+004   -3.22177E+005
            9006    1.30463E+007    1.44648E+007    1.44648E+007    2.04867E+006    8.68494E+005    1.35963E+007   -5.79399E+006    1.29254E+007    9.63499E+005    1.43675E+007    2.05094E+006   -1.13091E+006   -2.62814E+003   -1.77913E+005
            9007    1.30621E+007    1.38041E+007    1.38041E+007    1.04893E+006    4.55294E+005    1.33488E+007   -5.10277E+006    1.30317E+007    4.78076E+005    1.37815E+007    1.04870E+006   -5.39529E+005    2.73908E+004   -9.40168E+004
            9008    1.30025E+007    1.35250E+007    1.35250E+007    6.32094E+005    4.15529E+005    1.31095E+007   -4.85754E+006    1.29985E+007    4.25202E+005    1.35227E+007    6.24697E+005   -1.70944E+005    3.97639E+004   -2.37312E+004
            9009    4.27745E+006    4.23287E+006    4.23287E+006    5.68764E+005   -4.67514E+005    4.70039E+006   -1.44471E+006    3.98005E+006    4.20047E+005    3.39637E+006    5.17708E+005   -2.16018E+005    5.50907E+005   -1.69988E+006
            9010    3.70399E+006    3.67210E+006    3.67210E+006    1.10608E+005   -1.59589E+005    3.83169E+006   -1.20771E+006    3.68172E+006    4.41992E+004    3.47092E+006    1.07998E+005   -8.57819E+004    1.41950E+005   -8.38478E+005
            9011    4.04867E+006    4.07656E+006    4.07656E+006    7.49861E+004   -1.76132E+004    4.09417E+006   -1.37798E+006    4.04628E+006    5.34524E+004    4.05829E+006    2.21846E+004   -9.37022E+004    4.64606E+004   -2.54247E+005
            9012    3.26801E+006    3.43562E+006    3.43562E+006    6.29173E+005   -1.52274E+005    3.58789E+006   -1.30417E+006    3.04698E+006    3.92858E+005    2.56714E+006    9.52518E+005   -1.31197E+005    5.13388E+005   -1.41583E+006
            9013    3.11200E+006    3.20245E+006    3.20245E+006    2.30502E+005   -3.28591E+004    3.23531E+006   -1.13336E+006    3.08678E+006    6.68342E+004    3.02404E+006    3.09216E+005   -6.82985E+004    1.47535E+005   -7.11377E+005
            9014    3.59018E+006    3.63494E+006    3.63494E+006    8.30161E+004    7.68117E+003    3.62725E+006   -1.24188E+006    3.58840E+006    4.28517E+004    3.61785E+006    6.49297E+004   -7.71107E+004    4.25662E+004   -2.33763E+005
            9015    2.09281E+006    2.46714E+006    2.46714E+006    8.93644E+005    9.20113E+004    2.37513E+006   -1.15093E+006    1.69166E+006    3.50275E+005    1.94639E+006    1.15613E+006   -6.31086E+004    4.60974E+005   -7.78820E+005
            9016    2.56525E+006    2.73600E+006    2.73600E+006    3.77973E+005    4.47435E+003    2.73152E+006   -1.03948E+006    2.50298E+006    6.66209E+004    2.67325E+006    3.78578E+005   -3.48344E+004    1.45430E+005   -3.80679E+005
            9017    3.20137E+006    3.25542E+006    3.25542E+006    9.82275E+004    1.16307E+004    3.24379E+006   -1.12176E+006    3.19873E+006    3.78715E+004    3.25025E+006    7.71621E+004   -4.20828E+004    4.11688E+004   -1.20694E+005
            9018    1.43542E+006    1.71772E+006    1.71772E+006    1.36881E+006    1.40013E+005    1.57771E+006   -1.07551E+006   -1.33491E+006    3.19034E+005    1.71161E+006    1.19590E+006    6.62822E+003    4.34651E+005    4.64405E+004
            9019    2.36514E+006    2.57082E+006    2.57082E+006    4.53246E+005    1.84373E+004    2.55238E+006   -1.01417E+006    2.27260E+006    7.37633E+004    2.56962E+006    3.99117E+005    2.20092E+003    1.44975E+005    5.07262E+004
            9020    3.08199E+006    3.13338E+006    3.13338E+006    9.80135E+004    6.78581E+003    3.12659E+006   -1.07939E+006    3.07895E+006    3.29626E+004    3.13330E+006    7.19166E+004    7.01120E+003    4.12898E+004    1.39041E+004
            9021    2.23775E+006    2.59354E+006    2.59354E+006    8.43338E+005    7.21953E+004    2.52135E+006   -1.16969E+006    1.90238E+006    3.54332E+005    2.01598E+006    1.13876E+006    6.60802E+004    4.64803E+005    8.70509E+005
            9022    2.66751E+006    2.82614E+006    2.82614E+006    3.50615E+005    1.10510E+003    2.82504E+006   -1.05929E+006    2.61525E+006    6.86606E+004    2.74165E+006    3.67549E+005    4.43872E+004    1.47075E+005    4.50747E+005
            9023    3.27990E+006    3.33497E+006    3.33497E+006    9.65212E+004    1.51433E+004    3.31983E+006   -1.14888E+006    3.27762E+006    3.92834E+004    3.32660E+006    8.07526E+004    5.16901E+004    3.93018E+004    1.56230E+005
            9024    3.38336E+006    3.54204E+006    3.54204E+006    6.22943E+005   -1.66118E+005    3.70816E+006   -1.33296E+006    3.16625E+006    3.98315E+005    2.66896E+006    9.31595E+005    1.46065E+005    5.17028E+005    1.45509E+006
            9025    3.27331E+006    3.33717E+006    3.33717E+006    1.92084E+005   -5.08297E+004    3.38800E+006   -1.15948E+006    3.25294E+006    5.81571E+004    3.14139E+006    2.78880E+005    6.98976E+004    1.41791E+005    7.67051E+005
            9026    3.72301E+006    3.75637E+006    3.75637E+006    7.40267E+004   -6.03221E+003    3.76240E+006   -1.27479E+006    3.72108E+006    4.16206E+004    3.73824E+006    4.45013E+004    8.83677E+004    4.55458E+004    2.42791E+005
            9027    1.06588E+007    1.10381E+007    1.10381E+007    5.85679E+005    1.84171E+005    1.08539E+007   -3.93598E+006    1.06418E+007    2.81507E+005    1.10355E+007    4.90910E+005   -1.30565E+005   -1.72334E+005    9.96657E+004
            9028    1.08632E+007    1.13390E+007    1.13390E+007    7.11337E+005    2.54698E+005    1.10843E+007   -4.10168E+006    1.08416E+007    3.01954E+005    1.13124E+007    6.90666E+005   -4.07552E+005   -1.29810E+005    3.45666E+005
            9029    1.11796E+007    1.20553E+007    1.20553E+007    1.17717E+006    5.96832E+005    1.14585E+007   -4.60978E+006    1.11457E+007    6.66812E+005    1.19489E+007    1.21367E+006   -8.63578E+005   -9.60433E+002    6.66674E+005
            9030    1.22869E+007    1.34310E+007    1.34310E+007    1.86683E+006    5.30619E+005    1.29004E+007   -5.27615E+006    1.21218E+007    8.29512E+005    1.31448E+007    1.85417E+006   -1.54531E+006    2.33988E+005    1.08677E+006
            9031    1.36664E+007    1.63526E+007    1.63526E+007    4.25268E+006    1.52978E+006    1.48229E+007   -7.37837E+006    1.30350E+007    3.43154E+006    1.53343E+007    3.36927E+006   -3.28195E+006    9.20980E+005    1.77871E+006
            9032    1.21314E+007    1.25923E+007    1.25923E+007    6.13775E+005    3.13549E+005    1.22787E+007   -4.50654E+006    1.21231E+007    3.67070E+005    1.25898E+007    5.62710E+005   -1.54349E+005   -1.14220E+005    7.66428E+004
            9033    1.22503E+007    1.28867E+007    1.28867E+007    9.10032E+005    3.79894E+005    1.25068E+007   -4.72554E+006    1.22245E+007    4.10211E+005    1.28629E+007    9.03532E+005   -4.88780E+005   -8.53180E+004    2.33171E+005
            9034    1.23805E+007    1.35978E+007    1.35978E+007    1.72574E+006    7.64754E+005    1.28330E+007   -5.36275E+006    1.22962E+007    8.52543E+005    1.34923E+007    1.74339E+006   -1.04329E+006    6.66713E+003    4.87959E+005
            9035    1.32057E+007    1.49649E+007    1.49649E+007    2.91289E+006    8.48682E+005    1.41163E+007   -6.24217E+006    1.28352E+007    1.15595E+006    1.46459E+007    2.92463E+006   -1.90820E+006    1.79977E+005    8.40982E+005
            9036    1.40718E+007    1.80641E+007    1.80641E+007    5.79091E+006    2.70570E+006    1.53584E+007   -8.85357E+006    1.32785E+007    4.32216E+006    1.67505E+007    5.48804E+006   -4.01587E+006    6.71946E+005    1.52161E+006
            9037    1.29981E+007    1.35205E+007    1.35205E+007    6.32765E+005    4.14803E+005    1.31057E+007   -4.85602E+006    1.29940E+007    4.24242E+005    1.35182E+007    6.25583E+005   -1.70268E+005   -3.93244E+004    2.30587E+004
            9038    1.30633E+007    1.38016E+007    1.38016E+007    1.04231E+006    4.54147E+005    1.33474E+007   -5.09935E+006    1.30334E+007    4.76705E+005    1.37793E+007    1.04207E+006   -5.36739E+005   -2.72346E+004    9.33549E+004
            9039    1.30485E+007    1.44693E+007    1.44693E+007    2.05048E+006    8.71123E+005    1.35981E+007   -5.79696E+006    1.29278E+007    9.66371E+005    1.43718E+007    2.05273E+006   -1.13269E+006    1.26182E+003    1.75635E+005
            9040    1.36700E+007    1.57873E+007    1.57873E+007    3.55008E+006    1.03400E+006    1.47533E+007   -6.79045E+006    1.31338E+007    1.34088E+006    1.54772E+007    3.55323E+006   -2.08991E+006    6.03707E+004    3.15452E+005
            9041    1.41416E+007    1.89778E+007    1.89778E+007    6.92311E+006    3.41123E+006    1.55666E+007   -9.77072E+006    1.31055E+007    4.87837E+006    1.75383E+007    6.89546E+006   -4.46750E+006    2.39482E+005    6.13491E+005
            9042    7.24232E+006    6.84308E+006    6.84308E+006    7.19990E+005   -1.15122E+006    7.99429E+006   -2.13728E+006    6.66512E+006    6.37358E+005    6.68667E+006   -9.12181E+005   -6.42001E+005    5.95488E+005   -7.70697E+005
            9043    8.77483E+006    8.37519E+006    8.37519E+006    9.82876E+005   -1.32205E+006    9.69723E+006   -2.67867E+006    8.05042E+006    9.00257E+005    8.24224E+006   -1.10648E+006   -9.34835E+005    6.92122E+005   -3.02082E+005
            9044    1.01896E+007    1.00721E+007    1.00721E+007    1.41641E+006   -1.15775E+006    1.12299E+007   -3.44359E+006    9.41548E+006    1.28519E+006    9.87826E+006   -8.32680E+005   -1.30479E+006    8.40888E+005    1.57764E+005
            9045    1.15885E+007    1.20619E+007    1.20619E+007    2.04742E+006   -6.31389E+005    1.26933E+007   -4.49265E+006    1.08586E+007    1.83037E+006    1.16986E+007   -5.10081E+004   -1.83224E+006    9.50842E+005    8.21086E+005
            9046    1.28132E+007    1.42437E+007    1.42437E+007    2.97309E+006    3.07285E+005    1.39364E+007   -5.84135E+006    1.21656E+007    2.55498E+006    1.35924E+007    1.37664E+006   -2.50475E+006    1.00679E+006    1.42550E+006
            9047    1.10675E+007    1.15872E+007    1.15872E+007    9.22988E+005    1.56356E+005    1.14308E+007   -4.22218E+006    1.10075E+007    5.11252E+005    1.13636E+007    7.91705E+005   -1.17050E+006    2.41479E+005    1.06384E+006
            9048    9.77300E+006    1.02980E+007    1.02980E+007    6.23110E+005    4.29684E+005    9.86827E+006   -3.78358E+006    9.76869E+006    4.83496E+005    1.01929E+007    6.74368E+005   -6.81564E+005   -1.77249E+004    7.44195E+005
            9049    9.24361E+006    9.57014E+006    9.57014E+006    5.36663E+005    1.29834E+005    9.44031E+006   -3.41221E+006    9.22343E+006    1.99224E+005    9.53991E+006    4.97501E+005   -3.27758E+005   -1.56637E+005    4.07074E+005
            9050    8.95878E+006    9.26272E+006    9.26272E+006    5.48415E+005    7.79982E+004    9.18472E+006   -3.29638E+006    8.93093E+006    1.95899E+005    9.25919E+006    4.34044E+005   -1.07689E+005   -2.04811E+005    1.38515E+005
            9051    9.77628E+006    9.81039E+006    9.81039E+006    4.04251E+005   -2.98143E+005    1.01085E+007   -3.30550E+006    9.71927E+006    3.05446E+005    9.65772E+006   -4.66641E+004   -8.59101E+005    2.27258E+005    8.80255E+005
            9052    8.35241E+006    8.59272E+006    8.59272E+006    2.99259E+005    1.82588E+005    8.41013E+006   -3.02486E+006    8.35058E+006    3.30033E+005    8.49336E+006    2.51171E+005   -5.24267E+005   -2.95363E+004    7.40626E+005
            9053    7.72191E+006    7.92316E+006    7.92316E+006    3.82453E+005    3.19750E+004    7.89119E+006   -2.77920E+006    7.70399E+006    1.21022E+005    7.88574E+006    3.30827E+005   -2.58075E+005   -1.63128E+005    4.62793E+005
            9054    7.33536E+006    7.58813E+006    7.58813E+006    5.19334E+005    1.24883E+004    7.57564E+006   -2.70665E+006    7.29581E+006    1.28419E+005    7.58405E+006    4.07484E+005   -8.78986E+004   -2.13980E+005    1.45275E+005
            9055    8.44232E+006    8.13679E+006    8.13679E+006    1.59401E+005   -7.04084E+005    8.84087E+006   -2.53070E+006    8.34210E+006    1.32310E+005    8.04342E+006   -5.83624E+005   -5.96242E+005    1.89763E+005    6.67350E+005
            9056    7.13721E+006    7.16427E+006    7.16427E+006    2.03529E+005   -1.37202E+005    7.30147E+006   -2.41020E+006    7.11887E+006    2.25964E+005    7.06857E+006   -6.39380E+004   -3.94315E+005   -3.31246E+004    7.25950E+005
            9057    6.37884E+006    6.49399E+006    6.49399E+006    2.80219E+005   -3.80003E+004    6.53199E+006   -2.24540E+006    6.36094E+006    6.23753E+004    6.44874E+006    2.25094E+005   -1.92889E+005   -1.60798E+005    4.92421E+005
            9058    5.98075E+006    6.19066E+006    6.19066E+006    4.75901E+005   -2.46375E+004    6.21529E+006   -2.21397E+006    5.93336E+006    8.12106E+004    6.18350E+006    3.77210E+005   -7.00069E+004   -2.06121E+005    1.89727E+005
            9059    7.24075E+006    6.79039E+006    6.79039E+006    9.18159E+004   -8.91951E+005    7.68234E+006   -1.99675E+006    7.08806E+006    8.56337E+004    6.74271E+006   -8.38089E+005   -4.20181E+005    1.50755E+005    4.12905E+005
            9060    5.94263E+006    5.85999E+006    5.85999E+006    1.19957E+005   -2.66397E+005    6.12638E+006   -1.90452E+006    5.91428E+006    1.33357E+005    5.77000E+006   -1.89809E+005   -2.75286E+005   -3.53882E+004    6.79714E+005
            9061    5.32143E+006    5.37563E+006    5.37563E+006    1.98850E+005   -7.95249E+004    5.45516E+006   -1.83165E+006    5.30501E+006    3.24858E+004    5.31064E+006    1.51836E+005   -1.40949E+005   -1.51523E+005    5.61549E+005
            9062    4.90726E+006    5.07397E+006    5.07397E+006    4.14455E+005   -4.82486E+004    5.12222E+006   -1.81339E+006    4.85782E+006    4.77606E+004    5.06535E+006    3.27070E+005   -5.25040E+004   -1.89422E+005    1.93664E+005
            9063    5.73727E+006    5.31967E+006    5.31967E+006   -2.31364E+004   -7.43943E+005    6.06361E+006   -1.51753E+006    5.63405E+006   -2.89220E+004    5.30028E+006   -7.18768E+005   -2.30592E+005    9.50603E+004    2.42927E+005
            9064    4.98167E+006    4.89098E+006    4.89098E+006    1.10196E+005   -2.69811E+005    5.16079E+006   -1.57712E+006    4.94890E+006    1.17726E+005    4.77640E+006   -1.62767E+005   -1.92690E+005   -4.31295E+004    7.32886E+005
            9065    4.45252E+006    4.44524E+006    4.44524E+006    1.23583E+005   -1.27516E+005    4.57276E+006   -1.48044E+006    4.43655E+006   -8.76414E+003    4.36540E+006    8.46688E+004   -8.54678E+004   -1.37749E+005    5.81011E+005
            9066    4.05620E+006    4.17314E+006    4.17314E+006    3.24473E+005   -6.28076E+004    4.23595E+006   -1.47827E+006    4.01428E+006    2.70081E+004    4.15941E+006    2.48389E+005   -4.01776E+004   -1.65683E+005    2.27042E+005
            9067    3.26752E+006    3.31448E+006    3.31448E+006    1.93013E+005   -8.17542E+004    3.39623E+006   -1.14191E+006    3.24138E+006   -1.11705E+004    3.30177E+006    1.35138E+005   -2.10105E+004   -1.21468E+005    1.99052E+005
            9068    2.17910E+006    2.17286E+006    2.17286E+006    5.44370E+004   -6.22235E+004    2.23509E+006   -7.21692E+005    2.17206E+006   -4.12296E+004    2.16916E+006    3.71502E+004   -2.21082E+003   -4.49399E+004    8.88887E+004
            9069    3.62784E+006    3.60943E+006    3.60943E+006    7.96610E+004   -1.09106E+005    3.71854E+006   -1.19333E+006    3.61676E+006   -5.06163E+003    3.52800E+006    5.70517E+004   -6.03860E+004   -1.04164E+005    5.32546E+005
            9070    2.56205E+006    2.54494E+006    2.54494E+006    2.36578E+004   -5.60172E+004    2.60096E+006   -8.37528E+005    2.55926E+006   -3.02495E+004    2.52196E+006    2.08763E+004   -1.17173E+004   -3.85208E+004    2.40388E+005
            9071    4.14688E+006    4.04277E+006    4.04277E+006    2.45158E+004   -2.21758E+005    4.26453E+006   -1.28184E+006    4.13038E+006    2.49933E+004    3.93205E+006   -1.11514E+005   -1.14143E+005   -4.61945E+004    6.66848E+005
            9072    3.16426E+006    3.12949E+006    3.12949E+006   -5.14091E+003   -6.35801E+004    3.19307E+006   -1.02026E+006    3.16305E+006   -1.52866E+004    3.09925E+006   -2.31860E+004   -2.44389E+004   -2.48209E+004    3.07637E+005
            9073    4.52724E+006    4.31970E+006    4.31970E+006    2.53026E+004   -4.09079E+005    4.72877E+006   -1.31197E+006    4.48000E+006    2.47442E+004    4.28302E+006   -3.71842E+005   -1.42842E+005    3.50844E+004    3.88185E+005
            9074    3.74593E+006    3.71099E+006    3.71099E+006    1.24627E+004   -8.06205E+004    3.79161E+006   -1.21428E+006    3.74333E+006    1.27437E+004    3.69354E+006   -6.34550E+004   -4.64475E+004    2.14945E+003    2.52314E+005
            9075    4.15546E+006    4.12468E+006    4.12468E+006    4.16877E+004   -9.96476E+004    4.22433E+006   -1.35557E+006    4.15005E+006    3.74519E+004    4.12128E+006   -9.20166E+004   -7.18988E+004    2.56711E+004    9.52308E+004
            9076    4.29632E+006    4.28849E+006    4.28849E+006    6.00368E+004   -7.26186E+004    4.36111E+006   -1.42530E+006    4.29171E+006    4.89614E+004    4.28301E+006   -5.60663E+004   -9.10662E+004    4.21496E+004   -1.22768E+005
            9077    4.54476E+006    4.31276E+006    4.31276E+006    2.44084E+004   -4.51029E+005    4.76379E+006   -1.29538E+006    4.48830E+006    1.39928E+004    4.30428E+006   -4.32129E+005   -1.42290E+005    8.78709E+004   -1.30896E+005
            9078    4.19020E+006    4.04234E+006    4.04234E+006    7.70463E+004   -3.41367E+005    4.38371E+006   -1.25934E+006    4.14280E+006    4.00048E+004    3.94175E+006   -2.03737E+005   -1.11529E+005    1.43171E+005   -6.38982E+005
            9079    5.15129E+006    4.87315E+006    4.87315E+006    5.21911E+005   -8.14706E+005    5.68785E+006   -1.52678E+006    4.73700E+006    4.02078E+005    4.28248E+006   -1.04208E+005   -2.84379E+005    5.59572E+005   -1.64066E+006
            9080    6.11393E+006    5.65856E+006    5.65856E+006    5.20384E+005   -1.10332E+006    6.76188E+006   -1.69187E+006    5.59720E+006    4.11053E+005    5.36889E+006   -7.04324E+005   -4.17509E+005    5.77610E+005   -1.22505E+006


  Minimum           8.40365E+005    1.26253E+006    1.26253E+006   -7.06725E+004   -2.06682E+006    8.72945E+005   -1.15815E+007   -1.33514E+006   -4.30474E+005    1.26197E+006   -2.05668E+006   -4.46750E+006   -1.00967E+006   -2.61757E+006
      At Element            7167            8257            8257            8970            7081            6949            7042            8911            8089            8257            7081            9041            8947            7032

  Maximum           1.49657E+007    1.89833E+007    1.89833E+007    8.78243E+006    7.97553E+006    1.55743E+007   -6.79750E+005    1.49417E+007    8.78284E+006    1.89203E+007    8.05247E+006    4.46750E+006    1.00967E+006    2.61928E+006
      At Element            8679            9004            9004            7042            7042            9004            8475            8679            7042            7046            7042            4899            4805            7069

           Total    3.00550E+010    3.62014E+010    3.62014E+010    9.64264E+009    3.80712E+009    3.23943E+010   -1.65504E+010    2.81545E+010    9.33439E+009    3.55958E+010    4.72095E+009    0.00000E+000    0.00000E+000    2.98840E+006


